# vtk DataFile Version 3.0
output from step 5
ASCII
DATASET UNSTRUCTURED_GRID
POINTS 1325 double
-5.000000e-01		-5.000000e-01		-1.500000e+00
-5.000000e-01		-3.750000e-01		-1.500000e+00
-5.000000e-01		-2.500000e-01		-1.500000e+00
-5.000000e-01		-1.250000e-01		-1.500000e+00
-5.000000e-01		0.000000e+00		-1.500000e+00
-5.000000e-01		1.250000e-01		-1.500000e+00
-5.000000e-01		2.500000e-01		-1.500000e+00
-5.000000e-01		3.750000e-01		-1.500000e+00
-5.000000e-01		5.000000e-01		-1.500000e+00
-3.750000e-01		-5.000000e-01		-1.500000e+00
-3.750000e-01		-2.500000e-01		-1.500000e+00
-3.750000e-01		0.000000e+00		-1.500000e+00
-3.750000e-01		2.500000e-01		-1.500000e+00
-3.750000e-01		5.000000e-01		-1.500000e+00
-2.500000e-01		-5.000000e-01		-1.500000e+00
-2.500000e-01		-3.750000e-01		-1.500000e+00
-2.500000e-01		-2.500000e-01		-1.500000e+00
-2.500000e-01		-1.250000e-01		-1.500000e+00
-2.500000e-01		0.000000e+00		-1.500000e+00
-2.500000e-01		1.250000e-01		-1.500000e+00
-2.500000e-01		2.500000e-01		-1.500000e+00
-2.500000e-01		3.750000e-01		-1.500000e+00
-2.500000e-01		5.000000e-01		-1.500000e+00
-1.250000e-01		-5.000000e-01		-1.500000e+00
-1.250000e-01		-2.500000e-01		-1.500000e+00
-1.250000e-01		0.000000e+00		-1.500000e+00
-1.250000e-01		2.500000e-01		-1.500000e+00
-1.250000e-01		5.000000e-01		-1.500000e+00
0.000000e+00		-5.000000e-01		-1.500000e+00
0.000000e+00		-3.750000e-01		-1.500000e+00
0.000000e+00		-2.500000e-01		-1.500000e+00
0.000000e+00		-1.250000e-01		-1.500000e+00
0.000000e+00		0.000000e+00		-1.500000e+00
0.000000e+00		1.250000e-01		-1.500000e+00
0.000000e+00		2.500000e-01		-1.500000e+00
0.000000e+00		3.750000e-01		-1.500000e+00
0.000000e+00		5.000000e-01		-1.500000e+00
1.250000e-01		-5.000000e-01		-1.500000e+00
1.250000e-01		-2.500000e-01		-1.500000e+00
1.250000e-01		0.000000e+00		-1.500000e+00
1.250000e-01		2.500000e-01		-1.500000e+00
1.250000e-01		5.000000e-01		-1.500000e+00
2.500000e-01		-5.000000e-01		-1.500000e+00
2.500000e-01		-3.750000e-01		-1.500000e+00
2.500000e-01		-2.500000e-01		-1.500000e+00
2.500000e-01		-1.250000e-01		-1.500000e+00
2.500000e-01		0.000000e+00		-1.500000e+00
2.500000e-01		1.250000e-01		-1.500000e+00
2.500000e-01		2.500000e-01		-1.500000e+00
2.500000e-01		3.750000e-01		-1.500000e+00
2.500000e-01		5.000000e-01		-1.500000e+00
3.750000e-01		-5.000000e-01		-1.500000e+00
3.750000e-01		-2.500000e-01		-1.500000e+00
3.750000e-01		0.000000e+00		-1.500000e+00
3.750000e-01		2.500000e-01		-1.500000e+00
3.750000e-01		5.000000e-01		-1.500000e+00
5.000000e-01		-5.000000e-01		-1.500000e+00
5.000000e-01		-3.750000e-01		-1.500000e+00
5.000000e-01		-2.500000e-01		-1.500000e+00
5.000000e-01		-1.250000e-01		-1.500000e+00
5.000000e-01		0.000000e+00		-1.500000e+00
5.000000e-01		1.250000e-01		-1.500000e+00
5.000000e-01		2.500000e-01		-1.500000e+00
5.000000e-01		3.750000e-01		-1.500000e+00
5.000000e-01		5.000000e-01		-1.500000e+00
-5.000000e-01		-5.000000e-01		-1.392857e+00
-5.000000e-01		-2.500000e-01		-1.392857e+00
-5.000000e-01		0.000000e+00		-1.392857e+00
-5.000000e-01		2.500000e-01		-1.392857e+00
-5.000000e-01		5.000000e-01		-1.392857e+00
-2.500000e-01		-5.000000e-01		-1.392857e+00
-2.500000e-01		-2.500000e-01		-1.392857e+00
-2.500000e-01		0.000000e+00		-1.392857e+00
-2.500000e-01		2.500000e-01		-1.392857e+00
-2.500000e-01		5.000000e-01		-1.392857e+00
0.000000e+00		-5.000000e-01		-1.392857e+00
0.000000e+00		-2.500000e-01		-1.392857e+00
0.000000e+00		0.000000e+00		-1.392857e+00
0.000000e+00		2.500000e-01		-1.392857e+00
0.000000e+00		5.000000e-01		-1.392857e+00
2.500000e-01		-5.000000e-01		-1.392857e+00
2.500000e-01		-2.500000e-01		-1.392857e+00
2.500000e-01		0.000000e+00		-1.392857e+00
2.500000e-01		2.500000e-01		-1.392857e+00
2.500000e-01		5.000000e-01		-1.392857e+00
5.000000e-01		-5.000000e-01		-1.392857e+00
5.000000e-01		-2.500000e-01		-1.392857e+00
5.000000e-01		0.000000e+00		-1.392857e+00
5.000000e-01		2.500000e-01		-1.392857e+00
5.000000e-01		5.000000e-01		-1.392857e+00
-5.000000e-01		-5.000000e-01		-1.285714e+00
-5.000000e-01		-3.750000e-01		-1.285714e+00
-5.000000e-01		-2.500000e-01		-1.285714e+00
-5.000000e-01		-1.250000e-01		-1.285714e+00
-5.000000e-01		0.000000e+00		-1.285714e+00
-5.000000e-01		1.250000e-01		-1.285714e+00
-5.000000e-01		2.500000e-01		-1.285714e+00
-5.000000e-01		3.750000e-01		-1.285714e+00
-5.000000e-01		5.000000e-01		-1.285714e+00
-3.750000e-01		-5.000000e-01		-1.285714e+00
-3.750000e-01		-2.500000e-01		-1.285714e+00
-3.750000e-01		0.000000e+00		-1.285714e+00
-3.750000e-01		2.500000e-01		-1.285714e+00
-3.750000e-01		5.000000e-01		-1.285714e+00
-2.500000e-01		-5.000000e-01		-1.285714e+00
-2.500000e-01		-3.750000e-01		-1.285714e+00
-2.500000e-01		-2.500000e-01		-1.285714e+00
-2.500000e-01		-1.250000e-01		-1.285714e+00
-2.500000e-01		0.000000e+00		-1.285714e+00
-2.500000e-01		1.250000e-01		-1.285714e+00
-2.500000e-01		2.500000e-01		-1.285714e+00
-2.500000e-01		3.750000e-01		-1.285714e+00
-2.500000e-01		5.000000e-01		-1.285714e+00
-1.250000e-01		-5.000000e-01		-1.285714e+00
-1.250000e-01		-2.500000e-01		-1.285714e+00
-1.250000e-01		0.000000e+00		-1.285714e+00
-1.250000e-01		2.500000e-01		-1.285714e+00
-1.250000e-01		5.000000e-01		-1.285714e+00
0.000000e+00		-5.000000e-01		-1.285714e+00
0.000000e+00		-3.750000e-01		-1.285714e+00
0.000000e+00		-2.500000e-01		-1.285714e+00
0.000000e+00		-1.250000e-01		-1.285714e+00
0.000000e+00		0.000000e+00		-1.285714e+00
0.000000e+00		1.250000e-01		-1.285714e+00
0.000000e+00		2.500000e-01		-1.285714e+00
0.000000e+00		3.750000e-01		-1.285714e+00
0.000000e+00		5.000000e-01		-1.285714e+00
1.250000e-01		-5.000000e-01		-1.285714e+00
1.250000e-01		-2.500000e-01		-1.285714e+00
1.250000e-01		0.000000e+00		-1.285714e+00
1.250000e-01		2.500000e-01		-1.285714e+00
1.250000e-01		5.000000e-01		-1.285714e+00
2.500000e-01		-5.000000e-01		-1.285714e+00
2.500000e-01		-3.750000e-01		-1.285714e+00
2.500000e-01		-2.500000e-01		-1.285714e+00
2.500000e-01		-1.250000e-01		-1.285714e+00
2.500000e-01		0.000000e+00		-1.285714e+00
2.500000e-01		1.250000e-01		-1.285714e+00
2.500000e-01		2.500000e-01		-1.285714e+00
2.500000e-01		3.750000e-01		-1.285714e+00
2.500000e-01		5.000000e-01		-1.285714e+00
3.750000e-01		-5.000000e-01		-1.285714e+00
3.750000e-01		-2.500000e-01		-1.285714e+00
3.750000e-01		0.000000e+00		-1.285714e+00
3.750000e-01		2.500000e-01		-1.285714e+00
3.750000e-01		5.000000e-01		-1.285714e+00
5.000000e-01		-5.000000e-01		-1.285714e+00
5.000000e-01		-3.750000e-01		-1.285714e+00
5.000000e-01		-2.500000e-01		-1.285714e+00
5.000000e-01		-1.250000e-01		-1.285714e+00
5.000000e-01		0.000000e+00		-1.285714e+00
5.000000e-01		1.250000e-01		-1.285714e+00
5.000000e-01		2.500000e-01		-1.285714e+00
5.000000e-01		3.750000e-01		-1.285714e+00
5.000000e-01		5.000000e-01		-1.285714e+00
-5.000000e-01		-5.000000e-01		-1.178571e+00
-5.000000e-01		-2.500000e-01		-1.178571e+00
-5.000000e-01		0.000000e+00		-1.178571e+00
-5.000000e-01		2.500000e-01		-1.178571e+00
-5.000000e-01		5.000000e-01		-1.178571e+00
-2.500000e-01		-5.000000e-01		-1.178571e+00
-2.500000e-01		-2.500000e-01		-1.178571e+00
-2.500000e-01		0.000000e+00		-1.178571e+00
-2.500000e-01		2.500000e-01		-1.178571e+00
-2.500000e-01		5.000000e-01		-1.178571e+00
0.000000e+00		-5.000000e-01		-1.178571e+00
0.000000e+00		-2.500000e-01		-1.178571e+00
0.000000e+00		0.000000e+00		-1.178571e+00
0.000000e+00		2.500000e-01		-1.178571e+00
0.000000e+00		5.000000e-01		-1.178571e+00
2.500000e-01		-5.000000e-01		-1.178571e+00
2.500000e-01		-2.500000e-01		-1.178571e+00
2.500000e-01		0.000000e+00		-1.178571e+00
2.500000e-01		2.500000e-01		-1.178571e+00
2.500000e-01		5.000000e-01		-1.178571e+00
5.000000e-01		-5.000000e-01		-1.178571e+00
5.000000e-01		-2.500000e-01		-1.178571e+00
5.000000e-01		0.000000e+00		-1.178571e+00
5.000000e-01		2.500000e-01		-1.178571e+00
5.000000e-01		5.000000e-01		-1.178571e+00
-5.000000e-01		-5.000000e-01		-1.071429e+00
-5.000000e-01		-3.750000e-01		-1.071429e+00
-5.000000e-01		-2.500000e-01		-1.071429e+00
-5.000000e-01		-1.250000e-01		-1.071429e+00
-5.000000e-01		0.000000e+00		-1.071429e+00
-5.000000e-01		1.250000e-01		-1.071429e+00
-5.000000e-01		2.500000e-01		-1.071429e+00
-5.000000e-01		3.750000e-01		-1.071429e+00
-5.000000e-01		5.000000e-01		-1.071429e+00
-3.750000e-01		-5.000000e-01		-1.071429e+00
-3.750000e-01		-2.500000e-01		-1.071429e+00
-3.750000e-01		0.000000e+00		-1.071429e+00
-3.750000e-01		2.500000e-01		-1.071429e+00
-3.750000e-01		5.000000e-01		-1.071429e+00
-2.500000e-01		-5.000000e-01		-1.071429e+00
-2.500000e-01		-3.750000e-01		-1.071429e+00
-2.500000e-01		-2.500000e-01		-1.071429e+00
-2.500000e-01		-1.250000e-01		-1.071429e+00
-2.500000e-01		0.000000e+00		-1.071429e+00
-2.500000e-01		1.250000e-01		-1.071429e+00
-2.500000e-01		2.500000e-01		-1.071429e+00
-2.500000e-01		3.750000e-01		-1.071429e+00
-2.500000e-01		5.000000e-01		-1.071429e+00
-1.250000e-01		-5.000000e-01		-1.071429e+00
-1.250000e-01		-2.500000e-01		-1.071429e+00
-1.250000e-01		0.000000e+00		-1.071429e+00
-1.250000e-01		2.500000e-01		-1.071429e+00
-1.250000e-01		5.000000e-01		-1.071429e+00
0.000000e+00		-5.000000e-01		-1.071429e+00
0.000000e+00		-3.750000e-01		-1.071429e+00
0.000000e+00		-2.500000e-01		-1.071429e+00
0.000000e+00		-1.250000e-01		-1.071429e+00
0.000000e+00		0.000000e+00		-1.071429e+00
0.000000e+00		1.250000e-01		-1.071429e+00
0.000000e+00		2.500000e-01		-1.071429e+00
0.000000e+00		3.750000e-01		-1.071429e+00
0.000000e+00		5.000000e-01		-1.071429e+00
1.250000e-01		-5.000000e-01		-1.071429e+00
1.250000e-01		-2.500000e-01		-1.071429e+00
1.250000e-01		0.000000e+00		-1.071429e+00
1.250000e-01		2.500000e-01		-1.071429e+00
1.250000e-01		5.000000e-01		-1.071429e+00
2.500000e-01		-5.000000e-01		-1.071429e+00
2.500000e-01		-3.750000e-01		-1.071429e+00
2.500000e-01		-2.500000e-01		-1.071429e+00
2.500000e-01		-1.250000e-01		-1.071429e+00
2.500000e-01		0.000000e+00		-1.071429e+00
2.500000e-01		1.250000e-01		-1.071429e+00
2.500000e-01		2.500000e-01		-1.071429e+00
2.500000e-01		3.750000e-01		-1.071429e+00
2.500000e-01		5.000000e-01		-1.071429e+00
3.750000e-01		-5.000000e-01		-1.071429e+00
3.750000e-01		-2.500000e-01		-1.071429e+00
3.750000e-01		0.000000e+00		-1.071429e+00
3.750000e-01		2.500000e-01		-1.071429e+00
3.750000e-01		5.000000e-01		-1.071429e+00
5.000000e-01		-5.000000e-01		-1.071429e+00
5.000000e-01		-3.750000e-01		-1.071429e+00
5.000000e-01		-2.500000e-01		-1.071429e+00
5.000000e-01		-1.250000e-01		-1.071429e+00
5.000000e-01		0.000000e+00		-1.071429e+00
5.000000e-01		1.250000e-01		-1.071429e+00
5.000000e-01		2.500000e-01		-1.071429e+00
5.000000e-01		3.750000e-01		-1.071429e+00
5.000000e-01		5.000000e-01		-1.071429e+00
-5.000000e-01		-5.000000e-01		-9.642857e-01
-5.000000e-01		-2.500000e-01		-9.642857e-01
-5.000000e-01		0.000000e+00		-9.642857e-01
-5.000000e-01		2.500000e-01		-9.642857e-01
-5.000000e-01		5.000000e-01		-9.642857e-01
-2.500000e-01		-5.000000e-01		-9.642857e-01
-2.500000e-01		-2.500000e-01		-9.642857e-01
-2.500000e-01		0.000000e+00		-9.642857e-01
-2.500000e-01		2.500000e-01		-9.642857e-01
-2.500000e-01		5.000000e-01		-9.642857e-01
0.000000e+00		-5.000000e-01		-9.642857e-01
0.000000e+00		-2.500000e-01		-9.642857e-01
0.000000e+00		0.000000e+00		-9.642857e-01
0.000000e+00		2.500000e-01		-9.642857e-01
0.000000e+00		5.000000e-01		-9.642857e-01
2.500000e-01		-5.000000e-01		-9.642857e-01
2.500000e-01		-2.500000e-01		-9.642857e-01
2.500000e-01		0.000000e+00		-9.642857e-01
2.500000e-01		2.500000e-01		-9.642857e-01
2.500000e-01		5.000000e-01		-9.642857e-01
5.000000e-01		-5.000000e-01		-9.642857e-01
5.000000e-01		-2.500000e-01		-9.642857e-01
5.000000e-01		0.000000e+00		-9.642857e-01
5.000000e-01		2.500000e-01		-9.642857e-01
5.000000e-01		5.000000e-01		-9.642857e-01
-5.000000e-01		-5.000000e-01		-8.571429e-01
-5.000000e-01		-3.750000e-01		-8.571429e-01
-5.000000e-01		-2.500000e-01		-8.571429e-01
-5.000000e-01		-1.250000e-01		-8.571429e-01
-5.000000e-01		0.000000e+00		-8.571429e-01
-5.000000e-01		1.250000e-01		-8.571429e-01
-5.000000e-01		2.500000e-01		-8.571429e-01
-5.000000e-01		3.750000e-01		-8.571429e-01
-5.000000e-01		5.000000e-01		-8.571429e-01
-3.750000e-01		-5.000000e-01		-8.571429e-01
-3.750000e-01		-2.500000e-01		-8.571429e-01
-3.750000e-01		0.000000e+00		-8.571429e-01
-3.750000e-01		2.500000e-01		-8.571429e-01
-3.750000e-01		5.000000e-01		-8.571429e-01
-2.500000e-01		-5.000000e-01		-8.571429e-01
-2.500000e-01		-3.750000e-01		-8.571429e-01
-2.500000e-01		-2.500000e-01		-8.571429e-01
-2.500000e-01		-1.250000e-01		-8.571429e-01
-2.500000e-01		0.000000e+00		-8.571429e-01
-2.500000e-01		1.250000e-01		-8.571429e-01
-2.500000e-01		2.500000e-01		-8.571429e-01
-2.500000e-01		3.750000e-01		-8.571429e-01
-2.500000e-01		5.000000e-01		-8.571429e-01
-1.250000e-01		-5.000000e-01		-8.571429e-01
-1.250000e-01		-2.500000e-01		-8.571429e-01
-1.250000e-01		0.000000e+00		-8.571429e-01
-1.250000e-01		2.500000e-01		-8.571429e-01
-1.250000e-01		5.000000e-01		-8.571429e-01
0.000000e+00		-5.000000e-01		-8.571429e-01
0.000000e+00		-3.750000e-01		-8.571429e-01
0.000000e+00		-2.500000e-01		-8.571429e-01
0.000000e+00		-1.250000e-01		-8.571429e-01
0.000000e+00		0.000000e+00		-8.571429e-01
0.000000e+00		1.250000e-01		-8.571429e-01
0.000000e+00		2.500000e-01		-8.571429e-01
0.000000e+00		3.750000e-01		-8.571429e-01
0.000000e+00		5.000000e-01		-8.571429e-01
1.250000e-01		-5.000000e-01		-8.571429e-01
1.250000e-01		-2.500000e-01		-8.571429e-01
1.250000e-01		0.000000e+00		-8.571429e-01
1.250000e-01		2.500000e-01		-8.571429e-01
1.250000e-01		5.000000e-01		-8.571429e-01
2.500000e-01		-5.000000e-01		-8.571429e-01
2.500000e-01		-3.750000e-01		-8.571429e-01
2.500000e-01		-2.500000e-01		-8.571429e-01
2.500000e-01		-1.250000e-01		-8.571429e-01
2.500000e-01		0.000000e+00		-8.571429e-01
2.500000e-01		1.250000e-01		-8.571429e-01
2.500000e-01		2.500000e-01		-8.571429e-01
2.500000e-01		3.750000e-01		-8.571429e-01
2.500000e-01		5.000000e-01		-8.571429e-01
3.750000e-01		-5.000000e-01		-8.571429e-01
3.750000e-01		-2.500000e-01		-8.571429e-01
3.750000e-01		0.000000e+00		-8.571429e-01
3.750000e-01		2.500000e-01		-8.571429e-01
3.750000e-01		5.000000e-01		-8.571429e-01
5.000000e-01		-5.000000e-01		-8.571429e-01
5.000000e-01		-3.750000e-01		-8.571429e-01
5.000000e-01		-2.500000e-01		-8.571429e-01
5.000000e-01		-1.250000e-01		-8.571429e-01
5.000000e-01		0.000000e+00		-8.571429e-01
5.000000e-01		1.250000e-01		-8.571429e-01
5.000000e-01		2.500000e-01		-8.571429e-01
5.000000e-01		3.750000e-01		-8.571429e-01
5.000000e-01		5.000000e-01		-8.571429e-01
-5.000000e-01		-5.000000e-01		-7.500000e-01
-5.000000e-01		-2.500000e-01		-7.500000e-01
-5.000000e-01		0.000000e+00		-7.500000e-01
-5.000000e-01		2.500000e-01		-7.500000e-01
-5.000000e-01		5.000000e-01		-7.500000e-01
-2.500000e-01		-5.000000e-01		-7.500000e-01
-2.500000e-01		-2.500000e-01		-7.500000e-01
-2.500000e-01		0.000000e+00		-7.500000e-01
-2.500000e-01		2.500000e-01		-7.500000e-01
-2.500000e-01		5.000000e-01		-7.500000e-01
0.000000e+00		-5.000000e-01		-7.500000e-01
0.000000e+00		-2.500000e-01		-7.500000e-01
0.000000e+00		0.000000e+00		-7.500000e-01
0.000000e+00		2.500000e-01		-7.500000e-01
0.000000e+00		5.000000e-01		-7.500000e-01
2.500000e-01		-5.000000e-01		-7.500000e-01
2.500000e-01		-2.500000e-01		-7.500000e-01
2.500000e-01		0.000000e+00		-7.500000e-01
2.500000e-01		2.500000e-01		-7.500000e-01
2.500000e-01		5.000000e-01		-7.500000e-01
5.000000e-01		-5.000000e-01		-7.500000e-01
5.000000e-01		-2.500000e-01		-7.500000e-01
5.000000e-01		0.000000e+00		-7.500000e-01
5.000000e-01		2.500000e-01		-7.500000e-01
5.000000e-01		5.000000e-01		-7.500000e-01
-5.000000e-01		-5.000000e-01		-6.428571e-01
-5.000000e-01		-3.750000e-01		-6.428571e-01
-5.000000e-01		-2.500000e-01		-6.428571e-01
-5.000000e-01		-1.250000e-01		-6.428571e-01
-5.000000e-01		0.000000e+00		-6.428571e-01
-5.000000e-01		1.250000e-01		-6.428571e-01
-5.000000e-01		2.500000e-01		-6.428571e-01
-5.000000e-01		3.750000e-01		-6.428571e-01
-5.000000e-01		5.000000e-01		-6.428571e-01
-3.750000e-01		-5.000000e-01		-6.428571e-01
-3.750000e-01		-2.500000e-01		-6.428571e-01
-3.750000e-01		0.000000e+00		-6.428571e-01
-3.750000e-01		2.500000e-01		-6.428571e-01
-3.750000e-01		5.000000e-01		-6.428571e-01
-2.500000e-01		-5.000000e-01		-6.428571e-01
-2.500000e-01		-3.750000e-01		-6.428571e-01
-2.500000e-01		-2.500000e-01		-6.428571e-01
-2.500000e-01		-1.250000e-01		-6.428571e-01
-2.500000e-01		0.000000e+00		-6.428571e-01
-2.500000e-01		1.250000e-01		-6.428571e-01
-2.500000e-01		2.500000e-01		-6.428571e-01
-2.500000e-01		3.750000e-01		-6.428571e-01
-2.500000e-01		5.000000e-01		-6.428571e-01
-1.250000e-01		-5.000000e-01		-6.428571e-01
-1.250000e-01		-2.500000e-01		-6.428571e-01
-1.250000e-01		0.000000e+00		-6.428571e-01
-1.250000e-01		2.500000e-01		-6.428571e-01
-1.250000e-01		5.000000e-01		-6.428571e-01
0.000000e+00		-5.000000e-01		-6.428571e-01
0.000000e+00		-3.750000e-01		-6.428571e-01
0.000000e+00		-2.500000e-01		-6.428571e-01
0.000000e+00		-1.250000e-01		-6.428571e-01
0.000000e+00		0.000000e+00		-6.428571e-01
0.000000e+00		1.250000e-01		-6.428571e-01
0.000000e+00		2.500000e-01		-6.428571e-01
0.000000e+00		3.750000e-01		-6.428571e-01
0.000000e+00		5.000000e-01		-6.428571e-01
1.250000e-01		-5.000000e-01		-6.428571e-01
1.250000e-01		-2.500000e-01		-6.428571e-01
1.250000e-01		0.000000e+00		-6.428571e-01
1.250000e-01		2.500000e-01		-6.428571e-01
1.250000e-01		5.000000e-01		-6.428571e-01
2.500000e-01		-5.000000e-01		-6.428571e-01
2.500000e-01		-3.750000e-01		-6.428571e-01
2.500000e-01		-2.500000e-01		-6.428571e-01
2.500000e-01		-1.250000e-01		-6.428571e-01
2.500000e-01		0.000000e+00		-6.428571e-01
2.500000e-01		1.250000e-01		-6.428571e-01
2.500000e-01		2.500000e-01		-6.428571e-01
2.500000e-01		3.750000e-01		-6.428571e-01
2.500000e-01		5.000000e-01		-6.428571e-01
3.750000e-01		-5.000000e-01		-6.428571e-01
3.750000e-01		-2.500000e-01		-6.428571e-01
3.750000e-01		0.000000e+00		-6.428571e-01
3.750000e-01		2.500000e-01		-6.428571e-01
3.750000e-01		5.000000e-01		-6.428571e-01
5.000000e-01		-5.000000e-01		-6.428571e-01
5.000000e-01		-3.750000e-01		-6.428571e-01
5.000000e-01		-2.500000e-01		-6.428571e-01
5.000000e-01		-1.250000e-01		-6.428571e-01
5.000000e-01		0.000000e+00		-6.428571e-01
5.000000e-01		1.250000e-01		-6.428571e-01
5.000000e-01		2.500000e-01		-6.428571e-01
5.000000e-01		3.750000e-01		-6.428571e-01
5.000000e-01		5.000000e-01		-6.428571e-01
-5.000000e-01		-5.000000e-01		-5.357143e-01
-5.000000e-01		-2.500000e-01		-5.357143e-01
-5.000000e-01		0.000000e+00		-5.357143e-01
-5.000000e-01		2.500000e-01		-5.357143e-01
-5.000000e-01		5.000000e-01		-5.357143e-01
-2.500000e-01		-5.000000e-01		-5.357143e-01
-2.500000e-01		-2.500000e-01		-5.357143e-01
-2.500000e-01		0.000000e+00		-5.357143e-01
-2.500000e-01		2.500000e-01		-5.357143e-01
-2.500000e-01		5.000000e-01		-5.357143e-01
0.000000e+00		-5.000000e-01		-5.357143e-01
0.000000e+00		-2.500000e-01		-5.357143e-01
0.000000e+00		0.000000e+00		-5.357143e-01
0.000000e+00		2.500000e-01		-5.357143e-01
0.000000e+00		5.000000e-01		-5.357143e-01
2.500000e-01		-5.000000e-01		-5.357143e-01
2.500000e-01		-2.500000e-01		-5.357143e-01
2.500000e-01		0.000000e+00		-5.357143e-01
2.500000e-01		2.500000e-01		-5.357143e-01
2.500000e-01		5.000000e-01		-5.357143e-01
5.000000e-01		-5.000000e-01		-5.357143e-01
5.000000e-01		-2.500000e-01		-5.357143e-01
5.000000e-01		0.000000e+00		-5.357143e-01
5.000000e-01		2.500000e-01		-5.357143e-01
5.000000e-01		5.000000e-01		-5.357143e-01
-5.000000e-01		-5.000000e-01		-4.285714e-01
-5.000000e-01		-3.750000e-01		-4.285714e-01
-5.000000e-01		-2.500000e-01		-4.285714e-01
-5.000000e-01		-1.250000e-01		-4.285714e-01
-5.000000e-01		0.000000e+00		-4.285714e-01
-5.000000e-01		1.250000e-01		-4.285714e-01
-5.000000e-01		2.500000e-01		-4.285714e-01
-5.000000e-01		3.750000e-01		-4.285714e-01
-5.000000e-01		5.000000e-01		-4.285714e-01
-3.750000e-01		-5.000000e-01		-4.285714e-01
-3.750000e-01		-2.500000e-01		-4.285714e-01
-3.750000e-01		0.000000e+00		-4.285714e-01
-3.750000e-01		2.500000e-01		-4.285714e-01
-3.750000e-01		5.000000e-01		-4.285714e-01
-2.500000e-01		-5.000000e-01		-4.285714e-01
-2.500000e-01		-3.750000e-01		-4.285714e-01
-2.500000e-01		-2.500000e-01		-4.285714e-01
-2.500000e-01		-1.250000e-01		-4.285714e-01
-2.500000e-01		0.000000e+00		-4.285714e-01
-2.500000e-01		1.250000e-01		-4.285714e-01
-2.500000e-01		2.500000e-01		-4.285714e-01
-2.500000e-01		3.750000e-01		-4.285714e-01
-2.500000e-01		5.000000e-01		-4.285714e-01
-1.250000e-01		-5.000000e-01		-4.285714e-01
-1.250000e-01		-2.500000e-01		-4.285714e-01
-1.250000e-01		0.000000e+00		-4.285714e-01
-1.250000e-01		2.500000e-01		-4.285714e-01
-1.250000e-01		5.000000e-01		-4.285714e-01
0.000000e+00		-5.000000e-01		-4.285714e-01
0.000000e+00		-3.750000e-01		-4.285714e-01
0.000000e+00		-2.500000e-01		-4.285714e-01
0.000000e+00		-1.250000e-01		-4.285714e-01
0.000000e+00		0.000000e+00		-4.285714e-01
0.000000e+00		1.250000e-01		-4.285714e-01
0.000000e+00		2.500000e-01		-4.285714e-01
0.000000e+00		3.750000e-01		-4.285714e-01
0.000000e+00		5.000000e-01		-4.285714e-01
1.250000e-01		-5.000000e-01		-4.285714e-01
1.250000e-01		-2.500000e-01		-4.285714e-01
1.250000e-01		0.000000e+00		-4.285714e-01
1.250000e-01		2.500000e-01		-4.285714e-01
1.250000e-01		5.000000e-01		-4.285714e-01
2.500000e-01		-5.000000e-01		-4.285714e-01
2.500000e-01		-3.750000e-01		-4.285714e-01
2.500000e-01		-2.500000e-01		-4.285714e-01
2.500000e-01		-1.250000e-01		-4.285714e-01
2.500000e-01		0.000000e+00		-4.285714e-01
2.500000e-01		1.250000e-01		-4.285714e-01
2.500000e-01		2.500000e-01		-4.285714e-01
2.500000e-01		3.750000e-01		-4.285714e-01
2.500000e-01		5.000000e-01		-4.285714e-01
3.750000e-01		-5.000000e-01		-4.285714e-01
3.750000e-01		-2.500000e-01		-4.285714e-01
3.750000e-01		0.000000e+00		-4.285714e-01
3.750000e-01		2.500000e-01		-4.285714e-01
3.750000e-01		5.000000e-01		-4.285714e-01
5.000000e-01		-5.000000e-01		-4.285714e-01
5.000000e-01		-3.750000e-01		-4.285714e-01
5.000000e-01		-2.500000e-01		-4.285714e-01
5.000000e-01		-1.250000e-01		-4.285714e-01
5.000000e-01		0.000000e+00		-4.285714e-01
5.000000e-01		1.250000e-01		-4.285714e-01
5.000000e-01		2.500000e-01		-4.285714e-01
5.000000e-01		3.750000e-01		-4.285714e-01
5.000000e-01		5.000000e-01		-4.285714e-01
-5.000000e-01		-5.000000e-01		-3.214286e-01
-5.000000e-01		-2.500000e-01		-3.214286e-01
-5.000000e-01		0.000000e+00		-3.214286e-01
-5.000000e-01		2.500000e-01		-3.214286e-01
-5.000000e-01		5.000000e-01		-3.214286e-01
-2.500000e-01		-5.000000e-01		-3.214286e-01
-2.500000e-01		-2.500000e-01		-3.214286e-01
-2.500000e-01		0.000000e+00		-3.214286e-01
-2.500000e-01		2.500000e-01		-3.214286e-01
-2.500000e-01		5.000000e-01		-3.214286e-01
0.000000e+00		-5.000000e-01		-3.214286e-01
0.000000e+00		-2.500000e-01		-3.214286e-01
0.000000e+00		0.000000e+00		-3.214286e-01
0.000000e+00		2.500000e-01		-3.214286e-01
0.000000e+00		5.000000e-01		-3.214286e-01
2.500000e-01		-5.000000e-01		-3.214286e-01
2.500000e-01		-2.500000e-01		-3.214286e-01
2.500000e-01		0.000000e+00		-3.214286e-01
2.500000e-01		2.500000e-01		-3.214286e-01
2.500000e-01		5.000000e-01		-3.214286e-01
5.000000e-01		-5.000000e-01		-3.214286e-01
5.000000e-01		-2.500000e-01		-3.214286e-01
5.000000e-01		0.000000e+00		-3.214286e-01
5.000000e-01		2.500000e-01		-3.214286e-01
5.000000e-01		5.000000e-01		-3.214286e-01
-5.000000e-01		-5.000000e-01		-2.142857e-01
-5.000000e-01		-3.750000e-01		-2.142857e-01
-5.000000e-01		-2.500000e-01		-2.142857e-01
-5.000000e-01		-1.250000e-01		-2.142857e-01
-5.000000e-01		0.000000e+00		-2.142857e-01
-5.000000e-01		1.250000e-01		-2.142857e-01
-5.000000e-01		2.500000e-01		-2.142857e-01
-5.000000e-01		3.750000e-01		-2.142857e-01
-5.000000e-01		5.000000e-01		-2.142857e-01
-3.750000e-01		-5.000000e-01		-2.142857e-01
-3.750000e-01		-2.500000e-01		-2.142857e-01
-3.750000e-01		0.000000e+00		-2.142857e-01
-3.750000e-01		2.500000e-01		-2.142857e-01
-3.750000e-01		5.000000e-01		-2.142857e-01
-2.500000e-01		-5.000000e-01		-2.142857e-01
-2.500000e-01		-3.750000e-01		-2.142857e-01
-2.500000e-01		-2.500000e-01		-2.142857e-01
-2.500000e-01		-1.250000e-01		-2.142857e-01
-2.500000e-01		0.000000e+00		-2.142857e-01
-2.500000e-01		1.250000e-01		-2.142857e-01
-2.500000e-01		2.500000e-01		-2.142857e-01
-2.500000e-01		3.750000e-01		-2.142857e-01
-2.500000e-01		5.000000e-01		-2.142857e-01
-1.250000e-01		-5.000000e-01		-2.142857e-01
-1.250000e-01		-2.500000e-01		-2.142857e-01
-1.250000e-01		0.000000e+00		-2.142857e-01
-1.250000e-01		2.500000e-01		-2.142857e-01
-1.250000e-01		5.000000e-01		-2.142857e-01
0.000000e+00		-5.000000e-01		-2.142857e-01
0.000000e+00		-3.750000e-01		-2.142857e-01
0.000000e+00		-2.500000e-01		-2.142857e-01
0.000000e+00		-1.250000e-01		-2.142857e-01
0.000000e+00		0.000000e+00		-2.142857e-01
0.000000e+00		1.250000e-01		-2.142857e-01
0.000000e+00		2.500000e-01		-2.142857e-01
0.000000e+00		3.750000e-01		-2.142857e-01
0.000000e+00		5.000000e-01		-2.142857e-01
1.250000e-01		-5.000000e-01		-2.142857e-01
1.250000e-01		-2.500000e-01		-2.142857e-01
1.250000e-01		0.000000e+00		-2.142857e-01
1.250000e-01		2.500000e-01		-2.142857e-01
1.250000e-01		5.000000e-01		-2.142857e-01
2.500000e-01		-5.000000e-01		-2.142857e-01
2.500000e-01		-3.750000e-01		-2.142857e-01
2.500000e-01		-2.500000e-01		-2.142857e-01
2.500000e-01		-1.250000e-01		-2.142857e-01
2.500000e-01		0.000000e+00		-2.142857e-01
2.500000e-01		1.250000e-01		-2.142857e-01
2.500000e-01		2.500000e-01		-2.142857e-01
2.500000e-01		3.750000e-01		-2.142857e-01
2.500000e-01		5.000000e-01		-2.142857e-01
3.750000e-01		-5.000000e-01		-2.142857e-01
3.750000e-01		-2.500000e-01		-2.142857e-01
3.750000e-01		0.000000e+00		-2.142857e-01
3.750000e-01		2.500000e-01		-2.142857e-01
3.750000e-01		5.000000e-01		-2.142857e-01
5.000000e-01		-5.000000e-01		-2.142857e-01
5.000000e-01		-3.750000e-01		-2.142857e-01
5.000000e-01		-2.500000e-01		-2.142857e-01
5.000000e-01		-1.250000e-01		-2.142857e-01
5.000000e-01		0.000000e+00		-2.142857e-01
5.000000e-01		1.250000e-01		-2.142857e-01
5.000000e-01		2.500000e-01		-2.142857e-01
5.000000e-01		3.750000e-01		-2.142857e-01
5.000000e-01		5.000000e-01		-2.142857e-01
-5.000000e-01		-5.000000e-01		-1.071429e-01
-5.000000e-01		-2.500000e-01		-1.071429e-01
-5.000000e-01		0.000000e+00		-1.071429e-01
-5.000000e-01		2.500000e-01		-1.071429e-01
-5.000000e-01		5.000000e-01		-1.071429e-01
-2.500000e-01		-5.000000e-01		-1.071429e-01
-2.500000e-01		-2.500000e-01		-1.071429e-01
-2.500000e-01		0.000000e+00		-1.071429e-01
-2.500000e-01		2.500000e-01		-1.071429e-01
-2.500000e-01		5.000000e-01		-1.071429e-01
0.000000e+00		-5.000000e-01		-1.071429e-01
0.000000e+00		-2.500000e-01		-1.071429e-01
0.000000e+00		0.000000e+00		-1.071429e-01
0.000000e+00		2.500000e-01		-1.071429e-01
0.000000e+00		5.000000e-01		-1.071429e-01
2.500000e-01		-5.000000e-01		-1.071429e-01
2.500000e-01		-2.500000e-01		-1.071429e-01
2.500000e-01		0.000000e+00		-1.071429e-01
2.500000e-01		2.500000e-01		-1.071429e-01
2.500000e-01		5.000000e-01		-1.071429e-01
5.000000e-01		-5.000000e-01		-1.071429e-01
5.000000e-01		-2.500000e-01		-1.071429e-01
5.000000e-01		0.000000e+00		-1.071429e-01
5.000000e-01		2.500000e-01		-1.071429e-01
5.000000e-01		5.000000e-01		-1.071429e-01
-5.000000e-01		-5.000000e-01		0.000000e+00
-5.000000e-01		-3.750000e-01		0.000000e+00
-5.000000e-01		-2.500000e-01		0.000000e+00
-5.000000e-01		-1.250000e-01		0.000000e+00
-5.000000e-01		0.000000e+00		0.000000e+00
-5.000000e-01		1.250000e-01		0.000000e+00
-5.000000e-01		2.500000e-01		0.000000e+00
-5.000000e-01		3.750000e-01		0.000000e+00
-5.000000e-01		5.000000e-01		0.000000e+00
-3.750000e-01		-5.000000e-01		0.000000e+00
-3.750000e-01		-2.500000e-01		0.000000e+00
-3.750000e-01		0.000000e+00		0.000000e+00
-3.750000e-01		2.500000e-01		0.000000e+00
-3.750000e-01		5.000000e-01		0.000000e+00
-2.500000e-01		-5.000000e-01		0.000000e+00
-2.500000e-01		-3.750000e-01		0.000000e+00
-2.500000e-01		-2.500000e-01		0.000000e+00
-2.500000e-01		-1.250000e-01		0.000000e+00
-2.500000e-01		0.000000e+00		0.000000e+00
-2.500000e-01		1.250000e-01		0.000000e+00
-2.500000e-01		2.500000e-01		0.000000e+00
-2.500000e-01		3.750000e-01		0.000000e+00
-2.500000e-01		5.000000e-01		0.000000e+00
-1.250000e-01		-5.000000e-01		0.000000e+00
-1.250000e-01		-2.500000e-01		0.000000e+00
-1.250000e-01		0.000000e+00		0.000000e+00
-1.250000e-01		2.500000e-01		0.000000e+00
-1.250000e-01		5.000000e-01		0.000000e+00
0.000000e+00		-5.000000e-01		0.000000e+00
0.000000e+00		-3.750000e-01		0.000000e+00
0.000000e+00		-2.500000e-01		0.000000e+00
0.000000e+00		-1.250000e-01		0.000000e+00
0.000000e+00		0.000000e+00		0.000000e+00
0.000000e+00		1.250000e-01		0.000000e+00
0.000000e+00		2.500000e-01		0.000000e+00
0.000000e+00		3.750000e-01		0.000000e+00
0.000000e+00		5.000000e-01		0.000000e+00
1.250000e-01		-5.000000e-01		0.000000e+00
1.250000e-01		-2.500000e-01		0.000000e+00
1.250000e-01		0.000000e+00		0.000000e+00
1.250000e-01		2.500000e-01		0.000000e+00
1.250000e-01		5.000000e-01		0.000000e+00
2.500000e-01		-5.000000e-01		0.000000e+00
2.500000e-01		-3.750000e-01		0.000000e+00
2.500000e-01		-2.500000e-01		0.000000e+00
2.500000e-01		-1.250000e-01		0.000000e+00
2.500000e-01		0.000000e+00		0.000000e+00
2.500000e-01		1.250000e-01		0.000000e+00
2.500000e-01		2.500000e-01		0.000000e+00
2.500000e-01		3.750000e-01		0.000000e+00
2.500000e-01		5.000000e-01		0.000000e+00
3.750000e-01		-5.000000e-01		0.000000e+00
3.750000e-01		-2.500000e-01		0.000000e+00
3.750000e-01		0.000000e+00		0.000000e+00
3.750000e-01		2.500000e-01		0.000000e+00
3.750000e-01		5.000000e-01		0.000000e+00
5.000000e-01		-5.000000e-01		0.000000e+00
5.000000e-01		-3.750000e-01		0.000000e+00
5.000000e-01		-2.500000e-01		0.000000e+00
5.000000e-01		-1.250000e-01		0.000000e+00
5.000000e-01		0.000000e+00		0.000000e+00
5.000000e-01		1.250000e-01		0.000000e+00
5.000000e-01		2.500000e-01		0.000000e+00
5.000000e-01		3.750000e-01		0.000000e+00
5.000000e-01		5.000000e-01		0.000000e+00
-5.000000e-01		-5.000000e-01		1.071429e-01
-5.000000e-01		-2.500000e-01		1.071429e-01
-5.000000e-01		0.000000e+00		1.071429e-01
-5.000000e-01		2.500000e-01		1.071429e-01
-5.000000e-01		5.000000e-01		1.071429e-01
-2.500000e-01		-5.000000e-01		1.071429e-01
-2.500000e-01		-2.500000e-01		1.071429e-01
-2.500000e-01		0.000000e+00		1.071429e-01
-2.500000e-01		2.500000e-01		1.071429e-01
-2.500000e-01		5.000000e-01		1.071429e-01
0.000000e+00		-5.000000e-01		1.071429e-01
0.000000e+00		-2.500000e-01		1.071429e-01
0.000000e+00		0.000000e+00		1.071429e-01
0.000000e+00		2.500000e-01		1.071429e-01
0.000000e+00		5.000000e-01		1.071429e-01
2.500000e-01		-5.000000e-01		1.071429e-01
2.500000e-01		-2.500000e-01		1.071429e-01
2.500000e-01		0.000000e+00		1.071429e-01
2.500000e-01		2.500000e-01		1.071429e-01
2.500000e-01		5.000000e-01		1.071429e-01
5.000000e-01		-5.000000e-01		1.071429e-01
5.000000e-01		-2.500000e-01		1.071429e-01
5.000000e-01		0.000000e+00		1.071429e-01
5.000000e-01		2.500000e-01		1.071429e-01
5.000000e-01		5.000000e-01		1.071429e-01
-5.000000e-01		-5.000000e-01		2.142857e-01
-5.000000e-01		-3.750000e-01		2.142857e-01
-5.000000e-01		-2.500000e-01		2.142857e-01
-5.000000e-01		-1.250000e-01		2.142857e-01
-5.000000e-01		0.000000e+00		2.142857e-01
-5.000000e-01		1.250000e-01		2.142857e-01
-5.000000e-01		2.500000e-01		2.142857e-01
-5.000000e-01		3.750000e-01		2.142857e-01
-5.000000e-01		5.000000e-01		2.142857e-01
-3.750000e-01		-5.000000e-01		2.142857e-01
-3.750000e-01		-2.500000e-01		2.142857e-01
-3.750000e-01		0.000000e+00		2.142857e-01
-3.750000e-01		2.500000e-01		2.142857e-01
-3.750000e-01		5.000000e-01		2.142857e-01
-2.500000e-01		-5.000000e-01		2.142857e-01
-2.500000e-01		-3.750000e-01		2.142857e-01
-2.500000e-01		-2.500000e-01		2.142857e-01
-2.500000e-01		-1.250000e-01		2.142857e-01
-2.500000e-01		0.000000e+00		2.142857e-01
-2.500000e-01		1.250000e-01		2.142857e-01
-2.500000e-01		2.500000e-01		2.142857e-01
-2.500000e-01		3.750000e-01		2.142857e-01
-2.500000e-01		5.000000e-01		2.142857e-01
-1.250000e-01		-5.000000e-01		2.142857e-01
-1.250000e-01		-2.500000e-01		2.142857e-01
-1.250000e-01		0.000000e+00		2.142857e-01
-1.250000e-01		2.500000e-01		2.142857e-01
-1.250000e-01		5.000000e-01		2.142857e-01
0.000000e+00		-5.000000e-01		2.142857e-01
0.000000e+00		-3.750000e-01		2.142857e-01
0.000000e+00		-2.500000e-01		2.142857e-01
0.000000e+00		-1.250000e-01		2.142857e-01
0.000000e+00		0.000000e+00		2.142857e-01
0.000000e+00		1.250000e-01		2.142857e-01
0.000000e+00		2.500000e-01		2.142857e-01
0.000000e+00		3.750000e-01		2.142857e-01
0.000000e+00		5.000000e-01		2.142857e-01
1.250000e-01		-5.000000e-01		2.142857e-01
1.250000e-01		-2.500000e-01		2.142857e-01
1.250000e-01		0.000000e+00		2.142857e-01
1.250000e-01		2.500000e-01		2.142857e-01
1.250000e-01		5.000000e-01		2.142857e-01
2.500000e-01		-5.000000e-01		2.142857e-01
2.500000e-01		-3.750000e-01		2.142857e-01
2.500000e-01		-2.500000e-01		2.142857e-01
2.500000e-01		-1.250000e-01		2.142857e-01
2.500000e-01		0.000000e+00		2.142857e-01
2.500000e-01		1.250000e-01		2.142857e-01
2.500000e-01		2.500000e-01		2.142857e-01
2.500000e-01		3.750000e-01		2.142857e-01
2.500000e-01		5.000000e-01		2.142857e-01
3.750000e-01		-5.000000e-01		2.142857e-01
3.750000e-01		-2.500000e-01		2.142857e-01
3.750000e-01		0.000000e+00		2.142857e-01
3.750000e-01		2.500000e-01		2.142857e-01
3.750000e-01		5.000000e-01		2.142857e-01
5.000000e-01		-5.000000e-01		2.142857e-01
5.000000e-01		-3.750000e-01		2.142857e-01
5.000000e-01		-2.500000e-01		2.142857e-01
5.000000e-01		-1.250000e-01		2.142857e-01
5.000000e-01		0.000000e+00		2.142857e-01
5.000000e-01		1.250000e-01		2.142857e-01
5.000000e-01		2.500000e-01		2.142857e-01
5.000000e-01		3.750000e-01		2.142857e-01
5.000000e-01		5.000000e-01		2.142857e-01
-5.000000e-01		-5.000000e-01		3.214286e-01
-5.000000e-01		-2.500000e-01		3.214286e-01
-5.000000e-01		0.000000e+00		3.214286e-01
-5.000000e-01		2.500000e-01		3.214286e-01
-5.000000e-01		5.000000e-01		3.214286e-01
-2.500000e-01		-5.000000e-01		3.214286e-01
-2.500000e-01		-2.500000e-01		3.214286e-01
-2.500000e-01		0.000000e+00		3.214286e-01
-2.500000e-01		2.500000e-01		3.214286e-01
-2.500000e-01		5.000000e-01		3.214286e-01
0.000000e+00		-5.000000e-01		3.214286e-01
0.000000e+00		-2.500000e-01		3.214286e-01
0.000000e+00		0.000000e+00		3.214286e-01
0.000000e+00		2.500000e-01		3.214286e-01
0.000000e+00		5.000000e-01		3.214286e-01
2.500000e-01		-5.000000e-01		3.214286e-01
2.500000e-01		-2.500000e-01		3.214286e-01
2.500000e-01		0.000000e+00		3.214286e-01
2.500000e-01		2.500000e-01		3.214286e-01
2.500000e-01		5.000000e-01		3.214286e-01
5.000000e-01		-5.000000e-01		3.214286e-01
5.000000e-01		-2.500000e-01		3.214286e-01
5.000000e-01		0.000000e+00		3.214286e-01
5.000000e-01		2.500000e-01		3.214286e-01
5.000000e-01		5.000000e-01		3.214286e-01
-5.000000e-01		-5.000000e-01		4.285714e-01
-5.000000e-01		-3.750000e-01		4.285714e-01
-5.000000e-01		-2.500000e-01		4.285714e-01
-5.000000e-01		-1.250000e-01		4.285714e-01
-5.000000e-01		0.000000e+00		4.285714e-01
-5.000000e-01		1.250000e-01		4.285714e-01
-5.000000e-01		2.500000e-01		4.285714e-01
-5.000000e-01		3.750000e-01		4.285714e-01
-5.000000e-01		5.000000e-01		4.285714e-01
-3.750000e-01		-5.000000e-01		4.285714e-01
-3.750000e-01		-2.500000e-01		4.285714e-01
-3.750000e-01		0.000000e+00		4.285714e-01
-3.750000e-01		2.500000e-01		4.285714e-01
-3.750000e-01		5.000000e-01		4.285714e-01
-2.500000e-01		-5.000000e-01		4.285714e-01
-2.500000e-01		-3.750000e-01		4.285714e-01
-2.500000e-01		-2.500000e-01		4.285714e-01
-2.500000e-01		-1.250000e-01		4.285714e-01
-2.500000e-01		0.000000e+00		4.285714e-01
-2.500000e-01		1.250000e-01		4.285714e-01
-2.500000e-01		2.500000e-01		4.285714e-01
-2.500000e-01		3.750000e-01		4.285714e-01
-2.500000e-01		5.000000e-01		4.285714e-01
-1.250000e-01		-5.000000e-01		4.285714e-01
-1.250000e-01		-2.500000e-01		4.285714e-01
-1.250000e-01		0.000000e+00		4.285714e-01
-1.250000e-01		2.500000e-01		4.285714e-01
-1.250000e-01		5.000000e-01		4.285714e-01
0.000000e+00		-5.000000e-01		4.285714e-01
0.000000e+00		-3.750000e-01		4.285714e-01
0.000000e+00		-2.500000e-01		4.285714e-01
0.000000e+00		-1.250000e-01		4.285714e-01
0.000000e+00		0.000000e+00		4.285714e-01
0.000000e+00		1.250000e-01		4.285714e-01
0.000000e+00		2.500000e-01		4.285714e-01
0.000000e+00		3.750000e-01		4.285714e-01
0.000000e+00		5.000000e-01		4.285714e-01
1.250000e-01		-5.000000e-01		4.285714e-01
1.250000e-01		-2.500000e-01		4.285714e-01
1.250000e-01		0.000000e+00		4.285714e-01
1.250000e-01		2.500000e-01		4.285714e-01
1.250000e-01		5.000000e-01		4.285714e-01
2.500000e-01		-5.000000e-01		4.285714e-01
2.500000e-01		-3.750000e-01		4.285714e-01
2.500000e-01		-2.500000e-01		4.285714e-01
2.500000e-01		-1.250000e-01		4.285714e-01
2.500000e-01		0.000000e+00		4.285714e-01
2.500000e-01		1.250000e-01		4.285714e-01
2.500000e-01		2.500000e-01		4.285714e-01
2.500000e-01		3.750000e-01		4.285714e-01
2.500000e-01		5.000000e-01		4.285714e-01
3.750000e-01		-5.000000e-01		4.285714e-01
3.750000e-01		-2.500000e-01		4.285714e-01
3.750000e-01		0.000000e+00		4.285714e-01
3.750000e-01		2.500000e-01		4.285714e-01
3.750000e-01		5.000000e-01		4.285714e-01
5.000000e-01		-5.000000e-01		4.285714e-01
5.000000e-01		-3.750000e-01		4.285714e-01
5.000000e-01		-2.500000e-01		4.285714e-01
5.000000e-01		-1.250000e-01		4.285714e-01
5.000000e-01		0.000000e+00		4.285714e-01
5.000000e-01		1.250000e-01		4.285714e-01
5.000000e-01		2.500000e-01		4.285714e-01
5.000000e-01		3.750000e-01		4.285714e-01
5.000000e-01		5.000000e-01		4.285714e-01
-5.000000e-01		-5.000000e-01		5.357143e-01
-5.000000e-01		-2.500000e-01		5.357143e-01
-5.000000e-01		0.000000e+00		5.357143e-01
-5.000000e-01		2.500000e-01		5.357143e-01
-5.000000e-01		5.000000e-01		5.357143e-01
-2.500000e-01		-5.000000e-01		5.357143e-01
-2.500000e-01		-2.500000e-01		5.357143e-01
-2.500000e-01		0.000000e+00		5.357143e-01
-2.500000e-01		2.500000e-01		5.357143e-01
-2.500000e-01		5.000000e-01		5.357143e-01
0.000000e+00		-5.000000e-01		5.357143e-01
0.000000e+00		-2.500000e-01		5.357143e-01
0.000000e+00		0.000000e+00		5.357143e-01
0.000000e+00		2.500000e-01		5.357143e-01
0.000000e+00		5.000000e-01		5.357143e-01
2.500000e-01		-5.000000e-01		5.357143e-01
2.500000e-01		-2.500000e-01		5.357143e-01
2.500000e-01		0.000000e+00		5.357143e-01
2.500000e-01		2.500000e-01		5.357143e-01
2.500000e-01		5.000000e-01		5.357143e-01
5.000000e-01		-5.000000e-01		5.357143e-01
5.000000e-01		-2.500000e-01		5.357143e-01
5.000000e-01		0.000000e+00		5.357143e-01
5.000000e-01		2.500000e-01		5.357143e-01
5.000000e-01		5.000000e-01		5.357143e-01
-5.000000e-01		-5.000000e-01		6.428571e-01
-5.000000e-01		-3.750000e-01		6.428571e-01
-5.000000e-01		-2.500000e-01		6.428571e-01
-5.000000e-01		-1.250000e-01		6.428571e-01
-5.000000e-01		0.000000e+00		6.428571e-01
-5.000000e-01		1.250000e-01		6.428571e-01
-5.000000e-01		2.500000e-01		6.428571e-01
-5.000000e-01		3.750000e-01		6.428571e-01
-5.000000e-01		5.000000e-01		6.428571e-01
-3.750000e-01		-5.000000e-01		6.428571e-01
-3.750000e-01		-2.500000e-01		6.428571e-01
-3.750000e-01		0.000000e+00		6.428571e-01
-3.750000e-01		2.500000e-01		6.428571e-01
-3.750000e-01		5.000000e-01		6.428571e-01
-2.500000e-01		-5.000000e-01		6.428571e-01
-2.500000e-01		-3.750000e-01		6.428571e-01
-2.500000e-01		-2.500000e-01		6.428571e-01
-2.500000e-01		-1.250000e-01		6.428571e-01
-2.500000e-01		0.000000e+00		6.428571e-01
-2.500000e-01		1.250000e-01		6.428571e-01
-2.500000e-01		2.500000e-01		6.428571e-01
-2.500000e-01		3.750000e-01		6.428571e-01
-2.500000e-01		5.000000e-01		6.428571e-01
-1.250000e-01		-5.000000e-01		6.428571e-01
-1.250000e-01		-2.500000e-01		6.428571e-01
-1.250000e-01		0.000000e+00		6.428571e-01
-1.250000e-01		2.500000e-01		6.428571e-01
-1.250000e-01		5.000000e-01		6.428571e-01
0.000000e+00		-5.000000e-01		6.428571e-01
0.000000e+00		-3.750000e-01		6.428571e-01
0.000000e+00		-2.500000e-01		6.428571e-01
0.000000e+00		-1.250000e-01		6.428571e-01
0.000000e+00		0.000000e+00		6.428571e-01
0.000000e+00		1.250000e-01		6.428571e-01
0.000000e+00		2.500000e-01		6.428571e-01
0.000000e+00		3.750000e-01		6.428571e-01
0.000000e+00		5.000000e-01		6.428571e-01
1.250000e-01		-5.000000e-01		6.428571e-01
1.250000e-01		-2.500000e-01		6.428571e-01
1.250000e-01		0.000000e+00		6.428571e-01
1.250000e-01		2.500000e-01		6.428571e-01
1.250000e-01		5.000000e-01		6.428571e-01
2.500000e-01		-5.000000e-01		6.428571e-01
2.500000e-01		-3.750000e-01		6.428571e-01
2.500000e-01		-2.500000e-01		6.428571e-01
2.500000e-01		-1.250000e-01		6.428571e-01
2.500000e-01		0.000000e+00		6.428571e-01
2.500000e-01		1.250000e-01		6.428571e-01
2.500000e-01		2.500000e-01		6.428571e-01
2.500000e-01		3.750000e-01		6.428571e-01
2.500000e-01		5.000000e-01		6.428571e-01
3.750000e-01		-5.000000e-01		6.428571e-01
3.750000e-01		-2.500000e-01		6.428571e-01
3.750000e-01		0.000000e+00		6.428571e-01
3.750000e-01		2.500000e-01		6.428571e-01
3.750000e-01		5.000000e-01		6.428571e-01
5.000000e-01		-5.000000e-01		6.428571e-01
5.000000e-01		-3.750000e-01		6.428571e-01
5.000000e-01		-2.500000e-01		6.428571e-01
5.000000e-01		-1.250000e-01		6.428571e-01
5.000000e-01		0.000000e+00		6.428571e-01
5.000000e-01		1.250000e-01		6.428571e-01
5.000000e-01		2.500000e-01		6.428571e-01
5.000000e-01		3.750000e-01		6.428571e-01
5.000000e-01		5.000000e-01		6.428571e-01
-5.000000e-01		-5.000000e-01		7.500000e-01
-5.000000e-01		-2.500000e-01		7.500000e-01
-5.000000e-01		0.000000e+00		7.500000e-01
-5.000000e-01		2.500000e-01		7.500000e-01
-5.000000e-01		5.000000e-01		7.500000e-01
-2.500000e-01		-5.000000e-01		7.500000e-01
-2.500000e-01		-2.500000e-01		7.500000e-01
-2.500000e-01		0.000000e+00		7.500000e-01
-2.500000e-01		2.500000e-01		7.500000e-01
-2.500000e-01		5.000000e-01		7.500000e-01
0.000000e+00		-5.000000e-01		7.500000e-01
0.000000e+00		-2.500000e-01		7.500000e-01
0.000000e+00		0.000000e+00		7.500000e-01
0.000000e+00		2.500000e-01		7.500000e-01
0.000000e+00		5.000000e-01		7.500000e-01
2.500000e-01		-5.000000e-01		7.500000e-01
2.500000e-01		-2.500000e-01		7.500000e-01
2.500000e-01		0.000000e+00		7.500000e-01
2.500000e-01		2.500000e-01		7.500000e-01
2.500000e-01		5.000000e-01		7.500000e-01
5.000000e-01		-5.000000e-01		7.500000e-01
5.000000e-01		-2.500000e-01		7.500000e-01
5.000000e-01		0.000000e+00		7.500000e-01
5.000000e-01		2.500000e-01		7.500000e-01
5.000000e-01		5.000000e-01		7.500000e-01
-5.000000e-01		-5.000000e-01		8.571429e-01
-5.000000e-01		-3.750000e-01		8.571429e-01
-5.000000e-01		-2.500000e-01		8.571429e-01
-5.000000e-01		-1.250000e-01		8.571429e-01
-5.000000e-01		0.000000e+00		8.571429e-01
-5.000000e-01		1.250000e-01		8.571429e-01
-5.000000e-01		2.500000e-01		8.571429e-01
-5.000000e-01		3.750000e-01		8.571429e-01
-5.000000e-01		5.000000e-01		8.571429e-01
-3.750000e-01		-5.000000e-01		8.571429e-01
-3.750000e-01		-2.500000e-01		8.571429e-01
-3.750000e-01		0.000000e+00		8.571429e-01
-3.750000e-01		2.500000e-01		8.571429e-01
-3.750000e-01		5.000000e-01		8.571429e-01
-2.500000e-01		-5.000000e-01		8.571429e-01
-2.500000e-01		-3.750000e-01		8.571429e-01
-2.500000e-01		-2.500000e-01		8.571429e-01
-2.500000e-01		-1.250000e-01		8.571429e-01
-2.500000e-01		0.000000e+00		8.571429e-01
-2.500000e-01		1.250000e-01		8.571429e-01
-2.500000e-01		2.500000e-01		8.571429e-01
-2.500000e-01		3.750000e-01		8.571429e-01
-2.500000e-01		5.000000e-01		8.571429e-01
-1.250000e-01		-5.000000e-01		8.571429e-01
-1.250000e-01		-2.500000e-01		8.571429e-01
-1.250000e-01		0.000000e+00		8.571429e-01
-1.250000e-01		2.500000e-01		8.571429e-01
-1.250000e-01		5.000000e-01		8.571429e-01
0.000000e+00		-5.000000e-01		8.571429e-01
0.000000e+00		-3.750000e-01		8.571429e-01
0.000000e+00		-2.500000e-01		8.571429e-01
0.000000e+00		-1.250000e-01		8.571429e-01
0.000000e+00		0.000000e+00		8.571429e-01
0.000000e+00		1.250000e-01		8.571429e-01
0.000000e+00		2.500000e-01		8.571429e-01
0.000000e+00		3.750000e-01		8.571429e-01
0.000000e+00		5.000000e-01		8.571429e-01
1.250000e-01		-5.000000e-01		8.571429e-01
1.250000e-01		-2.500000e-01		8.571429e-01
1.250000e-01		0.000000e+00		8.571429e-01
1.250000e-01		2.500000e-01		8.571429e-01
1.250000e-01		5.000000e-01		8.571429e-01
2.500000e-01		-5.000000e-01		8.571429e-01
2.500000e-01		-3.750000e-01		8.571429e-01
2.500000e-01		-2.500000e-01		8.571429e-01
2.500000e-01		-1.250000e-01		8.571429e-01
2.500000e-01		0.000000e+00		8.571429e-01
2.500000e-01		1.250000e-01		8.571429e-01
2.500000e-01		2.500000e-01		8.571429e-01
2.500000e-01		3.750000e-01		8.571429e-01
2.500000e-01		5.000000e-01		8.571429e-01
3.750000e-01		-5.000000e-01		8.571429e-01
3.750000e-01		-2.500000e-01		8.571429e-01
3.750000e-01		0.000000e+00		8.571429e-01
3.750000e-01		2.500000e-01		8.571429e-01
3.750000e-01		5.000000e-01		8.571429e-01
5.000000e-01		-5.000000e-01		8.571429e-01
5.000000e-01		-3.750000e-01		8.571429e-01
5.000000e-01		-2.500000e-01		8.571429e-01
5.000000e-01		-1.250000e-01		8.571429e-01
5.000000e-01		0.000000e+00		8.571429e-01
5.000000e-01		1.250000e-01		8.571429e-01
5.000000e-01		2.500000e-01		8.571429e-01
5.000000e-01		3.750000e-01		8.571429e-01
5.000000e-01		5.000000e-01		8.571429e-01
-5.000000e-01		-5.000000e-01		9.642857e-01
-5.000000e-01		-2.500000e-01		9.642857e-01
-5.000000e-01		0.000000e+00		9.642857e-01
-5.000000e-01		2.500000e-01		9.642857e-01
-5.000000e-01		5.000000e-01		9.642857e-01
-2.500000e-01		-5.000000e-01		9.642857e-01
-2.500000e-01		-2.500000e-01		9.642857e-01
-2.500000e-01		0.000000e+00		9.642857e-01
-2.500000e-01		2.500000e-01		9.642857e-01
-2.500000e-01		5.000000e-01		9.642857e-01
0.000000e+00		-5.000000e-01		9.642857e-01
0.000000e+00		-2.500000e-01		9.642857e-01
0.000000e+00		0.000000e+00		9.642857e-01
0.000000e+00		2.500000e-01		9.642857e-01
0.000000e+00		5.000000e-01		9.642857e-01
2.500000e-01		-5.000000e-01		9.642857e-01
2.500000e-01		-2.500000e-01		9.642857e-01
2.500000e-01		0.000000e+00		9.642857e-01
2.500000e-01		2.500000e-01		9.642857e-01
2.500000e-01		5.000000e-01		9.642857e-01
5.000000e-01		-5.000000e-01		9.642857e-01
5.000000e-01		-2.500000e-01		9.642857e-01
5.000000e-01		0.000000e+00		9.642857e-01
5.000000e-01		2.500000e-01		9.642857e-01
5.000000e-01		5.000000e-01		9.642857e-01
-5.000000e-01		-5.000000e-01		1.071429e+00
-5.000000e-01		-3.750000e-01		1.071429e+00
-5.000000e-01		-2.500000e-01		1.071429e+00
-5.000000e-01		-1.250000e-01		1.071429e+00
-5.000000e-01		0.000000e+00		1.071429e+00
-5.000000e-01		1.250000e-01		1.071429e+00
-5.000000e-01		2.500000e-01		1.071429e+00
-5.000000e-01		3.750000e-01		1.071429e+00
-5.000000e-01		5.000000e-01		1.071429e+00
-3.750000e-01		-5.000000e-01		1.071429e+00
-3.750000e-01		-2.500000e-01		1.071429e+00
-3.750000e-01		0.000000e+00		1.071429e+00
-3.750000e-01		2.500000e-01		1.071429e+00
-3.750000e-01		5.000000e-01		1.071429e+00
-2.500000e-01		-5.000000e-01		1.071429e+00
-2.500000e-01		-3.750000e-01		1.071429e+00
-2.500000e-01		-2.500000e-01		1.071429e+00
-2.500000e-01		-1.250000e-01		1.071429e+00
-2.500000e-01		0.000000e+00		1.071429e+00
-2.500000e-01		1.250000e-01		1.071429e+00
-2.500000e-01		2.500000e-01		1.071429e+00
-2.500000e-01		3.750000e-01		1.071429e+00
-2.500000e-01		5.000000e-01		1.071429e+00
-1.250000e-01		-5.000000e-01		1.071429e+00
-1.250000e-01		-2.500000e-01		1.071429e+00
-1.250000e-01		0.000000e+00		1.071429e+00
-1.250000e-01		2.500000e-01		1.071429e+00
-1.250000e-01		5.000000e-01		1.071429e+00
0.000000e+00		-5.000000e-01		1.071429e+00
0.000000e+00		-3.750000e-01		1.071429e+00
0.000000e+00		-2.500000e-01		1.071429e+00
0.000000e+00		-1.250000e-01		1.071429e+00
0.000000e+00		0.000000e+00		1.071429e+00
0.000000e+00		1.250000e-01		1.071429e+00
0.000000e+00		2.500000e-01		1.071429e+00
0.000000e+00		3.750000e-01		1.071429e+00
0.000000e+00		5.000000e-01		1.071429e+00
1.250000e-01		-5.000000e-01		1.071429e+00
1.250000e-01		-2.500000e-01		1.071429e+00
1.250000e-01		0.000000e+00		1.071429e+00
1.250000e-01		2.500000e-01		1.071429e+00
1.250000e-01		5.000000e-01		1.071429e+00
2.500000e-01		-5.000000e-01		1.071429e+00
2.500000e-01		-3.750000e-01		1.071429e+00
2.500000e-01		-2.500000e-01		1.071429e+00
2.500000e-01		-1.250000e-01		1.071429e+00
2.500000e-01		0.000000e+00		1.071429e+00
2.500000e-01		1.250000e-01		1.071429e+00
2.500000e-01		2.500000e-01		1.071429e+00
2.500000e-01		3.750000e-01		1.071429e+00
2.500000e-01		5.000000e-01		1.071429e+00
3.750000e-01		-5.000000e-01		1.071429e+00
3.750000e-01		-2.500000e-01		1.071429e+00
3.750000e-01		0.000000e+00		1.071429e+00
3.750000e-01		2.500000e-01		1.071429e+00
3.750000e-01		5.000000e-01		1.071429e+00
5.000000e-01		-5.000000e-01		1.071429e+00
5.000000e-01		-3.750000e-01		1.071429e+00
5.000000e-01		-2.500000e-01		1.071429e+00
5.000000e-01		-1.250000e-01		1.071429e+00
5.000000e-01		0.000000e+00		1.071429e+00
5.000000e-01		1.250000e-01		1.071429e+00
5.000000e-01		2.500000e-01		1.071429e+00
5.000000e-01		3.750000e-01		1.071429e+00
5.000000e-01		5.000000e-01		1.071429e+00
-5.000000e-01		-5.000000e-01		1.178571e+00
-5.000000e-01		-2.500000e-01		1.178571e+00
-5.000000e-01		0.000000e+00		1.178571e+00
-5.000000e-01		2.500000e-01		1.178571e+00
-5.000000e-01		5.000000e-01		1.178571e+00
-2.500000e-01		-5.000000e-01		1.178571e+00
-2.500000e-01		-2.500000e-01		1.178571e+00
-2.500000e-01		0.000000e+00		1.178571e+00
-2.500000e-01		2.500000e-01		1.178571e+00
-2.500000e-01		5.000000e-01		1.178571e+00
0.000000e+00		-5.000000e-01		1.178571e+00
0.000000e+00		-2.500000e-01		1.178571e+00
0.000000e+00		0.000000e+00		1.178571e+00
0.000000e+00		2.500000e-01		1.178571e+00
0.000000e+00		5.000000e-01		1.178571e+00
2.500000e-01		-5.000000e-01		1.178571e+00
2.500000e-01		-2.500000e-01		1.178571e+00
2.500000e-01		0.000000e+00		1.178571e+00
2.500000e-01		2.500000e-01		1.178571e+00
2.500000e-01		5.000000e-01		1.178571e+00
5.000000e-01		-5.000000e-01		1.178571e+00
5.000000e-01		-2.500000e-01		1.178571e+00
5.000000e-01		0.000000e+00		1.178571e+00
5.000000e-01		2.500000e-01		1.178571e+00
5.000000e-01		5.000000e-01		1.178571e+00
-5.000000e-01		-5.000000e-01		1.285714e+00
-5.000000e-01		-3.750000e-01		1.285714e+00
-5.000000e-01		-2.500000e-01		1.285714e+00
-5.000000e-01		-1.250000e-01		1.285714e+00
-5.000000e-01		0.000000e+00		1.285714e+00
-5.000000e-01		1.250000e-01		1.285714e+00
-5.000000e-01		2.500000e-01		1.285714e+00
-5.000000e-01		3.750000e-01		1.285714e+00
-5.000000e-01		5.000000e-01		1.285714e+00
-3.750000e-01		-5.000000e-01		1.285714e+00
-3.750000e-01		-2.500000e-01		1.285714e+00
-3.750000e-01		0.000000e+00		1.285714e+00
-3.750000e-01		2.500000e-01		1.285714e+00
-3.750000e-01		5.000000e-01		1.285714e+00
-2.500000e-01		-5.000000e-01		1.285714e+00
-2.500000e-01		-3.750000e-01		1.285714e+00
-2.500000e-01		-2.500000e-01		1.285714e+00
-2.500000e-01		-1.250000e-01		1.285714e+00
-2.500000e-01		0.000000e+00		1.285714e+00
-2.500000e-01		1.250000e-01		1.285714e+00
-2.500000e-01		2.500000e-01		1.285714e+00
-2.500000e-01		3.750000e-01		1.285714e+00
-2.500000e-01		5.000000e-01		1.285714e+00
-1.250000e-01		-5.000000e-01		1.285714e+00
-1.250000e-01		-2.500000e-01		1.285714e+00
-1.250000e-01		0.000000e+00		1.285714e+00
-1.250000e-01		2.500000e-01		1.285714e+00
-1.250000e-01		5.000000e-01		1.285714e+00
0.000000e+00		-5.000000e-01		1.285714e+00
0.000000e+00		-3.750000e-01		1.285714e+00
0.000000e+00		-2.500000e-01		1.285714e+00
0.000000e+00		-1.250000e-01		1.285714e+00
0.000000e+00		0.000000e+00		1.285714e+00
0.000000e+00		1.250000e-01		1.285714e+00
0.000000e+00		2.500000e-01		1.285714e+00
0.000000e+00		3.750000e-01		1.285714e+00
0.000000e+00		5.000000e-01		1.285714e+00
1.250000e-01		-5.000000e-01		1.285714e+00
1.250000e-01		-2.500000e-01		1.285714e+00
1.250000e-01		0.000000e+00		1.285714e+00
1.250000e-01		2.500000e-01		1.285714e+00
1.250000e-01		5.000000e-01		1.285714e+00
2.500000e-01		-5.000000e-01		1.285714e+00
2.500000e-01		-3.750000e-01		1.285714e+00
2.500000e-01		-2.500000e-01		1.285714e+00
2.500000e-01		-1.250000e-01		1.285714e+00
2.500000e-01		0.000000e+00		1.285714e+00
2.500000e-01		1.250000e-01		1.285714e+00
2.500000e-01		2.500000e-01		1.285714e+00
2.500000e-01		3.750000e-01		1.285714e+00
2.500000e-01		5.000000e-01		1.285714e+00
3.750000e-01		-5.000000e-01		1.285714e+00
3.750000e-01		-2.500000e-01		1.285714e+00
3.750000e-01		0.000000e+00		1.285714e+00
3.750000e-01		2.500000e-01		1.285714e+00
3.750000e-01		5.000000e-01		1.285714e+00
5.000000e-01		-5.000000e-01		1.285714e+00
5.000000e-01		-3.750000e-01		1.285714e+00
5.000000e-01		-2.500000e-01		1.285714e+00
5.000000e-01		-1.250000e-01		1.285714e+00
5.000000e-01		0.000000e+00		1.285714e+00
5.000000e-01		1.250000e-01		1.285714e+00
5.000000e-01		2.500000e-01		1.285714e+00
5.000000e-01		3.750000e-01		1.285714e+00
5.000000e-01		5.000000e-01		1.285714e+00
-5.000000e-01		-5.000000e-01		1.392857e+00
-5.000000e-01		-2.500000e-01		1.392857e+00
-5.000000e-01		0.000000e+00		1.392857e+00
-5.000000e-01		2.500000e-01		1.392857e+00
-5.000000e-01		5.000000e-01		1.392857e+00
-2.500000e-01		-5.000000e-01		1.392857e+00
-2.500000e-01		-2.500000e-01		1.392857e+00
-2.500000e-01		0.000000e+00		1.392857e+00
-2.500000e-01		2.500000e-01		1.392857e+00
-2.500000e-01		5.000000e-01		1.392857e+00
0.000000e+00		-5.000000e-01		1.392857e+00
0.000000e+00		-2.500000e-01		1.392857e+00
0.000000e+00		0.000000e+00		1.392857e+00
0.000000e+00		2.500000e-01		1.392857e+00
0.000000e+00		5.000000e-01		1.392857e+00
2.500000e-01		-5.000000e-01		1.392857e+00
2.500000e-01		-2.500000e-01		1.392857e+00
2.500000e-01		0.000000e+00		1.392857e+00
2.500000e-01		2.500000e-01		1.392857e+00
2.500000e-01		5.000000e-01		1.392857e+00
5.000000e-01		-5.000000e-01		1.392857e+00
5.000000e-01		-2.500000e-01		1.392857e+00
5.000000e-01		0.000000e+00		1.392857e+00
5.000000e-01		2.500000e-01		1.392857e+00
5.000000e-01		5.000000e-01		1.392857e+00
-5.000000e-01		-5.000000e-01		1.500000e+00
-5.000000e-01		-3.750000e-01		1.500000e+00
-5.000000e-01		-2.500000e-01		1.500000e+00
-5.000000e-01		-1.250000e-01		1.500000e+00
-5.000000e-01		0.000000e+00		1.500000e+00
-5.000000e-01		1.250000e-01		1.500000e+00
-5.000000e-01		2.500000e-01		1.500000e+00
-5.000000e-01		3.750000e-01		1.500000e+00
-5.000000e-01		5.000000e-01		1.500000e+00
-3.750000e-01		-5.000000e-01		1.500000e+00
-3.750000e-01		-2.500000e-01		1.500000e+00
-3.750000e-01		0.000000e+00		1.500000e+00
-3.750000e-01		2.500000e-01		1.500000e+00
-3.750000e-01		5.000000e-01		1.500000e+00
-2.500000e-01		-5.000000e-01		1.500000e+00
-2.500000e-01		-3.750000e-01		1.500000e+00
-2.500000e-01		-2.500000e-01		1.500000e+00
-2.500000e-01		-1.250000e-01		1.500000e+00
-2.500000e-01		0.000000e+00		1.500000e+00
-2.500000e-01		1.250000e-01		1.500000e+00
-2.500000e-01		2.500000e-01		1.500000e+00
-2.500000e-01		3.750000e-01		1.500000e+00
-2.500000e-01		5.000000e-01		1.500000e+00
-1.250000e-01		-5.000000e-01		1.500000e+00
-1.250000e-01		-2.500000e-01		1.500000e+00
-1.250000e-01		0.000000e+00		1.500000e+00
-1.250000e-01		2.500000e-01		1.500000e+00
-1.250000e-01		5.000000e-01		1.500000e+00
0.000000e+00		-5.000000e-01		1.500000e+00
0.000000e+00		-3.750000e-01		1.500000e+00
0.000000e+00		-2.500000e-01		1.500000e+00
0.000000e+00		-1.250000e-01		1.500000e+00
0.000000e+00		0.000000e+00		1.500000e+00
0.000000e+00		1.250000e-01		1.500000e+00
0.000000e+00		2.500000e-01		1.500000e+00
0.000000e+00		3.750000e-01		1.500000e+00
0.000000e+00		5.000000e-01		1.500000e+00
1.250000e-01		-5.000000e-01		1.500000e+00
1.250000e-01		-2.500000e-01		1.500000e+00
1.250000e-01		0.000000e+00		1.500000e+00
1.250000e-01		2.500000e-01		1.500000e+00
1.250000e-01		5.000000e-01		1.500000e+00
2.500000e-01		-5.000000e-01		1.500000e+00
2.500000e-01		-3.750000e-01		1.500000e+00
2.500000e-01		-2.500000e-01		1.500000e+00
2.500000e-01		-1.250000e-01		1.500000e+00
2.500000e-01		0.000000e+00		1.500000e+00
2.500000e-01		1.250000e-01		1.500000e+00
2.500000e-01		2.500000e-01		1.500000e+00
2.500000e-01		3.750000e-01		1.500000e+00
2.500000e-01		5.000000e-01		1.500000e+00
3.750000e-01		-5.000000e-01		1.500000e+00
3.750000e-01		-2.500000e-01		1.500000e+00
3.750000e-01		0.000000e+00		1.500000e+00
3.750000e-01		2.500000e-01		1.500000e+00
3.750000e-01		5.000000e-01		1.500000e+00
5.000000e-01		-5.000000e-01		1.500000e+00
5.000000e-01		-3.750000e-01		1.500000e+00
5.000000e-01		-2.500000e-01		1.500000e+00
5.000000e-01		-1.250000e-01		1.500000e+00
5.000000e-01		0.000000e+00		1.500000e+00
5.000000e-01		1.250000e-01		1.500000e+00
5.000000e-01		2.500000e-01		1.500000e+00
5.000000e-01		3.750000e-01		1.500000e+00
5.000000e-01		5.000000e-01		1.500000e+00
CELLS 224 4704
20		0		14		16		2		90		104		106		92		9		15		10		1		99		105		100		91		65		70		71		66		
20		2		16		18		4		92		106		108		94		10		17		11		3		100		107		101		93		66		71		72		67		
20		4		18		20		6		94		108		110		96		11		19		12		5		101		109		102		95		67		72		73		68		
20		6		20		22		8		96		110		112		98		12		21		13		7		102		111		103		97		68		73		74		69		
20		14		28		30		16		104		118		120		106		23		29		24		15		113		119		114		105		70		75		76		71		
20		16		30		32		18		106		120		122		108		24		31		25		17		114		121		115		107		71		76		77		72		
20		18		32		34		20		108		122		124		110		25		33		26		19		115		123		116		109		72		77		78		73		
20		20		34		36		22		110		124		126		112		26		35		27		21		116		125		117		111		73		78		79		74		
20		28		42		44		30		118		132		134		120		37		43		38		29		127		133		128		119		75		80		81		76		
20		30		44		46		32		120		134		136		122		38		45		39		31		128		135		129		121		76		81		82		77		
20		32		46		48		34		122		136		138		124		39		47		40		33		129		137		130		123		77		82		83		78		
20		34		48		50		36		124		138		140		126		40		49		41		35		130		139		131		125		78		83		84		79		
20		42		56		58		44		132		146		148		134		51		57		52		43		141		147		142		133		80		85		86		81		
20		44		58		60		46		134		148		150		136		52		59		53		45		142		149		143		135		81		86		87		82		
20		46		60		62		48		136		150		152		138		53		61		54		47		143		151		144		137		82		87		88		83		
20		48		62		64		50		138		152		154		140		54		63		55		49		144		153		145		139		83		88		89		84		
20		90		104		106		92		180		194		196		182		99		105		100		91		189		195		190		181		155		160		161		156		
20		92		106		108		94		182		196		198		184		100		107		101		93		190		197		191		183		156		161		162		157		
20		94		108		110		96		184		198		200		186		101		109		102		95		191		199		192		185		157		162		163		158		
20		96		110		112		98		186		200		202		188		102		111		103		97		192		201		193		187		158		163		164		159		
20		104		118		120		106		194		208		210		196		113		119		114		105		203		209		204		195		160		165		166		161		
20		106		120		122		108		196		210		212		198		114		121		115		107		204		211		205		197		161		166		167		162		
20		108		122		124		110		198		212		214		200		115		123		116		109		205		213		206		199		162		167		168		163		
20		110		124		126		112		200		214		216		202		116		125		117		111		206		215		207		201		163		168		169		164		
20		118		132		134		120		208		222		224		210		127		133		128		119		217		223		218		209		165		170		171		166		
20		120		134		136		122		210		224		226		212		128		135		129		121		218		225		219		211		166		171		172		167		
20		122		136		138		124		212		226		228		214		129		137		130		123		219		227		220		213		167		172		173		168		
20		124		138		140		126		214		228		230		216		130		139		131		125		220		229		221		215		168		173		174		169		
20		132		146		148		134		222		236		238		224		141		147		142		133		231		237		232		223		170		175		176		171		
20		134		148		150		136		224		238		240		226		142		149		143		135		232		239		233		225		171		176		177		172		
20		136		150		152		138		226		240		242		228		143		151		144		137		233		241		234		227		172		177		178		173		
20		138		152		154		140		228		242		244		230		144		153		145		139		234		243		235		229		173		178		179		174		
20		180		194		196		182		270		284		286		272		189		195		190		181		279		285		280		271		245		250		251		246		
20		182		196		198		184		272		286		288		274		190		197		191		183		280		287		281		273		246		251		252		247		
20		184		198		200		186		274		288		290		276		191		199		192		185		281		289		282		275		247		252		253		248		
20		186		200		202		188		276		290		292		278		192		201		193		187		282		291		283		277		248		253		254		249		
20		194		208		210		196		284		298		300		286		203		209		204		195		293		299		294		285		250		255		256		251		
20		196		210		212		198		286		300		302		288		204		211		205		197		294		301		295		287		251		256		257		252		
20		198		212		214		200		288		302		304		290		205		213		206		199		295		303		296		289		252		257		258		253		
20		200		214		216		202		290		304		306		292		206		215		207		201		296		305		297		291		253		258		259		254		
20		208		222		224		210		298		312		314		300		217		223		218		209		307		313		308		299		255		260		261		256		
20		210		224		226		212		300		314		316		302		218		225		219		211		308		315		309		301		256		261		262		257		
20		212		226		228		214		302		316		318		304		219		227		220		213		309		317		310		303		257		262		263		258		
20		214		228		230		216		304		318		320		306		220		229		221		215		310		319		311		305		258		263		264		259		
20		222		236		238		224		312		326		328		314		231		237		232		223		321		327		322		313		260		265		266		261		
20		224		238		240		226		314		328		330		316		232		239		233		225		322		329		323		315		261		266		267		262		
20		226		240		242		228		316		330		332		318		233		241		234		227		323		331		324		317		262		267		268		263		
20		228		242		244		230		318		332		334		320		234		243		235		229		324		333		325		319		263		268		269		264		
20		270		284		286		272		360		374		376		362		279		285		280		271		369		375		370		361		335		340		341		336		
20		272		286		288		274		362		376		378		364		280		287		281		273		370		377		371		363		336		341		342		337		
20		274		288		290		276		364		378		380		366		281		289		282		275		371		379		372		365		337		342		343		338		
20		276		290		292		278		366		380		382		368		282		291		283		277		372		381		373		367		338		343		344		339		
20		284		298		300		286		374		388		390		376		293		299		294		285		383		389		384		375		340		345		346		341		
20		286		300		302		288		376		390		392		378		294		301		295		287		384		391		385		377		341		346		347		342		
20		288		302		304		290		378		392		394		380		295		303		296		289		385		393		386		379		342		347		348		343		
20		290		304		306		292		380		394		396		382		296		305		297		291		386		395		387		381		343		348		349		344		
20		298		312		314		300		388		402		404		390		307		313		308		299		397		403		398		389		345		350		351		346		
20		300		314		316		302		390		404		406		392		308		315		309		301		398		405		399		391		346		351		352		347		
20		302		316		318		304		392		406		408		394		309		317		310		303		399		407		400		393		347		352		353		348		
20		304		318		320		306		394		408		410		396		310		319		311		305		400		409		401		395		348		353		354		349		
20		312		326		328		314		402		416		418		404		321		327		322		313		411		417		412		403		350		355		356		351		
20		314		328		330		316		404		418		420		406		322		329		323		315		412		419		413		405		351		356		357		352		
20		316		330		332		318		406		420		422		408		323		331		324		317		413		421		414		407		352		357		358		353		
20		318		332		334		320		408		422		424		410		324		333		325		319		414		423		415		409		353		358		359		354		
20		360		374		376		362		450		464		466		452		369		375		370		361		459		465		460		451		425		430		431		426		
20		362		376		378		364		452		466		468		454		370		377		371		363		460		467		461		453		426		431		432		427		
20		364		378		380		366		454		468		470		456		371		379		372		365		461		469		462		455		427		432		433		428		
20		366		380		382		368		456		470		472		458		372		381		373		367		462		471		463		457		428		433		434		429		
20		374		388		390		376		464		478		480		466		383		389		384		375		473		479		474		465		430		435		436		431		
20		376		390		392		378		466		480		482		468		384		391		385		377		474		481		475		467		431		436		437		432		
20		378		392		394		380		468		482		484		470		385		393		386		379		475		483		476		469		432		437		438		433		
20		380		394		396		382		470		484		486		472		386		395		387		381		476		485		477		471		433		438		439		434		
20		388		402		404		390		478		492		494		480		397		403		398		389		487		493		488		479		435		440		441		436		
20		390		404		406		392		480		494		496		482		398		405		399		391		488		495		489		481		436		441		442		437		
20		392		406		408		394		482		496		498		484		399		407		400		393		489		497		490		483		437		442		443		438		
20		394		408		410		396		484		498		500		486		400		409		401		395		490		499		491		485		438		443		444		439		
20		402		416		418		404		492		506		508		494		411		417		412		403		501		507		502		493		440		445		446		441		
20		404		418		420		406		494		508		510		496		412		419		413		405		502		509		503		495		441		446		447		442		
20		406		420		422		408		496		510		512		498		413		421		414		407		503		511		504		497		442		447		448		443		
20		408		422		424		410		498		512		514		500		414		423		415		409		504		513		505		499		443		448		449		444		
20		450		464		466		452		540		554		556		542		459		465		460		451		549		555		550		541		515		520		521		516		
20		452		466		468		454		542		556		558		544		460		467		461		453		550		557		551		543		516		521		522		517		
20		454		468		470		456		544		558		560		546		461		469		462		455		551		559		552		545		517		522		523		518		
20		456		470		472		458		546		560		562		548		462		471		463		457		552		561		553		547		518		523		524		519		
20		464		478		480		466		554		568		570		556		473		479		474		465		563		569		564		555		520		525		526		521		
20		466		480		482		468		556		570		572		558		474		481		475		467		564		571		565		557		521		526		527		522		
20		468		482		484		470		558		572		574		560		475		483		476		469		565		573		566		559		522		527		528		523		
20		470		484		486		472		560		574		576		562		476		485		477		471		566		575		567		561		523		528		529		524		
20		478		492		494		480		568		582		584		570		487		493		488		479		577		583		578		569		525		530		531		526		
20		480		494		496		482		570		584		586		572		488		495		489		481		578		585		579		571		526		531		532		527		
20		482		496		498		484		572		586		588		574		489		497		490		483		579		587		580		573		527		532		533		528		
20		484		498		500		486		574		588		590		576		490		499		491		485		580		589		581		575		528		533		534		529		
20		492		506		508		494		582		596		598		584		501		507		502		493		591		597		592		583		530		535		536		531		
20		494		508		510		496		584		598		600		586		502		509		503		495		592		599		593		585		531		536		537		532		
20		496		510		512		498		586		600		602		588		503		511		504		497		593		601		594		587		532		537		538		533		
20		498		512		514		500		588		602		604		590		504		513		505		499		594		603		595		589		533		538		539		534		
20		540		554		556		542		630		644		646		632		549		555		550		541		639		645		640		631		605		610		611		606		
20		542		556		558		544		632		646		648		634		550		557		551		543		640		647		641		633		606		611		612		607		
20		544		558		560		546		634		648		650		636		551		559		552		545		641		649		642		635		607		612		613		608		
20		546		560		562		548		636		650		652		638		552		561		553		547		642		651		643		637		608		613		614		609		
20		554		568		570		556		644		658		660		646		563		569		564		555		653		659		654		645		610		615		616		611		
20		556		570		572		558		646		660		662		648		564		571		565		557		654		661		655		647		611		616		617		612		
20		558		572		574		560		648		662		664		650		565		573		566		559		655		663		656		649		612		617		618		613		
20		560		574		576		562		650		664		666		652		566		575		567		561		656		665		657		651		613		618		619		614		
20		568		582		584		570		658		672		674		660		577		583		578		569		667		673		668		659		615		620		621		616		
20		570		584		586		572		660		674		676		662		578		585		579		571		668		675		669		661		616		621		622		617		
20		572		586		588		574		662		676		678		664		579		587		580		573		669		677		670		663		617		622		623		618		
20		574		588		590		576		664		678		680		666		580		589		581		575		670		679		671		665		618		623		624		619		
20		582		596		598		584		672		686		688		674		591		597		592		583		681		687		682		673		620		625		626		621		
20		584		598		600		586		674		688		690		676		592		599		593		585		682		689		683		675		621		626		627		622		
20		586		600		602		588		676		690		692		678		593		601		594		587		683		691		684		677		622		627		628		623		
20		588		602		604		590		678		692		694		680		594		603		595		589		684		693		685		679		623		628		629		624		
20		630		644		646		632		720		734		736		722		639		645		640		631		729		735		730		721		695		700		701		696		
20		632		646		648		634		722		736		738		724		640		647		641		633		730		737		731		723		696		701		702		697		
20		634		648		650		636		724		738		740		726		641		649		642		635		731		739		732		725		697		702		703		698		
20		636		650		652		638		726		740		742		728		642		651		643		637		732		741		733		727		698		703		704		699		
20		644		658		660		646		734		748		750		736		653		659		654		645		743		749		744		735		700		705		706		701		
20		646		660		662		648		736		750		752		738		654		661		655		647		744		751		745		737		701		706		707		702		
20		648		662		664		650		738		752		754		740		655		663		656		649		745		753		746		739		702		707		708		703		
20		650		664		666		652		740		754		756		742		656		665		657		651		746		755		747		741		703		708		709		704		
20		658		672		674		660		748		762		764		750		667		673		668		659		757		763		758		749		705		710		711		706		
20		660		674		676		662		750		764		766		752		668		675		669		661		758		765		759		751		706		711		712		707		
20		662		676		678		664		752		766		768		754		669		677		670		663		759		767		760		753		707		712		713		708		
20		664		678		680		666		754		768		770		756		670		679		671		665		760		769		761		755		708		713		714		709		
20		672		686		688		674		762		776		778		764		681		687		682		673		771		777		772		763		710		715		716		711		
20		674		688		690		676		764		778		780		766		682		689		683		675		772		779		773		765		711		716		717		712		
20		676		690		692		678		766		780		782		768		683		691		684		677		773		781		774		767		712		717		718		713		
20		678		692		694		680		768		782		784		770		684		693		685		679		774		783		775		769		713		718		719		714		
20		720		734		736		722		810		824		826		812		729		735		730		721		819		825		820		811		785		790		791		786		
20		722		736		738		724		812		826		828		814		730		737		731		723		820		827		821		813		786		791		792		787		
20		724		738		740		726		814		828		830		816		731		739		732		725		821		829		822		815		787		792		793		788		
20		726		740		742		728		816		830		832		818		732		741		733		727		822		831		823		817		788		793		794		789		
20		734		748		750		736		824		838		840		826		743		749		744		735		833		839		834		825		790		795		796		791		
20		736		750		752		738		826		840		842		828		744		751		745		737		834		841		835		827		791		796		797		792		
20		738		752		754		740		828		842		844		830		745		753		746		739		835		843		836		829		792		797		798		793		
20		740		754		756		742		830		844		846		832		746		755		747		741		836		845		837		831		793		798		799		794		
20		748		762		764		750		838		852		854		840		757		763		758		749		847		853		848		839		795		800		801		796		
20		750		764		766		752		840		854		856		842		758		765		759		751		848		855		849		841		796		801		802		797		
20		752		766		768		754		842		856		858		844		759		767		760		753		849		857		850		843		797		802		803		798		
20		754		768		770		756		844		858		860		846		760		769		761		755		850		859		851		845		798		803		804		799		
20		762		776		778		764		852		866		868		854		771		777		772		763		861		867		862		853		800		805		806		801		
20		764		778		780		766		854		868		870		856		772		779		773		765		862		869		863		855		801		806		807		802		
20		766		780		782		768		856		870		872		858		773		781		774		767		863		871		864		857		802		807		808		803		
20		768		782		784		770		858		872		874		860		774		783		775		769		864		873		865		859		803		808		809		804		
20		810		824		826		812		900		914		916		902		819		825		820		811		909		915		910		901		875		880		881		876		
20		812		826		828		814		902		916		918		904		820		827		821		813		910		917		911		903		876		881		882		877		
20		814		828		830		816		904		918		920		906		821		829		822		815		911		919		912		905		877		882		883		878		
20		816		830		832		818		906		920		922		908		822		831		823		817		912		921		913		907		878		883		884		879		
20		824		838		840		826		914		928		930		916		833		839		834		825		923		929		924		915		880		885		886		881		
20		826		840		842		828		916		930		932		918		834		841		835		827		924		931		925		917		881		886		887		882		
20		828		842		844		830		918		932		934		920		835		843		836		829		925		933		926		919		882		887		888		883		
20		830		844		846		832		920		934		936		922		836		845		837		831		926		935		927		921		883		888		889		884		
20		838		852		854		840		928		942		944		930		847		853		848		839		937		943		938		929		885		890		891		886		
20		840		854		856		842		930		944		946		932		848		855		849		841		938		945		939		931		886		891		892		887		
20		842		856		858		844		932		946		948		934		849		857		850		843		939		947		940		933		887		892		893		888		
20		844		858		860		846		934		948		950		936		850		859		851		845		940		949		941		935		888		893		894		889		
20		852		866		868		854		942		956		958		944		861		867		862		853		951		957		952		943		890		895		896		891		
20		854		868		870		856		944		958		960		946		862		869		863		855		952		959		953		945		891		896		897		892		
20		856		870		872		858		946		960		962		948		863		871		864		857		953		961		954		947		892		897		898		893		
20		858		872		874		860		948		962		964		950		864		873		865		859		954		963		955		949		893		898		899		894		
20		900		914		916		902		990		1004		1006		992		909		915		910		901		999		1005		1000		991		965		970		971		966		
20		902		916		918		904		992		1006		1008		994		910		917		911		903		1000		1007		1001		993		966		971		972		967		
20		904		918		920		906		994		1008		1010		996		911		919		912		905		1001		1009		1002		995		967		972		973		968		
20		906		920		922		908		996		1010		1012		998		912		921		913		907		1002		1011		1003		997		968		973		974		969		
20		914		928		930		916		1004		1018		1020		1006		923		929		924		915		1013		1019		1014		1005		970		975		976		971		
20		916		930		932		918		1006		1020		1022		1008		924		931		925		917		1014		1021		1015		1007		971		976		977		972		
20		918		932		934		920		1008		1022		1024		1010		925		933		926		919		1015		1023		1016		1009		972		977		978		973		
20		920		934		936		922		1010		1024		1026		1012		926		935		927		921		1016		1025		1017		1011		973		978		979		974		
20		928		942		944		930		1018		1032		1034		1020		937		943		938		929		1027		1033		1028		1019		975		980		981		976		
20		930		944		946		932		1020		1034		1036		1022		938		945		939		931		1028		1035		1029		1021		976		981		982		977		
20		932		946		948		934		1022		1036		1038		1024		939		947		940		933		1029		1037		1030		1023		977		982		983		978		
20		934		948		950		936		1024		1038		1040		1026		940		949		941		935		1030		1039		1031		1025		978		983		984		979		
20		942		956		958		944		1032		1046		1048		1034		951		957		952		943		1041		1047		1042		1033		980		985		986		981		
20		944		958		960		946		1034		1048		1050		1036		952		959		953		945		1042		1049		1043		1035		981		986		987		982		
20		946		960		962		948		1036		1050		1052		1038		953		961		954		947		1043		1051		1044		1037		982		987		988		983		
20		948		962		964		950		1038		1052		1054		1040		954		963		955		949		1044		1053		1045		1039		983		988		989		984		
20		990		1004		1006		992		1080		1094		1096		1082		999		1005		1000		991		1089		1095		1090		1081		1055		1060		1061		1056		
20		992		1006		1008		994		1082		1096		1098		1084		1000		1007		1001		993		1090		1097		1091		1083		1056		1061		1062		1057		
20		994		1008		1010		996		1084		1098		1100		1086		1001		1009		1002		995		1091		1099		1092		1085		1057		1062		1063		1058		
20		996		1010		1012		998		1086		1100		1102		1088		1002		1011		1003		997		1092		1101		1093		1087		1058		1063		1064		1059		
20		1004		1018		1020		1006		1094		1108		1110		1096		1013		1019		1014		1005		1103		1109		1104		1095		1060		1065		1066		1061		
20		1006		1020		1022		1008		1096		1110		1112		1098		1014		1021		1015		1007		1104		1111		1105		1097		1061		1066		1067		1062		
20		1008		1022		1024		1010		1098		1112		1114		1100		1015		1023		1016		1009		1105		1113		1106		1099		1062		1067		1068		1063		
20		1010		1024		1026		1012		1100		1114		1116		1102		1016		1025		1017		1011		1106		1115		1107		1101		1063		1068		1069		1064		
20		1018		1032		1034		1020		1108		1122		1124		1110		1027		1033		1028		1019		1117		1123		1118		1109		1065		1070		1071		1066		
20		1020		1034		1036		1022		1110		1124		1126		1112		1028		1035		1029		1021		1118		1125		1119		1111		1066		1071		1072		1067		
20		1022		1036		1038		1024		1112		1126		1128		1114		1029		1037		1030		1023		1119		1127		1120		1113		1067		1072		1073		1068		
20		1024		1038		1040		1026		1114		1128		1130		1116		1030		1039		1031		1025		1120		1129		1121		1115		1068		1073		1074		1069		
20		1032		1046		1048		1034		1122		1136		1138		1124		1041		1047		1042		1033		1131		1137		1132		1123		1070		1075		1076		1071		
20		1034		1048		1050		1036		1124		1138		1140		1126		1042		1049		1043		1035		1132		1139		1133		1125		1071		1076		1077		1072		
20		1036		1050		1052		1038		1126		1140		1142		1128		1043		1051		1044		1037		1133		1141		1134		1127		1072		1077		1078		1073		
20		1038		1052		1054		1040		1128		1142		1144		1130		1044		1053		1045		1039		1134		1143		1135		1129		1073		1078		1079		1074		
20		1080		1094		1096		1082		1170		1184		1186		1172		1089		1095		1090		1081		1179		1185		1180		1171		1145		1150		1151		1146		
20		1082		1096		1098		1084		1172		1186		1188		1174		1090		1097		1091		1083		1180		1187		1181		1173		1146		1151		1152		1147		
20		1084		1098		1100		1086		1174		1188		1190		1176		1091		1099		1092		1085		1181		1189		1182		1175		1147		1152		1153		1148		
20		1086		1100		1102		1088		1176		1190		1192		1178		1092		1101		1093		1087		1182		1191		1183		1177		1148		1153		1154		1149		
20		1094		1108		1110		1096		1184		1198		1200		1186		1103		1109		1104		1095		1193		1199		1194		1185		1150		1155		1156		1151		
20		1096		1110		1112		1098		1186		1200		1202		1188		1104		1111		1105		1097		1194		1201		1195		1187		1151		1156		1157		1152		
20		1098		1112		1114		1100		1188		1202		1204		1190		1105		1113		1106		1099		1195		1203		1196		1189		1152		1157		1158		1153		
20		1100		1114		1116		1102		1190		1204		1206		1192		1106		1115		1107		1101		1196		1205		1197		1191		1153		1158		1159		1154		
20		1108		1122		1124		1110		1198		1212		1214		1200		1117		1123		1118		1109		1207		1213		1208		1199		1155		1160		1161		1156		
20		1110		1124		1126		1112		1200		1214		1216		1202		1118		1125		1119		1111		1208		1215		1209		1201		1156		1161		1162		1157		
20		1112		1126		1128		1114		1202		1216		1218		1204		1119		1127		1120		1113		1209		1217		1210		1203		1157		1162		1163		1158		
20		1114		1128		1130		1116		1204		1218		1220		1206		1120		1129		1121		1115		1210		1219		1211		1205		1158		1163		1164		1159		
20		1122		1136		1138		1124		1212		1226		1228		1214		1131		1137		1132		1123		1221		1227		1222		1213		1160		1165		1166		1161		
20		1124		1138		1140		1126		1214		1228		1230		1216		1132		1139		1133		1125		1222		1229		1223		1215		1161		1166		1167		1162		
20		1126		1140		1142		1128		1216		1230		1232		1218		1133		1141		1134		1127		1223		1231		1224		1217		1162		1167		1168		1163		
20		1128		1142		1144		1130		1218		1232		1234		1220		1134		1143		1135		1129		1224		1233		1225		1219		1163		1168		1169		1164		
20		1170		1184		1186		1172		1260		1274		1276		1262		1179		1185		1180		1171		1269		1275		1270		1261		1235		1240		1241		1236		
20		1172		1186		1188		1174		1262		1276		1278		1264		1180		1187		1181		1173		1270		1277		1271		1263		1236		1241		1242		1237		
20		1174		1188		1190		1176		1264		1278		1280		1266		1181		1189		1182		1175		1271		1279		1272		1265		1237		1242		1243		1238		
20		1176		1190		1192		1178		1266		1280		1282		1268		1182		1191		1183		1177		1272		1281		1273		1267		1238		1243		1244		1239		
20		1184		1198		1200		1186		1274		1288		1290		1276		1193		1199		1194		1185		1283		1289		1284		1275		1240		1245		1246		1241		
20		1186		1200		1202		1188		1276		1290		1292		1278		1194		1201		1195		1187		1284		1291		1285		1277		1241		1246		1247		1242		
20		1188		1202		1204		1190		1278		1292		1294		1280		1195		1203		1196		1189		1285		1293		1286		1279		1242		1247		1248		1243		
20		1190		1204		1206		1192		1280		1294		1296		1282		1196		1205		1197		1191		1286		1295		1287		1281		1243		1248		1249		1244		
20		1198		1212		1214		1200		1288		1302		1304		1290		1207		1213		1208		1199		1297		1303		1298		1289		1245		1250		1251		1246		
20		1200		1214		1216		1202		1290		1304		1306		1292		1208		1215		1209		1201		1298		1305		1299		1291		1246		1251		1252		1247		
20		1202		1216		1218		1204		1292		1306		1308		1294		1209		1217		1210		1203		1299		1307		1300		1293		1247		1252		1253		1248		
20		1204		1218		1220		1206		1294		1308		1310		1296		1210		1219		1211		1205		1300		1309		1301		1295		1248		1253		1254		1249		
20		1212		1226		1228		1214		1302		1316		1318		1304		1221		1227		1222		1213		1311		1317		1312		1303		1250		1255		1256		1251		
20		1214		1228		1230		1216		1304		1318		1320		1306		1222		1229		1223		1215		1312		1319		1313		1305		1251		1256		1257		1252		
20		1216		1230		1232		1218		1306		1320		1322		1308		1223		1231		1224		1217		1313		1321		1314		1307		1252		1257		1258		1253		
20		1218		1232		1234		1220		1308		1322		1324		1310		1224		1233		1225		1219		1314		1323		1315		1309		1253		1258		1259		1254		
CELL_TYPES 224
25
25
25
25
25
25
25
25
25
25
25
25
25
25
25
25
25
25
25
25
25
25
25
25
25
25
25
25
25
25
25
25
25
25
25
25
25
25
25
25
25
25
25
25
25
25
25
25
25
25
25
25
25
25
25
25
25
25
25
25
25
25
25
25
25
25
25
25
25
25
25
25
25
25
25
25
25
25
25
25
25
25
25
25
25
25
25
25
25
25
25
25
25
25
25
25
25
25
25
25
25
25
25
25
25
25
25
25
25
25
25
25
25
25
25
25
25
25
25
25
25
25
25
25
25
25
25
25
25
25
25
25
25
25
25
25
25
25
25
25
25
25
25
25
25
25
25
25
25
25
25
25
25
25
25
25
25
25
25
25
25
25
25
25
25
25
25
25
25
25
25
25
25
25
25
25
25
25
25
25
25
25
25
25
25
25
25
25
25
25
25
25
25
25
25
25
25
25
25
25
25
25
25
25
25
25
25
25
25
25
25
25
25
25
25
25
25
25
25
25
25
25
25
25
POINT_DATA 1325
SCALARS node_id double 1
LOOKUP_TABLE default
0.000000
1.000000
2.000000
3.000000
4.000000
5.000000
6.000000
7.000000
8.000000
9.000000
10.000000
11.000000
12.000000
13.000000
14.000000
15.000000
16.000000
17.000000
18.000000
19.000000
20.000000
21.000000
22.000000
23.000000
24.000000
25.000000
26.000000
27.000000
28.000000
29.000000
30.000000
31.000000
32.000000
33.000000
34.000000
35.000000
36.000000
37.000000
38.000000
39.000000
40.000000
41.000000
42.000000
43.000000
44.000000
45.000000
46.000000
47.000000
48.000000
49.000000
50.000000
51.000000
52.000000
53.000000
54.000000
55.000000
56.000000
57.000000
58.000000
59.000000
60.000000
61.000000
62.000000
63.000000
64.000000
65.000000
66.000000
67.000000
68.000000
69.000000
70.000000
71.000000
72.000000
73.000000
74.000000
75.000000
76.000000
77.000000
78.000000
79.000000
80.000000
81.000000
82.000000
83.000000
84.000000
85.000000
86.000000
87.000000
88.000000
89.000000
90.000000
91.000000
92.000000
93.000000
94.000000
95.000000
96.000000
97.000000
98.000000
99.000000
100.000000
101.000000
102.000000
103.000000
104.000000
105.000000
106.000000
107.000000
108.000000
109.000000
110.000000
111.000000
112.000000
113.000000
114.000000
115.000000
116.000000
117.000000
118.000000
119.000000
120.000000
121.000000
122.000000
123.000000
124.000000
125.000000
126.000000
127.000000
128.000000
129.000000
130.000000
131.000000
132.000000
133.000000
134.000000
135.000000
136.000000
137.000000
138.000000
139.000000
140.000000
141.000000
142.000000
143.000000
144.000000
145.000000
146.000000
147.000000
148.000000
149.000000
150.000000
151.000000
152.000000
153.000000
154.000000
155.000000
156.000000
157.000000
158.000000
159.000000
160.000000
161.000000
162.000000
163.000000
164.000000
165.000000
166.000000
167.000000
168.000000
169.000000
170.000000
171.000000
172.000000
173.000000
174.000000
175.000000
176.000000
177.000000
178.000000
179.000000
180.000000
181.000000
182.000000
183.000000
184.000000
185.000000
186.000000
187.000000
188.000000
189.000000
190.000000
191.000000
192.000000
193.000000
194.000000
195.000000
196.000000
197.000000
198.000000
199.000000
200.000000
201.000000
202.000000
203.000000
204.000000
205.000000
206.000000
207.000000
208.000000
209.000000
210.000000
211.000000
212.000000
213.000000
214.000000
215.000000
216.000000
217.000000
218.000000
219.000000
220.000000
221.000000
222.000000
223.000000
224.000000
225.000000
226.000000
227.000000
228.000000
229.000000
230.000000
231.000000
232.000000
233.000000
234.000000
235.000000
236.000000
237.000000
238.000000
239.000000
240.000000
241.000000
242.000000
243.000000
244.000000
245.000000
246.000000
247.000000
248.000000
249.000000
250.000000
251.000000
252.000000
253.000000
254.000000
255.000000
256.000000
257.000000
258.000000
259.000000
260.000000
261.000000
262.000000
263.000000
264.000000
265.000000
266.000000
267.000000
268.000000
269.000000
270.000000
271.000000
272.000000
273.000000
274.000000
275.000000
276.000000
277.000000
278.000000
279.000000
280.000000
281.000000
282.000000
283.000000
284.000000
285.000000
286.000000
287.000000
288.000000
289.000000
290.000000
291.000000
292.000000
293.000000
294.000000
295.000000
296.000000
297.000000
298.000000
299.000000
300.000000
301.000000
302.000000
303.000000
304.000000
305.000000
306.000000
307.000000
308.000000
309.000000
310.000000
311.000000
312.000000
313.000000
314.000000
315.000000
316.000000
317.000000
318.000000
319.000000
320.000000
321.000000
322.000000
323.000000
324.000000
325.000000
326.000000
327.000000
328.000000
329.000000
330.000000
331.000000
332.000000
333.000000
334.000000
335.000000
336.000000
337.000000
338.000000
339.000000
340.000000
341.000000
342.000000
343.000000
344.000000
345.000000
346.000000
347.000000
348.000000
349.000000
350.000000
351.000000
352.000000
353.000000
354.000000
355.000000
356.000000
357.000000
358.000000
359.000000
360.000000
361.000000
362.000000
363.000000
364.000000
365.000000
366.000000
367.000000
368.000000
369.000000
370.000000
371.000000
372.000000
373.000000
374.000000
375.000000
376.000000
377.000000
378.000000
379.000000
380.000000
381.000000
382.000000
383.000000
384.000000
385.000000
386.000000
387.000000
388.000000
389.000000
390.000000
391.000000
392.000000
393.000000
394.000000
395.000000
396.000000
397.000000
398.000000
399.000000
400.000000
401.000000
402.000000
403.000000
404.000000
405.000000
406.000000
407.000000
408.000000
409.000000
410.000000
411.000000
412.000000
413.000000
414.000000
415.000000
416.000000
417.000000
418.000000
419.000000
420.000000
421.000000
422.000000
423.000000
424.000000
425.000000
426.000000
427.000000
428.000000
429.000000
430.000000
431.000000
432.000000
433.000000
434.000000
435.000000
436.000000
437.000000
438.000000
439.000000
440.000000
441.000000
442.000000
443.000000
444.000000
445.000000
446.000000
447.000000
448.000000
449.000000
450.000000
451.000000
452.000000
453.000000
454.000000
455.000000
456.000000
457.000000
458.000000
459.000000
460.000000
461.000000
462.000000
463.000000
464.000000
465.000000
466.000000
467.000000
468.000000
469.000000
470.000000
471.000000
472.000000
473.000000
474.000000
475.000000
476.000000
477.000000
478.000000
479.000000
480.000000
481.000000
482.000000
483.000000
484.000000
485.000000
486.000000
487.000000
488.000000
489.000000
490.000000
491.000000
492.000000
493.000000
494.000000
495.000000
496.000000
497.000000
498.000000
499.000000
500.000000
501.000000
502.000000
503.000000
504.000000
505.000000
506.000000
507.000000
508.000000
509.000000
510.000000
511.000000
512.000000
513.000000
514.000000
515.000000
516.000000
517.000000
518.000000
519.000000
520.000000
521.000000
522.000000
523.000000
524.000000
525.000000
526.000000
527.000000
528.000000
529.000000
530.000000
531.000000
532.000000
533.000000
534.000000
535.000000
536.000000
537.000000
538.000000
539.000000
540.000000
541.000000
542.000000
543.000000
544.000000
545.000000
546.000000
547.000000
548.000000
549.000000
550.000000
551.000000
552.000000
553.000000
554.000000
555.000000
556.000000
557.000000
558.000000
559.000000
560.000000
561.000000
562.000000
563.000000
564.000000
565.000000
566.000000
567.000000
568.000000
569.000000
570.000000
571.000000
572.000000
573.000000
574.000000
575.000000
576.000000
577.000000
578.000000
579.000000
580.000000
581.000000
582.000000
583.000000
584.000000
585.000000
586.000000
587.000000
588.000000
589.000000
590.000000
591.000000
592.000000
593.000000
594.000000
595.000000
596.000000
597.000000
598.000000
599.000000
600.000000
601.000000
602.000000
603.000000
604.000000
605.000000
606.000000
607.000000
608.000000
609.000000
610.000000
611.000000
612.000000
613.000000
614.000000
615.000000
616.000000
617.000000
618.000000
619.000000
620.000000
621.000000
622.000000
623.000000
624.000000
625.000000
626.000000
627.000000
628.000000
629.000000
630.000000
631.000000
632.000000
633.000000
634.000000
635.000000
636.000000
637.000000
638.000000
639.000000
640.000000
641.000000
642.000000
643.000000
644.000000
645.000000
646.000000
647.000000
648.000000
649.000000
650.000000
651.000000
652.000000
653.000000
654.000000
655.000000
656.000000
657.000000
658.000000
659.000000
660.000000
661.000000
662.000000
663.000000
664.000000
665.000000
666.000000
667.000000
668.000000
669.000000
670.000000
671.000000
672.000000
673.000000
674.000000
675.000000
676.000000
677.000000
678.000000
679.000000
680.000000
681.000000
682.000000
683.000000
684.000000
685.000000
686.000000
687.000000
688.000000
689.000000
690.000000
691.000000
692.000000
693.000000
694.000000
695.000000
696.000000
697.000000
698.000000
699.000000
700.000000
701.000000
702.000000
703.000000
704.000000
705.000000
706.000000
707.000000
708.000000
709.000000
710.000000
711.000000
712.000000
713.000000
714.000000
715.000000
716.000000
717.000000
718.000000
719.000000
720.000000
721.000000
722.000000
723.000000
724.000000
725.000000
726.000000
727.000000
728.000000
729.000000
730.000000
731.000000
732.000000
733.000000
734.000000
735.000000
736.000000
737.000000
738.000000
739.000000
740.000000
741.000000
742.000000
743.000000
744.000000
745.000000
746.000000
747.000000
748.000000
749.000000
750.000000
751.000000
752.000000
753.000000
754.000000
755.000000
756.000000
757.000000
758.000000
759.000000
760.000000
761.000000
762.000000
763.000000
764.000000
765.000000
766.000000
767.000000
768.000000
769.000000
770.000000
771.000000
772.000000
773.000000
774.000000
775.000000
776.000000
777.000000
778.000000
779.000000
780.000000
781.000000
782.000000
783.000000
784.000000
785.000000
786.000000
787.000000
788.000000
789.000000
790.000000
791.000000
792.000000
793.000000
794.000000
795.000000
796.000000
797.000000
798.000000
799.000000
800.000000
801.000000
802.000000
803.000000
804.000000
805.000000
806.000000
807.000000
808.000000
809.000000
810.000000
811.000000
812.000000
813.000000
814.000000
815.000000
816.000000
817.000000
818.000000
819.000000
820.000000
821.000000
822.000000
823.000000
824.000000
825.000000
826.000000
827.000000
828.000000
829.000000
830.000000
831.000000
832.000000
833.000000
834.000000
835.000000
836.000000
837.000000
838.000000
839.000000
840.000000
841.000000
842.000000
843.000000
844.000000
845.000000
846.000000
847.000000
848.000000
849.000000
850.000000
851.000000
852.000000
853.000000
854.000000
855.000000
856.000000
857.000000
858.000000
859.000000
860.000000
861.000000
862.000000
863.000000
864.000000
865.000000
866.000000
867.000000
868.000000
869.000000
870.000000
871.000000
872.000000
873.000000
874.000000
875.000000
876.000000
877.000000
878.000000
879.000000
880.000000
881.000000
882.000000
883.000000
884.000000
885.000000
886.000000
887.000000
888.000000
889.000000
890.000000
891.000000
892.000000
893.000000
894.000000
895.000000
896.000000
897.000000
898.000000
899.000000
900.000000
901.000000
902.000000
903.000000
904.000000
905.000000
906.000000
907.000000
908.000000
909.000000
910.000000
911.000000
912.000000
913.000000
914.000000
915.000000
916.000000
917.000000
918.000000
919.000000
920.000000
921.000000
922.000000
923.000000
924.000000
925.000000
926.000000
927.000000
928.000000
929.000000
930.000000
931.000000
932.000000
933.000000
934.000000
935.000000
936.000000
937.000000
938.000000
939.000000
940.000000
941.000000
942.000000
943.000000
944.000000
945.000000
946.000000
947.000000
948.000000
949.000000
950.000000
951.000000
952.000000
953.000000
954.000000
955.000000
956.000000
957.000000
958.000000
959.000000
960.000000
961.000000
962.000000
963.000000
964.000000
965.000000
966.000000
967.000000
968.000000
969.000000
970.000000
971.000000
972.000000
973.000000
974.000000
975.000000
976.000000
977.000000
978.000000
979.000000
980.000000
981.000000
982.000000
983.000000
984.000000
985.000000
986.000000
987.000000
988.000000
989.000000
990.000000
991.000000
992.000000
993.000000
994.000000
995.000000
996.000000
997.000000
998.000000
999.000000
1000.000000
1001.000000
1002.000000
1003.000000
1004.000000
1005.000000
1006.000000
1007.000000
1008.000000
1009.000000
1010.000000
1011.000000
1012.000000
1013.000000
1014.000000
1015.000000
1016.000000
1017.000000
1018.000000
1019.000000
1020.000000
1021.000000
1022.000000
1023.000000
1024.000000
1025.000000
1026.000000
1027.000000
1028.000000
1029.000000
1030.000000
1031.000000
1032.000000
1033.000000
1034.000000
1035.000000
1036.000000
1037.000000
1038.000000
1039.000000
1040.000000
1041.000000
1042.000000
1043.000000
1044.000000
1045.000000
1046.000000
1047.000000
1048.000000
1049.000000
1050.000000
1051.000000
1052.000000
1053.000000
1054.000000
1055.000000
1056.000000
1057.000000
1058.000000
1059.000000
1060.000000
1061.000000
1062.000000
1063.000000
1064.000000
1065.000000
1066.000000
1067.000000
1068.000000
1069.000000
1070.000000
1071.000000
1072.000000
1073.000000
1074.000000
1075.000000
1076.000000
1077.000000
1078.000000
1079.000000
1080.000000
1081.000000
1082.000000
1083.000000
1084.000000
1085.000000
1086.000000
1087.000000
1088.000000
1089.000000
1090.000000
1091.000000
1092.000000
1093.000000
1094.000000
1095.000000
1096.000000
1097.000000
1098.000000
1099.000000
1100.000000
1101.000000
1102.000000
1103.000000
1104.000000
1105.000000
1106.000000
1107.000000
1108.000000
1109.000000
1110.000000
1111.000000
1112.000000
1113.000000
1114.000000
1115.000000
1116.000000
1117.000000
1118.000000
1119.000000
1120.000000
1121.000000
1122.000000
1123.000000
1124.000000
1125.000000
1126.000000
1127.000000
1128.000000
1129.000000
1130.000000
1131.000000
1132.000000
1133.000000
1134.000000
1135.000000
1136.000000
1137.000000
1138.000000
1139.000000
1140.000000
1141.000000
1142.000000
1143.000000
1144.000000
1145.000000
1146.000000
1147.000000
1148.000000
1149.000000
1150.000000
1151.000000
1152.000000
1153.000000
1154.000000
1155.000000
1156.000000
1157.000000
1158.000000
1159.000000
1160.000000
1161.000000
1162.000000
1163.000000
1164.000000
1165.000000
1166.000000
1167.000000
1168.000000
1169.000000
1170.000000
1171.000000
1172.000000
1173.000000
1174.000000
1175.000000
1176.000000
1177.000000
1178.000000
1179.000000
1180.000000
1181.000000
1182.000000
1183.000000
1184.000000
1185.000000
1186.000000
1187.000000
1188.000000
1189.000000
1190.000000
1191.000000
1192.000000
1193.000000
1194.000000
1195.000000
1196.000000
1197.000000
1198.000000
1199.000000
1200.000000
1201.000000
1202.000000
1203.000000
1204.000000
1205.000000
1206.000000
1207.000000
1208.000000
1209.000000
1210.000000
1211.000000
1212.000000
1213.000000
1214.000000
1215.000000
1216.000000
1217.000000
1218.000000
1219.000000
1220.000000
1221.000000
1222.000000
1223.000000
1224.000000
1225.000000
1226.000000
1227.000000
1228.000000
1229.000000
1230.000000
1231.000000
1232.000000
1233.000000
1234.000000
1235.000000
1236.000000
1237.000000
1238.000000
1239.000000
1240.000000
1241.000000
1242.000000
1243.000000
1244.000000
1245.000000
1246.000000
1247.000000
1248.000000
1249.000000
1250.000000
1251.000000
1252.000000
1253.000000
1254.000000
1255.000000
1256.000000
1257.000000
1258.000000
1259.000000
1260.000000
1261.000000
1262.000000
1263.000000
1264.000000
1265.000000
1266.000000
1267.000000
1268.000000
1269.000000
1270.000000
1271.000000
1272.000000
1273.000000
1274.000000
1275.000000
1276.000000
1277.000000
1278.000000
1279.000000
1280.000000
1281.000000
1282.000000
1283.000000
1284.000000
1285.000000
1286.000000
1287.000000
1288.000000
1289.000000
1290.000000
1291.000000
1292.000000
1293.000000
1294.000000
1295.000000
1296.000000
1297.000000
1298.000000
1299.000000
1300.000000
1301.000000
1302.000000
1303.000000
1304.000000
1305.000000
1306.000000
1307.000000
1308.000000
1309.000000
1310.000000
1311.000000
1312.000000
1313.000000
1314.000000
1315.000000
1316.000000
1317.000000
1318.000000
1319.000000
1320.000000
1321.000000
1322.000000
1323.000000
1324.000000
VECTORS displacement double
0.000000e+00		0.000000e+00		0.000000e+00
0.000000e+00		0.000000e+00		0.000000e+00
0.000000e+00		0.000000e+00		0.000000e+00
0.000000e+00		0.000000e+00		0.000000e+00
0.000000e+00		0.000000e+00		0.000000e+00
0.000000e+00		0.000000e+00		0.000000e+00
0.000000e+00		0.000000e+00		0.000000e+00
0.000000e+00		0.000000e+00		0.000000e+00
0.000000e+00		0.000000e+00		0.000000e+00
0.000000e+00		0.000000e+00		0.000000e+00
0.000000e+00		0.000000e+00		0.000000e+00
0.000000e+00		0.000000e+00		0.000000e+00
0.000000e+00		0.000000e+00		0.000000e+00
0.000000e+00		0.000000e+00		0.000000e+00
0.000000e+00		0.000000e+00		0.000000e+00
0.000000e+00		0.000000e+00		0.000000e+00
0.000000e+00		0.000000e+00		0.000000e+00
0.000000e+00		0.000000e+00		0.000000e+00
0.000000e+00		0.000000e+00		0.000000e+00
0.000000e+00		0.000000e+00		0.000000e+00
0.000000e+00		0.000000e+00		0.000000e+00
0.000000e+00		0.000000e+00		0.000000e+00
0.000000e+00		0.000000e+00		0.000000e+00
0.000000e+00		0.000000e+00		0.000000e+00
0.000000e+00		0.000000e+00		0.000000e+00
0.000000e+00		0.000000e+00		0.000000e+00
0.000000e+00		0.000000e+00		0.000000e+00
0.000000e+00		0.000000e+00		0.000000e+00
0.000000e+00		0.000000e+00		0.000000e+00
0.000000e+00		0.000000e+00		0.000000e+00
0.000000e+00		0.000000e+00		0.000000e+00
0.000000e+00		0.000000e+00		0.000000e+00
0.000000e+00		0.000000e+00		0.000000e+00
0.000000e+00		0.000000e+00		0.000000e+00
0.000000e+00		0.000000e+00		0.000000e+00
0.000000e+00		0.000000e+00		0.000000e+00
0.000000e+00		0.000000e+00		0.000000e+00
0.000000e+00		0.000000e+00		0.000000e+00
0.000000e+00		0.000000e+00		0.000000e+00
0.000000e+00		0.000000e+00		0.000000e+00
0.000000e+00		0.000000e+00		0.000000e+00
0.000000e+00		0.000000e+00		0.000000e+00
0.000000e+00		0.000000e+00		0.000000e+00
0.000000e+00		0.000000e+00		0.000000e+00
0.000000e+00		0.000000e+00		0.000000e+00
0.000000e+00		0.000000e+00		0.000000e+00
0.000000e+00		0.000000e+00		0.000000e+00
0.000000e+00		0.000000e+00		0.000000e+00
0.000000e+00		0.000000e+00		0.000000e+00
0.000000e+00		0.000000e+00		0.000000e+00
0.000000e+00		0.000000e+00		0.000000e+00
0.000000e+00		0.000000e+00		0.000000e+00
0.000000e+00		0.000000e+00		0.000000e+00
0.000000e+00		0.000000e+00		0.000000e+00
0.000000e+00		0.000000e+00		0.000000e+00
0.000000e+00		0.000000e+00		0.000000e+00
0.000000e+00		0.000000e+00		0.000000e+00
0.000000e+00		0.000000e+00		0.000000e+00
0.000000e+00		0.000000e+00		0.000000e+00
0.000000e+00		0.000000e+00		0.000000e+00
0.000000e+00		0.000000e+00		0.000000e+00
0.000000e+00		0.000000e+00		0.000000e+00
0.000000e+00		0.000000e+00		0.000000e+00
0.000000e+00		0.000000e+00		0.000000e+00
0.000000e+00		0.000000e+00		0.000000e+00
6.788702e-03		7.941817e-03		1.613756e-02
8.863038e-03		2.119759e-03		1.403871e-02
9.364479e-03		1.167843e-16		1.453489e-02
8.863038e-03		-2.119759e-03		1.403871e-02
6.788702e-03		-7.941817e-03		1.613756e-02
1.307387e-03		4.035971e-03		6.630638e-03
3.242682e-03		1.071257e-03		4.903464e-03
3.482666e-03		7.548200e-17		4.980789e-03
3.242682e-03		-1.071257e-03		4.903464e-03
1.307387e-03		-4.035971e-03		6.630638e-03
7.399807e-04		1.272714e-16		1.952448e-16
2.698665e-03		4.995799e-17		9.706626e-17
2.944235e-03		2.877317e-17		6.523814e-17
2.698665e-03		1.255632e-17		4.248243e-17
7.399807e-04		-3.335613e-18		1.809853e-17
1.307387e-03		-4.035971e-03		-6.630638e-03
3.242682e-03		-1.071257e-03		-4.903464e-03
3.482666e-03		-2.302461e-17		-4.980789e-03
3.242682e-03		1.071257e-03		-4.903464e-03
1.307387e-03		4.035971e-03		-6.630638e-03
6.788702e-03		-7.941817e-03		-1.613756e-02
8.863038e-03		-2.119759e-03		-1.403871e-02
9.364479e-03		-8.402432e-17		-1.453489e-02
8.863038e-03		2.119759e-03		-1.403871e-02
6.788702e-03		7.941817e-03		-1.613756e-02
1.381005e-02		1.176176e-02		3.043504e-02
1.638118e-02		7.306919e-03		2.843941e-02
1.797949e-02		4.432541e-03		2.846257e-02
1.873057e-02		1.925000e-03		2.825904e-02
1.896354e-02		2.325032e-16		2.826950e-02
1.873057e-02		-1.925000e-03		2.825904e-02
1.797949e-02		-4.432541e-03		2.846257e-02
1.638118e-02		-7.306919e-03		2.843941e-02
1.381005e-02		-1.176176e-02		3.043504e-02
9.553518e-03		9.005271e-03		2.109239e-02
1.287356e-02		3.342467e-03		1.856472e-02
1.368123e-02		2.140254e-16		1.811611e-02
1.287356e-02		-3.342467e-03		1.856472e-02
9.553518e-03		-9.005271e-03		2.109239e-02
7.462096e-03		6.313274e-03		1.341626e-02
9.593190e-03		3.886514e-03		1.201501e-02
1.053092e-02		2.299480e-03		1.167507e-02
1.106651e-02		9.737628e-04		1.137150e-02
1.123497e-02		1.668320e-16		1.131832e-02
1.106651e-02		-9.737628e-04		1.137150e-02
1.053092e-02		-2.299480e-03		1.167507e-02
9.593190e-03		-3.886514e-03		1.201501e-02
7.462096e-03		-6.313274e-03		1.341626e-02
5.962103e-03		3.225746e-03		6.368744e-03
9.029366e-03		1.173291e-03		5.456279e-03
9.625715e-03		1.251320e-16		5.258059e-03
9.029366e-03		-1.173291e-03		5.456279e-03
5.962103e-03		-3.225746e-03		6.368744e-03
5.443483e-03		2.310191e-16		3.528029e-16
7.716866e-03		1.680740e-16		2.574132e-16
8.556189e-03		1.317315e-16		2.159835e-16
9.007958e-03		9.660305e-17		1.700851e-16
9.134724e-03		7.806571e-17		1.433379e-16
9.007958e-03		5.795906e-17		1.126086e-16
8.556189e-03		3.986394e-17		9.262981e-17
7.716866e-03		2.350408e-17		6.225048e-17
5.443483e-03		1.546619e-17		3.623371e-17
5.962103e-03		-3.225746e-03		-6.368744e-03
9.029366e-03		-1.173291e-03		-5.456279e-03
9.625715e-03		2.969905e-17		-5.258059e-03
9.029366e-03		1.173291e-03		-5.456279e-03
5.962103e-03		3.225746e-03		-6.368744e-03
7.462096e-03		-6.313274e-03		-1.341626e-02
9.593190e-03		-3.886514e-03		-1.201501e-02
1.053092e-02		-2.299480e-03		-1.167507e-02
1.106651e-02		-9.737628e-04		-1.137150e-02
1.123497e-02		-2.153585e-17		-1.131832e-02
1.106651e-02		9.737628e-04		-1.137150e-02
1.053092e-02		2.299480e-03		-1.167507e-02
9.593190e-03		3.886514e-03		-1.201501e-02
7.462096e-03		6.313274e-03		-1.341626e-02
9.553518e-03		-9.005271e-03		-2.109239e-02
1.287356e-02		-3.342467e-03		-1.856472e-02
1.368123e-02		-7.299661e-17		-1.811611e-02
1.287356e-02		3.342467e-03		-1.856472e-02
9.553518e-03		9.005271e-03		-2.109239e-02
1.381005e-02		-1.176176e-02		-3.043504e-02
1.638118e-02		-7.306919e-03		-2.843941e-02
1.797949e-02		-4.432541e-03		-2.846257e-02
1.873057e-02		-1.925000e-03		-2.825904e-02
1.896354e-02		-1.247916e-16		-2.826950e-02
1.873057e-02		1.925000e-03		-2.825904e-02
1.797949e-02		4.432541e-03		-2.846257e-02
1.638118e-02		7.306919e-03		-2.843941e-02
1.381005e-02		1.176176e-02		-3.043504e-02
2.301097e-02		1.340673e-02		4.214988e-02
2.791687e-02		5.564202e-03		4.074766e-02
2.928782e-02		4.037832e-16		4.054067e-02
2.791687e-02		-5.564202e-03		4.074766e-02
2.301097e-02		-1.340673e-02		4.214988e-02
1.654674e-02		7.058226e-03		1.907918e-02
2.033764e-02		2.901301e-03		1.794947e-02
2.122561e-02		2.857132e-16		1.760972e-02
2.033764e-02		-2.901301e-03		1.794947e-02
1.654674e-02		-7.058226e-03		1.907918e-02
1.428370e-02		3.174424e-16		4.851219e-16
1.813072e-02		2.130911e-16		3.405755e-16
1.886970e-02		1.421035e-16		2.349235e-16
1.813072e-02		8.673786e-17		1.533033e-16
1.428370e-02		4.891009e-17		6.334286e-17
1.654674e-02		-7.058226e-03		-1.907918e-02
2.033764e-02		-2.901301e-03		-1.794947e-02
2.122561e-02		-1.131377e-17		-1.760972e-02
2.033764e-02		2.901301e-03		-1.794947e-02
1.654674e-02		7.058226e-03		-1.907918e-02
2.301097e-02		-1.340673e-02		-4.214988e-02
2.791687e-02		-5.564202e-03		-4.074766e-02
2.928782e-02		-1.538790e-16		-4.054067e-02
2.791687e-02		5.564202e-03		-4.074766e-02
2.301097e-02		1.340673e-02		-4.214988e-02
3.456962e-02		1.356567e-02		5.249696e-02
3.751275e-02		9.888116e-03		5.244180e-02
3.952066e-02		6.093691e-03		5.202683e-02
4.066786e-02		2.947387e-03		5.190226e-02
4.102652e-02		5.846998e-16		5.182539e-02
4.066786e-02		-2.947387e-03		5.190226e-02
3.952066e-02		-6.093691e-03		5.202683e-02
3.751275e-02		-9.888116e-03		5.244180e-02
3.456962e-02		-1.356567e-02		5.249696e-02
3.129473e-02		1.026418e-02		3.792485e-02
3.576938e-02		4.625748e-03		3.756391e-02
3.704053e-02		4.929026e-16		3.731745e-02
3.576938e-02		-4.625748e-03		3.756391e-02
3.129473e-02		-1.026418e-02		3.792485e-02
2.857693e-02		6.957186e-03		2.433786e-02
3.120687e-02		5.133796e-03		2.436265e-02
3.277292e-02		3.163262e-03		2.403130e-02
3.357889e-02		1.520458e-03		2.388826e-02
3.381986e-02		4.169945e-16		2.382501e-02
3.357889e-02		-1.520458e-03		2.388826e-02
3.277292e-02		-3.163262e-03		2.403130e-02
3.120687e-02		-5.133796e-03		2.436265e-02
2.857693e-02		-6.957186e-03		2.433786e-02
2.691866e-02		3.561912e-03		1.195000e-02
3.109963e-02		1.616640e-03		1.178547e-02
3.202095e-02		3.242507e-16		1.166162e-02
3.109963e-02		-1.616640e-03		1.178547e-02
2.691866e-02		-3.561912e-03		1.195000e-02
2.633022e-02		3.848975e-16		6.032471e-16
2.909263e-02		3.465510e-16		5.115350e-16
3.055214e-02		2.960855e-16		4.647531e-16
3.125341e-02		2.664523e-16		3.712658e-16
3.146087e-02		2.254221e-16		3.214455e-16
3.125341e-02		1.843580e-16		2.673137e-16
3.055214e-02		1.477379e-16		2.322035e-16
2.909263e-02		1.246479e-16		1.622662e-16
2.633022e-02		1.041982e-16		1.080968e-16
2.691866e-02		-3.561912e-03		-1.195000e-02
3.109963e-02		-1.616640e-03		-1.178547e-02
3.202095e-02		1.175985e-16		-1.166162e-02
3.109963e-02		1.616640e-03		-1.178547e-02
2.691866e-02		3.561912e-03		-1.195000e-02
2.857693e-02		-6.957186e-03		-2.433786e-02
3.120687e-02		-5.133796e-03		-2.436265e-02
3.277292e-02		-3.163262e-03		-2.403130e-02
3.357889e-02		-1.520458e-03		-2.388826e-02
3.381986e-02		1.832375e-17		-2.382501e-02
3.357889e-02		1.520458e-03		-2.388826e-02
3.277292e-02		3.163262e-03		-2.403130e-02
3.120687e-02		5.133796e-03		-2.436265e-02
2.857693e-02		6.957186e-03		-2.433786e-02
3.129473e-02		-1.026418e-02		-3.792485e-02
3.576938e-02		-4.625748e-03		-3.756391e-02
3.704053e-02		-8.301191e-17		-3.731745e-02
3.576938e-02		4.625748e-03		-3.756391e-02
3.129473e-02		1.026418e-02		-3.792485e-02
3.456962e-02		-1.356567e-02		-5.249696e-02
3.751275e-02		-9.888116e-03		-5.244180e-02
3.952066e-02		-6.093691e-03		-5.202683e-02
4.066786e-02		-2.947387e-03		-5.190226e-02
4.102652e-02		-1.811338e-16		-5.182539e-02
4.066786e-02		2.947387e-03		-5.190226e-02
3.952066e-02		6.093691e-03		-5.202683e-02
3.751275e-02		9.888116e-03		-5.244180e-02
3.456962e-02		1.356567e-02		-5.249696e-02
4.879868e-02		1.316013e-02		6.250830e-02
5.358125e-02		6.218987e-03		6.282701e-02
5.508666e-02		7.559572e-16		6.261440e-02
5.358125e-02		-6.218987e-03		6.282701e-02
4.879868e-02		-1.316013e-02		6.250830e-02
4.331518e-02		6.647615e-03		2.952454e-02
4.762374e-02		3.218800e-03		2.979702e-02
4.877501e-02		5.676425e-16		2.967856e-02
4.762374e-02		-3.218800e-03		2.979702e-02
4.331518e-02		-6.647615e-03		2.952454e-02
4.123040e-02		4.654395e-16		7.129983e-16
4.551719e-02		3.922615e-16		5.609384e-16
4.655143e-02		3.153850e-16		4.300406e-16
4.551719e-02		2.369055e-16		3.088584e-16
4.123040e-02		1.858335e-16		1.348866e-16
4.331518e-02		-6.647615e-03		-2.952454e-02
4.762374e-02		-3.218800e-03		-2.979702e-02
4.877501e-02		6.426238e-17		-2.967856e-02
4.762374e-02		3.218800e-03		-2.979702e-02
4.331518e-02		6.647615e-03		-2.952454e-02
4.879868e-02		-1.316013e-02		-6.250830e-02
5.358125e-02		-6.218987e-03		-6.282701e-02
5.508666e-02		-1.755587e-16		-6.261440e-02
5.358125e-02		6.218987e-03		-6.282701e-02
4.879868e-02		1.316013e-02		-6.250830e-02
6.531328e-02		1.229128e-02		7.178798e-02
6.796952e-02		9.066762e-03		7.249577e-02
6.979431e-02		5.935035e-03		7.261116e-02
7.085957e-02		2.924133e-03		7.255448e-02
7.121572e-02		9.210252e-16		7.252270e-02
7.085957e-02		-2.924133e-03		7.255448e-02
6.979431e-02		-5.935035e-03		7.261116e-02
6.796952e-02		-9.066762e-03		7.249577e-02
6.531328e-02		-1.229128e-02		7.178798e-02
6.245776e-02		9.226520e-03		5.230982e-02
6.673378e-02		4.511068e-03		5.318536e-02
6.801731e-02		8.247982e-16		5.318244e-02
6.673378e-02		-4.511068e-03		5.318536e-02
6.245776e-02		-9.226520e-03		5.230982e-02
6.039692e-02		6.176641e-03		3.419119e-02
6.293293e-02		4.620182e-03		3.465252e-02
6.455372e-02		3.052531e-03		3.482424e-02
6.545420e-02		1.506222e-03		3.484421e-02
6.573122e-02		7.258912e-16		3.483977e-02
6.545420e-02		-1.506222e-03		3.484421e-02
6.455372e-02		-3.052531e-03		3.482424e-02
6.293293e-02		-4.620182e-03		3.465252e-02
6.039692e-02		-6.176641e-03		3.419119e-02
5.906369e-02		3.107510e-03		1.686724e-02
6.318900e-02		1.546153e-03		1.720004e-02
6.429577e-02		5.804093e-16		1.720752e-02
6.318900e-02		-1.546153e-03		1.720004e-02
5.906369e-02		-3.107510e-03		1.686724e-02
5.860765e-02		5.542803e-16		8.066413e-16
6.116581e-02		5.201626e-16		7.160408e-16
6.274288e-02		4.868390e-16		6.514647e-16
6.358075e-02		4.538927e-16		5.850225e-16
6.383189e-02		4.133283e-16		5.365458e-16
6.358075e-02		3.762969e-16		4.547544e-16
6.274288e-02		3.466359e-16		3.616777e-16
6.116581e-02		3.165404e-16		2.861609e-16
5.860765e-02		2.840740e-16		1.915839e-16
5.906369e-02		-3.107510e-03		-1.686724e-02
6.318900e-02		-1.546153e-03		-1.720004e-02
6.429577e-02		2.599220e-16		-1.720752e-02
6.318900e-02		1.546153e-03		-1.720004e-02
5.906369e-02		3.107510e-03		-1.686724e-02
6.039692e-02		-6.176641e-03		-3.419119e-02
6.293293e-02		-4.620182e-03		-3.465252e-02
6.455372e-02		-3.052531e-03		-3.482424e-02
6.545420e-02		-1.506222e-03		-3.484421e-02
6.573122e-02		9.153379e-17		-3.483977e-02
6.545420e-02		1.506222e-03		-3.484421e-02
6.455372e-02		3.052531e-03		-3.482424e-02
6.293293e-02		4.620182e-03		-3.465252e-02
6.039692e-02		6.176641e-03		-3.419119e-02
6.245776e-02		-9.226520e-03		-5.230982e-02
6.673378e-02		-4.511068e-03		-5.318536e-02
6.801731e-02		-3.821575e-17		-5.318244e-02
6.673378e-02		4.511068e-03		-5.318536e-02
6.245776e-02		9.226520e-03		-5.230982e-02
6.531328e-02		-1.229128e-02		-7.178798e-02
6.796952e-02		-9.066762e-03		-7.249577e-02
6.979431e-02		-5.935035e-03		-7.261116e-02
7.085957e-02		-2.924133e-03		-7.255448e-02
7.121572e-02		-1.743122e-16		-7.252270e-02
7.085957e-02		2.924133e-03		-7.255448e-02
6.979431e-02		5.935035e-03		-7.261116e-02
6.796952e-02		9.066762e-03		-7.249577e-02
6.531328e-02		1.229128e-02		-7.178798e-02
8.386945e-02		1.106697e-02		8.015807e-02
8.792978e-02		5.411616e-03		8.127185e-02
8.921792e-02		1.167244e-15		8.129506e-02
8.792978e-02		-5.411616e-03		8.127185e-02
8.386945e-02		-1.106697e-02		8.015807e-02
7.956811e-02		5.549454e-03		3.830833e-02
8.341466e-02		2.768004e-03		3.917300e-02
8.455366e-02		8.777709e-16		3.929739e-02
8.341466e-02		-2.768004e-03		3.917300e-02
7.956811e-02		-5.549454e-03		3.830833e-02
7.804975e-02		6.104970e-16		8.922047e-16
8.188167e-02		5.828486e-16		7.407988e-16
8.296612e-02		5.297107e-16		6.223088e-16
8.188167e-02		4.519890e-16		4.636182e-16
7.804975e-02		3.933701e-16		2.459141e-16
7.956811e-02		-5.549454e-03		-3.830833e-02
8.341466e-02		-2.768004e-03		-3.917300e-02
8.455366e-02		1.555760e-16		-3.929739e-02
8.341466e-02		2.768004e-03		-3.917300e-02
7.956811e-02		5.549454e-03		-3.830833e-02
8.386945e-02		-1.106697e-02		-8.015807e-02
8.792978e-02		-5.411616e-03		-8.127185e-02
8.921792e-02		-1.974390e-16		-8.129506e-02
8.792978e-02		5.411616e-03		-8.127185e-02
8.386945e-02		1.106697e-02		-8.015807e-02
1.042679e-01		9.658421e-03		8.750500e-02
1.063655e-01		7.199986e-03		8.850941e-02
1.078208e-01		4.748416e-03		8.880675e-02
1.086745e-01		2.363904e-03		8.891085e-02
1.089550e-01		1.365469e-15		8.889667e-02
1.086745e-01		-2.363904e-03		8.891085e-02
1.078208e-01		-4.748416e-03		8.880675e-02
1.063655e-01		-7.199986e-03		8.850941e-02
1.042679e-01		-9.658421e-03		8.750500e-02
1.021158e-01		7.250596e-03		6.393586e-02
1.055845e-01		3.597015e-03		6.532488e-02
1.066664e-01		1.224582e-15		6.552616e-02
1.055845e-01		-3.597015e-03		6.532488e-02
1.021158e-01		-7.250596e-03		6.393586e-02
1.005690e-01		4.841473e-03		4.190699e-02
1.026126e-01		3.640426e-03		4.256761e-02
1.039901e-01		2.419709e-03		4.291718e-02
1.047779e-01		1.209695e-03		4.307974e-02
1.050304e-01		1.068482e-15		4.310551e-02
1.047779e-01		-1.209695e-03		4.307974e-02
1.039901e-01		-2.419709e-03		4.291718e-02
1.026126e-01		-3.640426e-03		4.256761e-02
1.005690e-01		-4.841473e-03		4.190699e-02
9.962728e-02		2.428114e-03		2.074329e-02
1.030370e-01		1.218263e-03		2.127553e-02
1.040522e-01		8.596527e-16		2.138813e-02
1.030370e-01		-1.218263e-03		2.127553e-02
9.962728e-02		-2.428114e-03		2.074329e-02
9.929767e-02		6.662258e-16		9.497017e-16
1.013483e-01		6.777261e-16		8.840870e-16
1.027076e-01		6.701428e-16		8.483965e-16
1.034735e-01		6.512349e-16		7.843668e-16
1.037153e-01		6.368784e-16		7.377015e-16
1.034735e-01		6.103490e-16		6.431574e-16
1.027076e-01		5.724954e-16		5.688173e-16
1.013483e-01		5.543956e-16		4.385070e-16
9.929767e-02		5.365426e-16		3.025954e-16
9.962728e-02		-2.428114e-03		-2.074329e-02
1.030370e-01		-1.218263e-03		-2.127553e-02
1.040522e-01		4.188881e-16		-2.138813e-02
1.030370e-01		1.218263e-03		-2.127553e-02
9.962728e-02		2.428114e-03		-2.074329e-02
1.005690e-01		-4.841473e-03		-4.190699e-02
1.026126e-01		-3.640426e-03		-4.256761e-02
1.039901e-01		-2.419709e-03		-4.291718e-02
1.047779e-01		-1.209695e-03		-4.307974e-02
1.050304e-01		2.167251e-16		-4.310551e-02
1.047779e-01		1.209695e-03		-4.307974e-02
1.039901e-01		2.419709e-03		-4.291718e-02
1.026126e-01		3.640426e-03		-4.256761e-02
1.005690e-01		4.841473e-03		-4.190699e-02
1.021158e-01		-7.250596e-03		-6.393586e-02
1.055845e-01		-3.597015e-03		-6.532488e-02
1.066664e-01		-3.692787e-18		-6.552616e-02
1.055845e-01		3.597015e-03		-6.532488e-02
1.021158e-01		7.250596e-03		-6.393586e-02
1.042679e-01		-9.658421e-03		-8.750500e-02
1.063655e-01		-7.199986e-03		-8.850941e-02
1.078208e-01		-4.748416e-03		-8.880675e-02
1.086745e-01		-2.363904e-03		-8.891085e-02
1.089550e-01		-2.371331e-16		-8.889667e-02
1.086745e-01		2.363904e-03		-8.891085e-02
1.078208e-01		4.748416e-03		-8.880675e-02
1.063655e-01		7.199986e-03		-8.850941e-02
1.042679e-01		9.658421e-03		-8.750500e-02
1.262257e-01		8.147375e-03		9.374964e-02
1.292293e-01		4.022931e-03		9.518244e-02
1.301962e-01		1.621647e-15		9.531835e-02
1.292293e-01		-4.022931e-03		9.518244e-02
1.262257e-01		-8.147375e-03		9.374964e-02
1.231284e-01		4.083874e-03		4.498743e-02
1.260568e-01		2.042960e-03		4.609568e-02
1.269678e-01		1.244650e-15		4.633128e-02
1.260568e-01		-2.042960e-03		4.609568e-02
1.231284e-01		-4.083874e-03		4.498743e-02
1.220857e-01		7.436536e-16		9.866415e-16
1.250086e-01		7.335501e-16		9.609350e-16
1.259025e-01		7.468670e-16		8.424750e-16
1.250086e-01		7.091339e-16		6.506680e-16
1.220857e-01		6.789743e-16		4.043950e-16
1.231284e-01		-4.083874e-03		-4.498743e-02
1.260568e-01		-2.042960e-03		-4.609568e-02
1.269678e-01		2.587925e-16		-4.633128e-02
1.260568e-01		2.042960e-03		-4.609568e-02
1.231284e-01		4.083874e-03		-4.498743e-02
1.262257e-01		-8.147375e-03		-9.374964e-02
1.292293e-01		-4.022931e-03		-9.518244e-02
1.301962e-01		-2.312855e-16		-9.531835e-02
1.292293e-01		4.022931e-03		-9.518244e-02
1.262257e-01		8.147375e-03		-9.374964e-02
1.494643e-01		6.566448e-03		9.890262e-02
1.508884e-01		4.905532e-03		1.000298e-01
1.518885e-01		3.250815e-03		1.004092e-01
1.524784e-01		1.619935e-03		1.005592e-01
1.526736e-01		1.852322e-15		1.005697e-01
1.524784e-01		-1.619935e-03		1.005592e-01
1.518885e-01		-3.250815e-03		1.004092e-01
1.508884e-01		-4.905532e-03		1.000298e-01
1.494643e-01		-6.566448e-03		9.890262e-02
1.480129e-01		4.931035e-03		7.241121e-02
1.504095e-01		2.455423e-03		7.400837e-02
1.511751e-01		1.629713e-15		7.429462e-02
1.504095e-01		-2.455423e-03		7.400837e-02
1.480129e-01		-4.931035e-03		7.241121e-02
1.469785e-01		3.293252e-03		4.752716e-02
1.483881e-01		2.472990e-03		4.826876e-02
1.493604e-01		1.647045e-03		4.869261e-02
1.499282e-01		8.228503e-04		4.890356e-02
1.501121e-01		1.407237e-15		4.895275e-02
1.499282e-01		-8.228503e-04		4.890356e-02
1.493604e-01		-1.647045e-03		4.869261e-02
1.483881e-01		-2.472990e-03		4.826876e-02
1.469785e-01		-3.293252e-03		4.752716e-02
1.463550e-01		1.649535e-03		2.354048e-02
1.487342e-01		8.272486e-04		2.415515e-02
1.494778e-01		1.128823e-15		2.430770e-02
1.487342e-01		-8.272486e-04		2.415515e-02
1.463550e-01		-1.649535e-03		2.354048e-02
1.461473e-01		7.871486e-16		1.052741e-15
1.475611e-01		7.602048e-16		1.039200e-15
1.485279e-01		7.786467e-16		1.025539e-15
1.490886e-01		8.156190e-16		9.409602e-16
1.492696e-01		8.263138e-16		8.729499e-16
1.490886e-01		8.392980e-16		8.342332e-16
1.485279e-01		8.391547e-16		7.866982e-16
1.475611e-01		8.313861e-16		6.040513e-16
1.461473e-01		7.966202e-16		4.527631e-16
1.463550e-01		-1.649535e-03		-2.354048e-02
1.487342e-01		-8.272486e-04		-2.415515e-02
1.494778e-01		5.688034e-16		-2.430770e-02
1.487342e-01		8.272486e-04		-2.415515e-02
1.463550e-01		1.649535e-03		-2.354048e-02
1.469785e-01		-3.293252e-03		-4.752716e-02
1.483881e-01		-2.472990e-03		-4.826876e-02
1.493604e-01		-1.647045e-03		-4.869261e-02
1.499282e-01		-8.228503e-04		-4.890356e-02
1.501121e-01		2.962982e-16		-4.895275e-02
1.499282e-01		8.228503e-04		-4.890356e-02
1.493604e-01		1.647045e-03		-4.869261e-02
1.483881e-01		2.472990e-03		-4.826876e-02
1.469785e-01		3.293252e-03		-4.752716e-02
1.480129e-01		-4.931035e-03		-7.241121e-02
1.504095e-01		-2.455423e-03		-7.400837e-02
1.511751e-01		7.264109e-17		-7.429462e-02
1.504095e-01		2.455423e-03		-7.400837e-02
1.480129e-01		4.931035e-03		-7.241121e-02
1.494643e-01		-6.566448e-03		-9.890262e-02
1.508884e-01		-4.905532e-03		-1.000298e-01
1.518885e-01		-3.250815e-03		-1.004092e-01
1.524784e-01		-1.619935e-03		-1.005592e-01
1.526736e-01		-2.445540e-16		-1.005697e-01
1.524784e-01		1.619935e-03		-1.005592e-01
1.518885e-01		3.250815e-03		-1.004092e-01
1.508884e-01		4.905532e-03		-1.000298e-01
1.494643e-01		6.566448e-03		-9.890262e-02
1.737157e-01		4.946280e-03		1.029125e-01
1.755460e-01		2.453835e-03		1.044600e-01
1.761421e-01		2.106975e-15		1.046340e-01
1.755460e-01		-2.453835e-03		1.044600e-01
1.737157e-01		-4.946280e-03		1.029125e-01
1.718463e-01		2.480779e-03		4.951639e-02
1.736540e-01		1.240705e-03		5.071541e-02
1.742313e-01		1.532008e-15		5.099054e-02
1.736540e-01		-1.240705e-03		5.071541e-02
1.718463e-01		-2.480779e-03		4.951639e-02
1.712224e-01		7.654821e-16		1.078476e-15
1.730307e-01		8.169607e-16		1.047688e-15
1.736027e-01		9.226872e-16		9.233429e-16
1.730307e-01		9.834926e-16		8.617301e-16
1.712224e-01		9.605089e-16		5.282283e-16
1.718463e-01		-2.480779e-03		-4.951639e-02
1.736540e-01		-1.240705e-03		-5.071541e-02
1.742313e-01		3.414342e-16		-5.099054e-02
1.736540e-01		1.240705e-03		-5.071541e-02
1.718463e-01		2.480779e-03		-4.951639e-02
1.737157e-01		-4.946280e-03		-1.029125e-01
1.755460e-01		-2.453835e-03		-1.044600e-01
1.761421e-01		-2.544180e-16		-1.046340e-01
1.755460e-01		2.453835e-03		-1.044600e-01
1.737157e-01		4.946280e-03		-1.029125e-01
1.987253e-01		3.305732e-03		1.057942e-01
1.994428e-01		2.473016e-03		1.069578e-01
1.999495e-01		1.641828e-03		1.073622e-01
2.002501e-01		8.189362e-04		1.075283e-01
2.003494e-01		2.335146e-15		1.075418e-01
2.002501e-01		-8.189362e-04		1.075283e-01
1.999495e-01		-1.641828e-03		1.073622e-01
1.994428e-01		-2.473016e-03		1.069578e-01
1.987253e-01		-3.305732e-03		1.057942e-01
1.979970e-01		2.482943e-03		7.755338e-02
1.992135e-01		1.237861e-03		7.921726e-02
1.996074e-01		1.987931e-15		7.952985e-02
1.992135e-01		-1.237861e-03		7.921726e-02
1.979970e-01		-2.482943e-03		7.755338e-02
1.974768e-01		1.658270e-03		5.094211e-02
1.981909e-01		1.244680e-03		5.171001e-02
1.986897e-01		8.291942e-04		5.215849e-02
1.989832e-01		4.143978e-04		5.238659e-02
1.990793e-01		1.653333e-15		5.244080e-02
1.989832e-01		-4.143978e-04		5.238659e-02
1.986897e-01		-8.291942e-04		5.215849e-02
1.981909e-01		-1.244680e-03		5.171001e-02
1.974768e-01		-1.658270e-03		5.094211e-02
1.971646e-01		8.306635e-04		2.524326e-02
1.983778e-01		4.159871e-04		2.588491e-02
1.987651e-01		1.305052e-15		2.605016e-02
1.983778e-01		-4.159871e-04		2.588491e-02
1.971646e-01		-8.306635e-04		2.524326e-02
1.970599e-01		7.455934e-16		1.047630e-15
1.977766e-01		7.564241e-16		1.094220e-15
1.982739e-01		8.328618e-16		1.044573e-15
1.985655e-01		9.184509e-16		1.016201e-15
1.986606e-01		9.761662e-16		9.686414e-16
1.985655e-01		1.023992e-15		9.361763e-16
1.982739e-01		1.088530e-15		9.058384e-16
1.977766e-01		1.137462e-15		8.269599e-16
1.970599e-01		1.143612e-15		6.647739e-16
1.971646e-01		-8.306635e-04		-2.524326e-02
1.983778e-01		-4.159871e-04		-2.588491e-02
1.987651e-01		6.826416e-16		-2.605016e-02
1.983778e-01		4.159871e-04		-2.588491e-02
1.971646e-01		8.306635e-04		-2.524326e-02
1.974768e-01		-1.658270e-03		-5.094211e-02
1.981909e-01		-1.244680e-03		-5.171001e-02
1.986897e-01		-8.291942e-04		-5.215849e-02
1.989832e-01		-4.143978e-04		-5.238659e-02
1.990793e-01		3.973482e-16		-5.244080e-02
1.989832e-01		4.143978e-04		-5.238659e-02
1.986897e-01		8.291942e-04		-5.215849e-02
1.981909e-01		1.244680e-03		-5.171001e-02
1.974768e-01		1.658270e-03		-5.094211e-02
1.979970e-01		-2.482943e-03		-7.755338e-02
1.992135e-01		-1.237861e-03		-7.921726e-02
1.996074e-01		6.946427e-17		-7.952985e-02
1.992135e-01		1.237861e-03		-7.921726e-02
1.979970e-01		2.482943e-03		-7.755338e-02
1.987253e-01		-3.305732e-03		-1.057942e-01
1.994428e-01		-2.473016e-03		-1.069578e-01
1.999495e-01		-1.641828e-03		-1.073622e-01
2.002501e-01		-8.189362e-04		-1.075283e-01
2.003494e-01		-2.808418e-16		-1.075418e-01
2.002501e-01		8.189362e-04		-1.075283e-01
1.999495e-01		1.641828e-03		-1.073622e-01
1.994428e-01		2.473016e-03		-1.069578e-01
1.987253e-01		3.305732e-03		-1.057942e-01
2.242371e-01		1.655190e-03		1.075139e-01
2.248508e-01		8.225946e-04		1.090930e-01
2.250518e-01		2.561126e-15		1.092761e-01
2.248508e-01		-8.225946e-04		1.090930e-01
2.242371e-01		-1.655190e-03		1.075139e-01
2.236121e-01		8.302229e-04		5.180150e-02
2.242212e-01		4.150904e-04		5.302709e-02
2.244177e-01		1.739874e-15		5.331382e-02
2.242212e-01		-4.150904e-04		5.302709e-02
2.236121e-01		-8.302229e-04		5.180150e-02
2.234033e-01		6.787663e-16		9.770297e-16
2.240130e-01		8.355393e-16		1.087769e-15
2.242085e-01		1.033242e-15		1.104942e-15
2.240130e-01		1.172928e-15		9.148414e-16
2.234033e-01		1.246973e-15		8.695687e-16
2.236121e-01		-8.302229e-04		-5.180150e-02
2.242212e-01		-4.150904e-04		-5.302709e-02
2.244177e-01		3.611283e-16		-5.331382e-02
2.242212e-01		4.150904e-04		-5.302709e-02
2.236121e-01		8.302229e-04		-5.180150e-02
2.242371e-01		-1.655190e-03		-1.075139e-01
2.248508e-01		-8.225946e-04		-1.090930e-01
2.250518e-01		-3.446686e-16		-1.092761e-01
2.248508e-01		8.225946e-04		-1.090930e-01
2.242371e-01		1.655190e-03		-1.075139e-01
2.500000e-01		2.433611e-15		1.080963e-01
2.500000e-01		2.580039e-15		1.092681e-01
2.500000e-01		2.664151e-15		1.096782e-01
2.500000e-01		2.728721e-15		1.098470e-01
2.500000e-01		2.650567e-15		1.098617e-01
2.500000e-01		2.721955e-15		1.098470e-01
2.500000e-01		2.939188e-15		1.096782e-01
2.500000e-01		3.229663e-15		1.092681e-01
2.500000e-01		3.395564e-15		1.080963e-01
2.500000e-01		1.796859e-15		7.927460e-02
2.500000e-01		2.028323e-15		8.095362e-02
2.500000e-01		2.175045e-15		8.127236e-02
2.500000e-01		2.438730e-15		8.095362e-02
2.500000e-01		2.728048e-15		7.927460e-02
2.500000e-01		1.185994e-15		5.208669e-02
2.500000e-01		1.360965e-15		5.286044e-02
2.500000e-01		1.563051e-15		5.331463e-02
2.500000e-01		1.665505e-15		5.354646e-02
2.500000e-01		1.775742e-15		5.360224e-02
2.500000e-01		1.954569e-15		5.354646e-02
2.500000e-01		2.038946e-15		5.331463e-02
2.500000e-01		2.079868e-15		5.286044e-02
2.500000e-01		2.236474e-15		5.208669e-02
2.500000e-01		8.773818e-16		2.581477e-02
2.500000e-01		1.077084e-15		2.646269e-02
2.500000e-01		1.397456e-15		2.663089e-02
2.500000e-01		1.635042e-15		2.646269e-02
2.500000e-01		1.711216e-15		2.581477e-02
2.500000e-01		5.642457e-16		8.982390e-16
2.500000e-01		6.472798e-16		1.017657e-15
2.500000e-01		7.783320e-16		1.065497e-15
2.500000e-01		8.778686e-16		1.086750e-15
2.500000e-01		1.060036e-15		1.150163e-15
2.500000e-01		1.195226e-15		1.075828e-15
2.500000e-01		1.206379e-15		1.028763e-15
2.500000e-01		1.253063e-15		1.003404e-15
2.500000e-01		1.277180e-15		1.027773e-15
2.500000e-01		4.066571e-16		-2.581477e-02
2.500000e-01		4.985699e-16		-2.646269e-02
2.500000e-01		6.458423e-16		-2.663089e-02
2.500000e-01		7.639627e-16		-2.646269e-02
2.500000e-01		8.150787e-16		-2.581477e-02
2.500000e-01		2.691640e-16		-5.208669e-02
2.500000e-01		2.557275e-16		-5.286044e-02
2.500000e-01		2.613033e-16		-5.331463e-02
2.500000e-01		3.393580e-16		-5.354646e-02
2.500000e-01		2.960410e-16		-5.360224e-02
2.500000e-01		3.431055e-16		-5.354646e-02
2.500000e-01		3.504341e-16		-5.331463e-02
2.500000e-01		3.794987e-16		-5.286044e-02
2.500000e-01		4.125567e-16		-5.208669e-02
2.500000e-01		1.135116e-16		-7.927460e-02
2.500000e-01		-3.124817e-17		-8.095362e-02
2.500000e-01		-3.373732e-17		-8.127236e-02
2.500000e-01		-5.943601e-17		-8.095362e-02
2.500000e-01		-2.570496e-16		-7.927460e-02
2.500000e-01		-1.593444e-16		-1.080963e-01
2.500000e-01		-2.221674e-16		-1.092681e-01
2.500000e-01		-3.417777e-16		-1.096782e-01
2.500000e-01		-4.030422e-16		-1.098470e-01
2.500000e-01		-3.821559e-16		-1.098617e-01
2.500000e-01		-4.047077e-16		-1.098470e-01
2.500000e-01		-4.122981e-16		-1.096782e-01
2.500000e-01		-5.307071e-16		-1.092681e-01
2.500000e-01		-5.938023e-16		-1.080963e-01
2.757629e-01		-1.655190e-03		1.075139e-01
2.751492e-01		-8.225946e-04		1.090930e-01
2.749482e-01		2.769762e-15		1.092761e-01
2.751492e-01		8.225946e-04		1.090930e-01
2.757629e-01		1.655190e-03		1.075139e-01
2.763879e-01		-8.302229e-04		5.180150e-02
2.757788e-01		-4.150904e-04		5.302709e-02
2.755823e-01		1.803984e-15		5.331382e-02
2.757788e-01		4.150904e-04		5.302709e-02
2.763879e-01		8.302229e-04		5.180150e-02
2.765967e-01		5.731604e-16		9.400805e-16
2.759870e-01		7.579727e-16		9.916660e-16
2.757915e-01		1.004394e-15		1.115274e-15
2.759870e-01		1.201544e-15		1.163726e-15
2.765967e-01		1.310047e-15		1.188942e-15
2.763879e-01		8.302229e-04		-5.180150e-02
2.757788e-01		4.150904e-04		-5.302709e-02
2.755823e-01		2.703863e-16		-5.331382e-02
2.757788e-01		-4.150904e-04		-5.302709e-02
2.763879e-01		-8.302229e-04		-5.180150e-02
2.757629e-01		1.655190e-03		-1.075139e-01
2.751492e-01		8.225946e-04		-1.090930e-01
2.749482e-01		-4.091542e-16		-1.092761e-01
2.751492e-01		-8.225946e-04		-1.090930e-01
2.757629e-01		-1.655190e-03		-1.075139e-01
3.012747e-01		-3.305732e-03		1.057942e-01
3.005572e-01		-2.473016e-03		1.069578e-01
3.000505e-01		-1.641828e-03		1.073622e-01
2.997499e-01		-8.189362e-04		1.075283e-01
2.996506e-01		2.793187e-15		1.075418e-01
2.997499e-01		8.189362e-04		1.075283e-01
3.000505e-01		1.641828e-03		1.073622e-01
3.005572e-01		2.473016e-03		1.069578e-01
3.012747e-01		3.305732e-03		1.057942e-01
3.020030e-01		-2.482943e-03		7.755338e-02
3.007865e-01		-1.237861e-03		7.921726e-02
3.003926e-01		2.195877e-15		7.952985e-02
3.007865e-01		1.237861e-03		7.921726e-02
3.020030e-01		2.482943e-03		7.755338e-02
3.025232e-01		-1.658270e-03		5.094211e-02
3.018091e-01		-1.244680e-03		5.171001e-02
3.013103e-01		-8.291942e-04		5.215849e-02
3.010168e-01		-4.143978e-04		5.238659e-02
3.009207e-01		1.743992e-15		5.244080e-02
3.010168e-01		4.143978e-04		5.238659e-02
3.013103e-01		8.291942e-04		5.215849e-02
3.018091e-01		1.244680e-03		5.171001e-02
3.025232e-01		1.658270e-03		5.094211e-02
3.028354e-01		-8.306635e-04		2.524326e-02
3.016222e-01		-4.159871e-04		2.588491e-02
3.012349e-01		1.318722e-15		2.605016e-02
3.016222e-01		4.159871e-04		2.588491e-02
3.028354e-01		8.306635e-04		2.524326e-02
3.029401e-01		5.897087e-16		9.640635e-16
3.022234e-01		6.291843e-16		9.289978e-16
3.017261e-01		7.437067e-16		9.465144e-16
3.014345e-01		8.166268e-16		9.862873e-16
3.013394e-01		9.164677e-16		1.086506e-15
3.014345e-01		1.046242e-15		1.245557e-15
3.017261e-01		1.144495e-15		1.314900e-15
3.022234e-01		1.255471e-15		1.368870e-15
3.029401e-01		1.350579e-15		1.390908e-15
3.028354e-01		8.306635e-04		-2.524326e-02
3.016222e-01		4.159871e-04		-2.588491e-02
3.012349e-01		5.760535e-16		-2.605016e-02
3.016222e-01		-4.159871e-04		-2.588491e-02
3.028354e-01		-8.306635e-04		-2.524326e-02
3.025232e-01		1.658270e-03		-5.094211e-02
3.018091e-01		1.244680e-03		-5.171001e-02
3.013103e-01		8.291942e-04		-5.215849e-02
3.010168e-01		4.143978e-04		-5.238659e-02
3.009207e-01		2.141647e-16		-5.244080e-02
3.010168e-01		-4.143978e-04		-5.238659e-02
3.013103e-01		-8.291942e-04		-5.215849e-02
3.018091e-01		-1.244680e-03		-5.171001e-02
3.025232e-01		-1.658270e-03		-5.094211e-02
3.020030e-01		2.482943e-03		-7.755338e-02
3.007865e-01		1.237861e-03		-7.921726e-02
3.003926e-01		-1.291854e-16		-7.952985e-02
3.007865e-01		-1.237861e-03		-7.921726e-02
3.020030e-01		-2.482943e-03		-7.755338e-02
3.012747e-01		3.305732e-03		-1.057942e-01
3.005572e-01		2.473016e-03		-1.069578e-01
3.000505e-01		1.641828e-03		-1.073622e-01
2.997499e-01		8.189362e-04		-1.075283e-01
2.996506e-01		-4.439381e-16		-1.075418e-01
2.997499e-01		-8.189362e-04		-1.075283e-01
3.000505e-01		-1.641828e-03		-1.073622e-01
3.005572e-01		-2.473016e-03		-1.069578e-01
3.012747e-01		-3.305732e-03		-1.057942e-01
3.262843e-01		-4.946280e-03		1.029125e-01
3.244540e-01		-2.453835e-03		1.044600e-01
3.238579e-01		2.729471e-15		1.046340e-01
3.244540e-01		2.453835e-03		1.044600e-01
3.262843e-01		4.946280e-03		1.029125e-01
3.281537e-01		-2.480779e-03		4.951639e-02
3.263460e-01		-1.240705e-03		5.071541e-02
3.257687e-01		1.687149e-15		5.099054e-02
3.263460e-01		1.240705e-03		5.071541e-02
3.281537e-01		2.480779e-03		4.951639e-02
3.287776e-01		6.226586e-16		9.674659e-16
3.269693e-01		7.420655e-16		9.603866e-16
3.263973e-01		8.574301e-16		1.188142e-15
3.269693e-01		1.079063e-15		1.367238e-15
3.287776e-01		1.322537e-15		1.648991e-15
3.281537e-01		2.480779e-03		-4.951639e-02
3.263460e-01		1.240705e-03		-5.071541e-02
3.257687e-01		1.297865e-16		-5.099054e-02
3.263460e-01		-1.240705e-03		-5.071541e-02
3.281537e-01		-2.480779e-03		-4.951639e-02
3.262843e-01		4.946280e-03		-1.029125e-01
3.244540e-01		2.453835e-03		-1.044600e-01
3.238579e-01		-5.056952e-16		-1.046340e-01
3.244540e-01		-2.453835e-03		-1.044600e-01
3.262843e-01		-4.946280e-03		-1.029125e-01
3.505357e-01		-6.566448e-03		9.890262e-02
3.491116e-01		-4.905532e-03		1.000298e-01
3.481115e-01		-3.250815e-03		1.004092e-01
3.475216e-01		-1.619935e-03		1.005592e-01
3.473264e-01		2.533294e-15		1.005697e-01
3.475216e-01		1.619935e-03		1.005592e-01
3.481115e-01		3.250815e-03		1.004092e-01
3.491116e-01		4.905532e-03		1.000298e-01
3.505357e-01		6.566448e-03		9.890262e-02
3.519871e-01		-4.931035e-03		7.241121e-02
3.495905e-01		-2.455423e-03		7.400837e-02
3.488249e-01		1.977887e-15		7.429462e-02
3.495905e-01		2.455423e-03		7.400837e-02
3.519871e-01		4.931035e-03		7.241121e-02
3.530215e-01		-3.293252e-03		4.752716e-02
3.516119e-01		-2.472990e-03		4.826876e-02
3.506396e-01		-1.647045e-03		4.869261e-02
3.500718e-01		-8.228503e-04		4.890356e-02
3.498879e-01		1.583137e-15		4.895275e-02
3.500718e-01		8.228503e-04		4.890356e-02
3.506396e-01		1.647045e-03		4.869261e-02
3.516119e-01		2.472990e-03		4.826876e-02
3.530215e-01		3.293252e-03		4.752716e-02
3.536450e-01		-1.649535e-03		2.354048e-02
3.512658e-01		-8.272486e-04		2.415515e-02
3.505222e-01		1.127965e-15		2.430770e-02
3.512658e-01		8.272486e-04		2.415515e-02
3.536450e-01		1.649535e-03		2.354048e-02
3.538527e-01		7.013016e-16		9.780259e-16
3.524389e-01		6.748359e-16		1.011147e-15
3.514721e-01		6.638217e-16		1.045277e-15
3.509114e-01		7.185828e-16		1.190390e-15
3.507304e-01		8.067438e-16		1.244790e-15
3.509114e-01		9.013353e-16		1.394248e-15
3.514721e-01		1.002735e-15		1.480279e-15
3.524389e-01		1.061663e-15		1.605728e-15
3.538527e-01		1.148287e-15		1.787556e-15
3.536450e-01		1.649535e-03		-2.354048e-02
3.512658e-01		8.272486e-04		-2.415515e-02
3.505222e-01		4.625568e-16		-2.430770e-02
3.512658e-01		-8.272486e-04		-2.415515e-02
3.536450e-01		-1.649535e-03		-2.354048e-02
3.530215e-01		3.293252e-03		-4.752716e-02
3.516119e-01		2.472990e-03		-4.826876e-02
3.506396e-01		1.647045e-03		-4.869261e-02
3.500718e-01		8.228503e-04		-4.890356e-02
3.498879e-01		1.010419e-16		-4.895275e-02
3.500718e-01		-8.228503e-04		-4.890356e-02
3.506396e-01		-1.647045e-03		-4.869261e-02
3.516119e-01		-2.472990e-03		-4.826876e-02
3.530215e-01		-3.293252e-03		-4.752716e-02
3.519871e-01		4.931035e-03		-7.241121e-02
3.495905e-01		2.455423e-03		-7.400837e-02
3.488249e-01		-2.405972e-16		-7.429462e-02
3.495905e-01		-2.455423e-03		-7.400837e-02
3.519871e-01		-4.931035e-03		-7.241121e-02
3.505357e-01		6.566448e-03		-9.890262e-02
3.491116e-01		4.905532e-03		-1.000298e-01
3.481115e-01		3.250815e-03		-1.004092e-01
3.475216e-01		1.619935e-03		-1.005592e-01
3.473264e-01		-5.731056e-16		-1.005697e-01
3.475216e-01		-1.619935e-03		-1.005592e-01
3.481115e-01		-3.250815e-03		-1.004092e-01
3.491116e-01		-4.905532e-03		-1.000298e-01
3.505357e-01		-6.566448e-03		-9.890262e-02
3.737743e-01		-8.147375e-03		9.374964e-02
3.707707e-01		-4.022931e-03		9.518244e-02
3.698038e-01		2.273985e-15		9.531835e-02
3.707707e-01		4.022931e-03		9.518244e-02
3.737743e-01		8.147375e-03		9.374964e-02
3.768716e-01		-4.083874e-03		4.498743e-02
3.739432e-01		-2.042960e-03		4.609568e-02
3.730322e-01		1.414777e-15		4.633128e-02
3.739432e-01		2.042960e-03		4.609568e-02
3.768716e-01		4.083874e-03		4.498743e-02
3.779143e-01		6.018617e-16		1.040142e-15
3.749914e-01		6.308284e-16		1.086494e-15
3.740975e-01		6.757349e-16		1.284373e-15
3.749914e-01		9.007051e-16		1.541441e-15
3.779143e-01		9.799812e-16		1.837802e-15
3.768716e-01		4.083874e-03		-4.498743e-02
3.739432e-01		2.042960e-03		-4.609568e-02
3.730322e-01		3.185194e-17		-4.633128e-02
3.739432e-01		-2.042960e-03		-4.609568e-02
3.768716e-01		-4.083874e-03		-4.498743e-02
3.737743e-01		8.147375e-03		-9.374964e-02
3.707707e-01		4.022931e-03		-9.518244e-02
3.698038e-01		-5.771705e-16		-9.531835e-02
3.707707e-01		-4.022931e-03		-9.518244e-02
3.737743e-01		-8.147375e-03		-9.374964e-02
3.957321e-01		-9.658421e-03		8.750500e-02
3.936345e-01		-7.199986e-03		8.850941e-02
3.921792e-01		-4.748416e-03		8.880675e-02
3.913255e-01		-2.363904e-03		8.891085e-02
3.910450e-01		1.920713e-15		8.889667e-02
3.913255e-01		2.363904e-03		8.891085e-02
3.921792e-01		4.748416e-03		8.880675e-02
3.936345e-01		7.199986e-03		8.850941e-02
3.957321e-01		9.658421e-03		8.750500e-02
3.978842e-01		-7.250596e-03		6.393586e-02
3.944155e-01		-3.597015e-03		6.532488e-02
3.933336e-01		1.539402e-15		6.552616e-02
3.944155e-01		3.597015e-03		6.532488e-02
3.978842e-01		7.250596e-03		6.393586e-02
3.994310e-01		-4.841473e-03		4.190699e-02
3.973874e-01		-3.640426e-03		4.256761e-02
3.960099e-01		-2.419709e-03		4.291718e-02
3.952221e-01		-1.209695e-03		4.307974e-02
3.949696e-01		1.143049e-15		4.310551e-02
3.952221e-01		1.209695e-03		4.307974e-02
3.960099e-01		2.419709e-03		4.291718e-02
3.973874e-01		3.640426e-03		4.256761e-02
3.994310e-01		4.841473e-03		4.190699e-02
4.003727e-01		-2.428114e-03		2.074329e-02
3.969630e-01		-1.218263e-03		2.127553e-02
3.959478e-01		8.908022e-16		2.138813e-02
3.969630e-01		1.218263e-03		2.127553e-02
4.003727e-01		2.428114e-03		2.074329e-02
4.007023e-01		5.194894e-16		9.380622e-16
3.986517e-01		5.200994e-16		9.693764e-16
3.972924e-01		5.336839e-16		1.123533e-15
3.965265e-01		5.086864e-16		1.176375e-15
3.962847e-01		5.514194e-16		1.285628e-15
3.965265e-01		7.219077e-16		1.407407e-15
3.972924e-01		7.547131e-16		1.526279e-15
3.986517e-01		7.533007e-16		1.677718e-15
4.007023e-01		7.982193e-16		1.767627e-15
4.003727e-01		2.428114e-03		-2.074329e-02
3.969630e-01		1.218263e-03		-2.127553e-02
3.959478e-01		2.664582e-16		-2.138813e-02
3.969630e-01		-1.218263e-03		-2.127553e-02
4.003727e-01		-2.428114e-03		-2.074329e-02
3.994310e-01		4.841473e-03		-4.190699e-02
3.973874e-01		3.640426e-03		-4.256761e-02
3.960099e-01		2.419709e-03		-4.291718e-02
3.952221e-01		1.209695e-03		-4.307974e-02
3.949696e-01		-5.425324e-17		-4.310551e-02
3.952221e-01		-1.209695e-03		-4.307974e-02
3.960099e-01		-2.419709e-03		-4.291718e-02
3.973874e-01		-3.640426e-03		-4.256761e-02
3.994310e-01		-4.841473e-03		-4.190699e-02
3.978842e-01		7.250596e-03		-6.393586e-02
3.944155e-01		3.597015e-03		-6.532488e-02
3.933336e-01		-3.165821e-16		-6.552616e-02
3.944155e-01		-3.597015e-03		-6.532488e-02
3.978842e-01		-7.250596e-03		-6.393586e-02
3.957321e-01		9.658421e-03		-8.750500e-02
3.936345e-01		7.199986e-03		-8.850941e-02
3.921792e-01		4.748416e-03		-8.880675e-02
3.913255e-01		2.363904e-03		-8.891085e-02
3.910450e-01		-5.611571e-16		-8.889667e-02
3.913255e-01		-2.363904e-03		-8.891085e-02
3.921792e-01		-4.748416e-03		-8.880675e-02
3.936345e-01		-7.199986e-03		-8.850941e-02
3.957321e-01		-9.658421e-03		-8.750500e-02
4.161305e-01		-1.106697e-02		8.015807e-02
4.120702e-01		-5.411616e-03		8.127185e-02
4.107821e-01		1.738024e-15		8.129506e-02
4.120702e-01		5.411616e-03		8.127185e-02
4.161305e-01		1.106697e-02		8.015807e-02
4.204319e-01		-5.549454e-03		3.830833e-02
4.165853e-01		-2.768004e-03		3.917300e-02
4.154463e-01		1.093934e-15		3.929739e-02
4.165853e-01		2.768004e-03		3.917300e-02
4.204319e-01		5.549454e-03		3.830833e-02
4.219502e-01		4.697531e-16		8.020177e-16
4.181183e-01		4.544378e-16		9.483352e-16
4.170339e-01		4.900273e-16		1.180222e-15
4.181183e-01		6.208309e-16		1.449890e-15
4.219502e-01		6.574354e-16		1.691851e-15
4.204319e-01		5.549454e-03		-3.830833e-02
4.165853e-01		2.768004e-03		-3.917300e-02
4.154463e-01		-6.260659e-17		-3.929739e-02
4.165853e-01		-2.768004e-03		-3.917300e-02
4.204319e-01		-5.549454e-03		-3.830833e-02
4.161305e-01		1.106697e-02		-8.015807e-02
4.120702e-01		5.411616e-03		-8.127185e-02
4.107821e-01		-4.712519e-16		-8.129506e-02
4.120702e-01		-5.411616e-03		-8.127185e-02
4.161305e-01		-1.106697e-02		-8.015807e-02
4.346867e-01		-1.229128e-02		7.178798e-02
4.320305e-01		-9.066762e-03		7.249577e-02
4.302057e-01		-5.935035e-03		7.261116e-02
4.291404e-01		-2.924133e-03		7.255448e-02
4.287843e-01		1.516429e-15		7.252270e-02
4.291404e-01		2.924133e-03		7.255448e-02
4.302057e-01		5.935035e-03		7.261116e-02
4.320305e-01		9.066762e-03		7.249577e-02
4.346867e-01		1.229128e-02		7.178798e-02
4.375422e-01		-9.226520e-03		5.230982e-02
4.332662e-01		-4.511068e-03		5.318536e-02
4.319827e-01		1.267495e-15		5.318244e-02
4.332662e-01		4.511068e-03		5.318536e-02
4.375422e-01		9.226520e-03		5.230982e-02
4.396031e-01		-6.176641e-03		3.419119e-02
4.370671e-01		-4.620182e-03		3.465252e-02
4.354463e-01		-3.052531e-03		3.482424e-02
4.345458e-01		-1.506222e-03		3.484421e-02
4.342688e-01		1.005321e-15		3.483977e-02
4.345458e-01		1.506222e-03		3.484421e-02
4.354463e-01		3.052531e-03		3.482424e-02
4.370671e-01		4.620182e-03		3.465252e-02
4.396031e-01		6.176641e-03		3.419119e-02
4.409363e-01		-3.107510e-03		1.686724e-02
4.368110e-01		-1.546153e-03		1.720004e-02
4.357042e-01		6.567411e-16		1.720752e-02
4.368110e-01		1.546153e-03		1.720004e-02
4.409363e-01		3.107510e-03		1.686724e-02
4.413923e-01		4.227183e-16		5.788518e-16
4.388342e-01		3.907470e-16		6.504308e-16
4.372571e-01		4.160835e-16		7.191912e-16
4.364193e-01		3.522680e-16		8.988884e-16
4.361681e-01		3.575958e-16		1.082879e-15
4.364193e-01		4.538311e-16		1.176581e-15
4.372571e-01		4.869472e-16		1.308112e-15
4.388342e-01		4.701686e-16		1.362882e-15
4.413923e-01		4.949986e-16		1.564029e-15
4.409363e-01		3.107510e-03		-1.686724e-02
4.368110e-01		1.546153e-03		-1.720004e-02
4.357042e-01		1.465542e-16		-1.720752e-02
4.368110e-01		-1.546153e-03		-1.720004e-02
4.409363e-01		-3.107510e-03		-1.686724e-02
4.396031e-01		6.176641e-03		-3.419119e-02
4.370671e-01		4.620182e-03		-3.465252e-02
4.354463e-01		3.052531e-03		-3.482424e-02
4.345458e-01		1.506222e-03		-3.484421e-02
4.342688e-01		-1.476485e-16		-3.483977e-02
4.345458e-01		-1.506222e-03		-3.484421e-02
4.354463e-01		-3.052531e-03		-3.482424e-02
4.370671e-01		-4.620182e-03		-3.465252e-02
4.396031e-01		-6.176641e-03		-3.419119e-02
4.375422e-01		9.226520e-03		-5.230982e-02
4.332662e-01		4.511068e-03		-5.318536e-02
4.319827e-01		-2.799075e-16		-5.318244e-02
4.332662e-01		-4.511068e-03		-5.318536e-02
4.375422e-01		-9.226520e-03		-5.230982e-02
4.346867e-01		1.229128e-02		-7.178798e-02
4.320305e-01		9.066762e-03		-7.249577e-02
4.302057e-01		5.935035e-03		-7.261116e-02
4.291404e-01		2.924133e-03		-7.255448e-02
4.287843e-01		-3.243474e-16		-7.252270e-02
4.291404e-01		-2.924133e-03		-7.255448e-02
4.302057e-01		-5.935035e-03		-7.261116e-02
4.320305e-01		-9.066762e-03		-7.249577e-02
4.346867e-01		-1.229128e-02		-7.178798e-02
4.512013e-01		-1.316013e-02		6.250830e-02
4.464187e-01		-6.218987e-03		6.282701e-02
4.449133e-01		1.291499e-15		6.261440e-02
4.464187e-01		6.218987e-03		6.282701e-02
4.512013e-01		1.316013e-02		6.250830e-02
4.566848e-01		-6.647615e-03		2.952454e-02
4.523763e-01		-3.218800e-03		2.979702e-02
4.512250e-01		8.443987e-16		2.967856e-02
4.523763e-01		3.218800e-03		2.979702e-02
4.566848e-01		6.647615e-03		2.952454e-02
4.587696e-01		2.725091e-16		4.390078e-16
4.544828e-01		2.765531e-16		6.162344e-16
4.534486e-01		2.784137e-16		1.055276e-15
4.544828e-01		3.752150e-16		1.098562e-15
4.587696e-01		4.339635e-16		1.311548e-15
4.566848e-01		6.647615e-03		-2.952454e-02
4.523763e-01		3.218800e-03		-2.979702e-02
4.512250e-01		-1.651538e-16		-2.967856e-02
4.523763e-01		-3.218800e-03		-2.979702e-02
4.566848e-01		-6.647615e-03		-2.952454e-02
4.512013e-01		1.316013e-02		-6.250830e-02
4.464187e-01		6.218987e-03		-6.282701e-02
4.449133e-01		-4.219281e-16		-6.261440e-02
4.464187e-01		-6.218987e-03		-6.282701e-02
4.512013e-01		-1.316013e-02		-6.250830e-02
4.654304e-01		-1.356567e-02		5.249696e-02
4.624872e-01		-9.888116e-03		5.244180e-02
4.604793e-01		-6.093691e-03		5.202683e-02
4.593321e-01		-2.947387e-03		5.190226e-02
4.589735e-01		1.018434e-15		5.182539e-02
4.593321e-01		2.947387e-03		5.190226e-02
4.604793e-01		6.093691e-03		5.202683e-02
4.624872e-01		9.888116e-03		5.244180e-02
4.654304e-01		1.356567e-02		5.249696e-02
4.687053e-01		-1.026418e-02		3.792485e-02
4.642306e-01		-4.625748e-03		3.756391e-02
4.629595e-01		8.259789e-16		3.731745e-02
4.642306e-01		4.625748e-03		3.756391e-02
4.687053e-01		1.026418e-02		3.792485e-02
4.714231e-01		-6.957186e-03		2.433786e-02
4.687931e-01		-5.133796e-03		2.436265e-02
4.672271e-01		-3.163262e-03		2.403130e-02
4.664211e-01		-1.520458e-03		2.388826e-02
4.661801e-01		7.006806e-16		2.382501e-02
4.664211e-01		1.520458e-03		2.388826e-02
4.672271e-01		3.163262e-03		2.403130e-02
4.687931e-01		5.133796e-03		2.436265e-02
4.714231e-01		6.957186e-03		2.433786e-02
4.730813e-01		-3.561912e-03		1.195000e-02
4.689004e-01		-1.616640e-03		1.178547e-02
4.679790e-01		4.762635e-16		1.166162e-02
4.689004e-01		1.616640e-03		1.178547e-02
4.730813e-01		3.561912e-03		1.195000e-02
4.736698e-01		9.514745e-17		3.452528e-16
4.709074e-01		1.514790e-16		3.984310e-16
4.694479e-01		1.825901e-16		5.153486e-16
4.687466e-01		2.335557e-16		6.513781e-16
4.685391e-01		2.554016e-16		8.176965e-16
4.687466e-01		2.188363e-16		8.092233e-16
4.694479e-01		3.046803e-16		8.937340e-16
4.709074e-01		4.042640e-16		1.008646e-15
4.736698e-01		4.575226e-16		1.014699e-15
4.730813e-01		3.561912e-03		-1.195000e-02
4.689004e-01		1.616640e-03		-1.178547e-02
4.679790e-01		-4.971704e-17		-1.166162e-02
4.689004e-01		-1.616640e-03		-1.178547e-02
4.730813e-01		-3.561912e-03		-1.195000e-02
4.714231e-01		6.957186e-03		-2.433786e-02
4.687931e-01		5.133796e-03		-2.436265e-02
4.672271e-01		3.163262e-03		-2.403130e-02
4.664211e-01		1.520458e-03		-2.388826e-02
4.661801e-01		-1.995286e-16		-2.382501e-02
4.664211e-01		-1.520458e-03		-2.388826e-02
4.672271e-01		-3.163262e-03		-2.403130e-02
4.687931e-01		-5.133796e-03		-2.436265e-02
4.714231e-01		-6.957186e-03		-2.433786e-02
4.687053e-01		1.026418e-02		-3.792485e-02
4.642306e-01		4.625748e-03		-3.756391e-02
4.629595e-01		-2.450709e-16		-3.731745e-02
4.642306e-01		-4.625748e-03		-3.756391e-02
4.687053e-01		-1.026418e-02		-3.792485e-02
4.654304e-01		1.356567e-02		-5.249696e-02
4.624872e-01		9.888116e-03		-5.244180e-02
4.604793e-01		6.093691e-03		-5.202683e-02
4.593321e-01		2.947387e-03		-5.190226e-02
4.589735e-01		-3.902398e-16		-5.182539e-02
4.593321e-01		-2.947387e-03		-5.190226e-02
4.604793e-01		-6.093691e-03		-5.202683e-02
4.624872e-01		-9.888116e-03		-5.244180e-02
4.654304e-01		-1.356567e-02		-5.249696e-02
4.769890e-01		-1.340673e-02		4.214988e-02
4.720831e-01		-5.564202e-03		4.074766e-02
4.707122e-01		8.839426e-16		4.054067e-02
4.720831e-01		5.564202e-03		4.074766e-02
4.769890e-01		1.340673e-02		4.214988e-02
4.834533e-01		-7.058226e-03		1.907918e-02
4.796624e-01		-2.901301e-03		1.794947e-02
4.787744e-01		5.277453e-16		1.760972e-02
4.796624e-01		2.901301e-03		1.794947e-02
4.834533e-01		7.058226e-03		1.907918e-02
4.857163e-01		1.080251e-17		1.756141e-16
4.818693e-01		8.895100e-17		4.004125e-16
4.811303e-01		1.210441e-16		6.151123e-16
4.818693e-01		2.593830e-16		6.383128e-16
4.857163e-01		5.384411e-16		8.366021e-16
4.834533e-01		7.058226e-03		-1.907918e-02
4.796624e-01		2.901301e-03		-1.794947e-02
4.787744e-01		-1.539548e-16		-1.760972e-02
4.796624e-01		-2.901301e-03		-1.794947e-02
4.834533e-01		-7.058226e-03		-1.907918e-02
4.769890e-01		1.340673e-02		-4.214988e-02
4.720831e-01		5.564202e-03		-4.074766e-02
4.707122e-01		-4.291381e-16		-4.054067e-02
4.720831e-01		-5.564202e-03		-4.074766e-02
4.769890e-01		-1.340673e-02		-4.214988e-02
4.861900e-01		-1.176176e-02		3.043504e-02
4.836188e-01		-7.306919e-03		2.843941e-02
4.820205e-01		-4.432541e-03		2.846257e-02
4.812694e-01		-1.925000e-03		2.825904e-02
4.810365e-01		6.942619e-16		2.826950e-02
4.812694e-01		1.925000e-03		2.825904e-02
4.820205e-01		4.432541e-03		2.846257e-02
4.836188e-01		7.306919e-03		2.843941e-02
4.861900e-01		1.176176e-02		3.043504e-02
4.904465e-01		-9.005271e-03		2.109239e-02
4.871264e-01		-3.342467e-03		1.856472e-02
4.863188e-01		5.432607e-16		1.811611e-02
4.871264e-01		3.342467e-03		1.856472e-02
4.904465e-01		9.005271e-03		2.109239e-02
4.925379e-01		-6.313274e-03		1.341626e-02
4.904068e-01		-3.886514e-03		1.201501e-02
4.894691e-01		-2.299480e-03		1.167507e-02
4.889335e-01		-9.737628e-04		1.137150e-02
4.887650e-01		3.672023e-16		1.131832e-02
4.889335e-01		9.737628e-04		1.137150e-02
4.894691e-01		2.299480e-03		1.167507e-02
4.904068e-01		3.886514e-03		1.201501e-02
4.925379e-01		6.313274e-03		1.341626e-02
4.940379e-01		-3.225746e-03		6.368744e-03
4.909706e-01		-1.173291e-03		5.456279e-03
4.903743e-01		1.380847e-16		5.258059e-03
4.909706e-01		1.173291e-03		5.456279e-03
4.940379e-01		3.225746e-03		6.368744e-03
4.945565e-01		3.165069e-17		4.605305e-17
4.922831e-01		8.122845e-17		1.400359e-16
4.914438e-01		6.706024e-17		1.895586e-16
4.909920e-01		4.727896e-17		2.682465e-16
4.908653e-01		4.987113e-17		4.009607e-16
4.909920e-01		3.602467e-17		4.062123e-16
4.914438e-01		1.542397e-16		4.623433e-16
4.922831e-01		2.989334e-16		5.352641e-16
4.945565e-01		5.019749e-16		7.285369e-16
4.940379e-01		3.225746e-03		-6.368744e-03
4.909706e-01		1.173291e-03		-5.456279e-03
4.903743e-01		-3.716491e-17		-5.258059e-03
4.909706e-01		-1.173291e-03		-5.456279e-03
4.940379e-01		-3.225746e-03		-6.368744e-03
4.925379e-01		6.313274e-03		-1.341626e-02
4.904068e-01		3.886514e-03		-1.201501e-02
4.894691e-01		2.299480e-03		-1.167507e-02
4.889335e-01		9.737628e-04		-1.137150e-02
4.887650e-01		-2.187932e-16		-1.131832e-02
4.889335e-01		-9.737628e-04		-1.137150e-02
4.894691e-01		-2.299480e-03		-1.167507e-02
4.904068e-01		-3.886514e-03		-1.201501e-02
4.925379e-01		-6.313274e-03		-1.341626e-02
4.904465e-01		9.005271e-03		-2.109239e-02
4.871264e-01		3.342467e-03		-1.856472e-02
4.863188e-01		-1.456555e-16		-1.811611e-02
4.871264e-01		-3.342467e-03		-1.856472e-02
4.904465e-01		-9.005271e-03		-2.109239e-02
4.861900e-01		1.176176e-02		-3.043504e-02
4.836188e-01		7.306919e-03		-2.843941e-02
4.820205e-01		4.432541e-03		-2.846257e-02
4.812694e-01		1.925000e-03		-2.825904e-02
4.810365e-01		-3.912831e-16		-2.826950e-02
4.812694e-01		-1.925000e-03		-2.825904e-02
4.820205e-01		-4.432541e-03		-2.846257e-02
4.836188e-01		-7.306919e-03		-2.843941e-02
4.861900e-01		-1.176176e-02		-3.043504e-02
4.932113e-01		-7.941817e-03		1.613756e-02
4.911370e-01		-2.119759e-03		1.403871e-02
4.906355e-01		3.909299e-16		1.453489e-02
4.911370e-01		2.119759e-03		1.403871e-02
4.932113e-01		7.941817e-03		1.613756e-02
4.986926e-01		-4.035971e-03		6.630638e-03
4.967573e-01		-1.071257e-03		4.903464e-03
4.965173e-01		1.532661e-16		4.980789e-03
4.967573e-01		1.071257e-03		4.903464e-03
4.986926e-01		4.035971e-03		6.630638e-03
4.992600e-01		-3.229022e-17		-1.919939e-17
4.973013e-01		-2.869594e-18		7.203826e-17
4.970558e-01		-5.349569e-17		1.880100e-16
4.973013e-01		5.437229e-17		1.699953e-16
4.992600e-01		2.520330e-16		3.917946e-16
4.986926e-01		4.035971e-03		-6.630638e-03
4.967573e-01		1.071257e-03		-4.903464e-03
4.965173e-01		-1.056045e-16		-4.980789e-03
4.967573e-01		-1.071257e-03		-4.903464e-03
4.986926e-01		-4.035971e-03		-6.630638e-03
4.932113e-01		7.941817e-03		-1.613756e-02
4.911370e-01		2.119759e-03		-1.403871e-02
4.906355e-01		-2.584290e-16		-1.453489e-02
4.911370e-01		-2.119759e-03		-1.403871e-02
4.932113e-01		-7.941817e-03		-1.613756e-02
5.000000e-01		0.000000e+00		0.000000e+00
5.000000e-01		0.000000e+00		0.000000e+00
5.000000e-01		0.000000e+00		0.000000e+00
5.000000e-01		0.000000e+00		0.000000e+00
5.000000e-01		0.000000e+00		0.000000e+00
5.000000e-01		0.000000e+00		0.000000e+00
5.000000e-01		0.000000e+00		0.000000e+00
5.000000e-01		0.000000e+00		0.000000e+00
5.000000e-01		0.000000e+00		0.000000e+00
5.000000e-01		0.000000e+00		0.000000e+00
5.000000e-01		0.000000e+00		0.000000e+00
5.000000e-01		0.000000e+00		0.000000e+00
5.000000e-01		0.000000e+00		0.000000e+00
5.000000e-01		0.000000e+00		0.000000e+00
5.000000e-01		0.000000e+00		0.000000e+00
5.000000e-01		0.000000e+00		0.000000e+00
5.000000e-01		0.000000e+00		0.000000e+00
5.000000e-01		0.000000e+00		0.000000e+00
5.000000e-01		0.000000e+00		0.000000e+00
5.000000e-01		0.000000e+00		0.000000e+00
5.000000e-01		0.000000e+00		0.000000e+00
5.000000e-01		0.000000e+00		0.000000e+00
5.000000e-01		0.000000e+00		0.000000e+00
5.000000e-01		0.000000e+00		0.000000e+00
5.000000e-01		0.000000e+00		0.000000e+00
5.000000e-01		0.000000e+00		0.000000e+00
5.000000e-01		0.000000e+00		0.000000e+00
5.000000e-01		0.000000e+00		0.000000e+00
5.000000e-01		0.000000e+00		0.000000e+00
5.000000e-01		0.000000e+00		0.000000e+00
5.000000e-01		0.000000e+00		0.000000e+00
5.000000e-01		0.000000e+00		0.000000e+00
5.000000e-01		0.000000e+00		0.000000e+00
5.000000e-01		0.000000e+00		0.000000e+00
5.000000e-01		0.000000e+00		0.000000e+00
5.000000e-01		0.000000e+00		0.000000e+00
5.000000e-01		0.000000e+00		0.000000e+00
5.000000e-01		0.000000e+00		0.000000e+00
5.000000e-01		0.000000e+00		0.000000e+00
5.000000e-01		0.000000e+00		0.000000e+00
5.000000e-01		0.000000e+00		0.000000e+00
5.000000e-01		0.000000e+00		0.000000e+00
5.000000e-01		0.000000e+00		0.000000e+00
5.000000e-01		0.000000e+00		0.000000e+00
5.000000e-01		0.000000e+00		0.000000e+00
5.000000e-01		0.000000e+00		0.000000e+00
5.000000e-01		0.000000e+00		0.000000e+00
5.000000e-01		0.000000e+00		0.000000e+00
5.000000e-01		0.000000e+00		0.000000e+00
5.000000e-01		0.000000e+00		0.000000e+00
5.000000e-01		0.000000e+00		0.000000e+00
5.000000e-01		0.000000e+00		0.000000e+00
5.000000e-01		0.000000e+00		0.000000e+00
5.000000e-01		0.000000e+00		0.000000e+00
5.000000e-01		0.000000e+00		0.000000e+00
5.000000e-01		0.000000e+00		0.000000e+00
5.000000e-01		0.000000e+00		0.000000e+00
5.000000e-01		0.000000e+00		0.000000e+00
5.000000e-01		0.000000e+00		0.000000e+00
5.000000e-01		0.000000e+00		0.000000e+00
5.000000e-01		0.000000e+00		0.000000e+00
5.000000e-01		0.000000e+00		0.000000e+00
5.000000e-01		0.000000e+00		0.000000e+00
5.000000e-01		0.000000e+00		0.000000e+00
5.000000e-01		0.000000e+00		0.000000e+00
VECTORS force double
-3.778611e+07		-3.308515e+07		1.211239e+07
-1.799739e+08		-6.387590e+07		-5.247175e+08
-6.737997e+07		1.095432e+07		8.202554e+07
-2.017050e+08		-3.266005e+07		-5.697097e+08
-6.747586e+07		1.259148e-06		8.431886e+07
-2.017050e+08		3.266005e+07		-5.697097e+08
-6.737997e+07		-1.095432e+07		8.202554e+07
-1.799739e+08		6.387590e+07		-5.247175e+08
-3.778611e+07		3.308515e+07		1.211239e+07
1.941202e+06		-1.810897e+08		-4.678578e+08
-5.773652e+07		-1.057093e+08		-7.267565e+08
-7.238231e+07		-5.275011e-06		-7.359466e+08
-5.773652e+07		1.057093e+08		-7.267565e+08
1.941202e+06		1.810897e+08		-4.678578e+08
1.000739e+07		-1.797908e+07		7.909712e+07
-5.116961e+07		-7.426742e+07		-4.706006e+08
1.078847e+07		2.277699e+07		2.382397e+08
-1.034122e+08		-3.747146e+07		-4.914257e+08
2.330846e+07		1.763264e-06		2.473873e+08
-1.034122e+08		3.747146e+07		-4.914257e+08
1.078847e+07		-2.277699e+07		2.382397e+08
-5.116961e+07		7.426742e+07		-4.706006e+08
1.000739e+07		1.797908e+07		7.909712e+07
7.613523e+06		-5.735728e+07		-1.580305e+08
-6.062965e+07		-3.327049e+07		-2.428118e+08
-8.579172e+07		-2.565786e-06		-2.441246e+08
-6.062965e+07		3.327049e+07		-2.428118e+08
7.613523e+06		5.735728e+07		-1.580305e+08
1.770182e+07		-5.885959e-07		1.750886e-06
-1.360173e+07		-1.993030e-06		-1.111254e-05
2.699385e+07		7.674098e-07		4.865229e-06
-7.368873e+07		-1.683831e-06		-7.834285e-06
4.591588e+07		6.407499e-07		3.382564e-06
-7.368873e+07		-6.891787e-07		-4.816800e-06
2.699385e+07		1.452863e-07		2.250075e-06
-1.360173e+07		2.086163e-07		-2.570450e-06
1.770182e+07		4.260801e-08		7.450581e-07
7.613523e+06		5.735728e+07		1.580305e+08
-6.062965e+07		3.327049e+07		2.428118e+08
-8.579172e+07		3.874302e-07		2.441246e+08
-6.062965e+07		-3.327049e+07		2.428118e+08
7.613523e+06		-5.735728e+07		1.580305e+08
1.000739e+07		1.797908e+07		-7.909712e+07
-5.116961e+07		7.426742e+07		4.706006e+08
1.078847e+07		-2.277699e+07		-2.382397e+08
-1.034122e+08		3.747146e+07		4.914257e+08
2.330846e+07		-7.376075e-07		-2.473873e+08
-1.034122e+08		-3.747146e+07		4.914257e+08
1.078847e+07		2.277699e+07		-2.382397e+08
-5.116961e+07		-7.426742e+07		4.706006e+08
1.000739e+07		-1.797908e+07		-7.909712e+07
1.941202e+06		1.810897e+08		4.678578e+08
-5.773652e+07		1.057093e+08		7.267565e+08
-7.238231e+07		3.665686e-06		7.359466e+08
-5.773652e+07		-1.057093e+08		7.267565e+08
1.941202e+06		-1.810897e+08		4.678578e+08
-3.778611e+07		3.308515e+07		-1.211239e+07
-1.799739e+08		6.387590e+07		5.247175e+08
-6.737997e+07		-1.095432e+07		-8.202554e+07
-2.017050e+08		3.266005e+07		5.697097e+08
-6.747586e+07		-5.345792e-07		-8.431886e+07
-2.017050e+08		-3.266005e+07		5.697097e+08
-6.737997e+07		1.095432e+07		-8.202554e+07
-1.799739e+08		-6.387590e+07		5.247175e+08
-3.778611e+07		-3.308515e+07		-1.211239e+07
0.000000e+00		0.000000e+00		0.000000e+00
0.000000e+00		0.000000e+00		0.000000e+00
0.000000e+00		0.000000e+00		0.000000e+00
0.000000e+00		0.000000e+00		0.000000e+00
0.000000e+00		0.000000e+00		0.000000e+00
0.000000e+00		0.000000e+00		0.000000e+00
0.000000e+00		0.000000e+00		0.000000e+00
0.000000e+00		0.000000e+00		0.000000e+00
0.000000e+00		0.000000e+00		0.000000e+00
0.000000e+00		0.000000e+00		0.000000e+00
0.000000e+00		0.000000e+00		0.000000e+00
0.000000e+00		0.000000e+00		0.000000e+00
0.000000e+00		0.000000e+00		0.000000e+00
0.000000e+00		0.000000e+00		0.000000e+00
0.000000e+00		0.000000e+00		0.000000e+00
0.000000e+00		0.000000e+00		0.000000e+00
0.000000e+00		0.000000e+00		0.000000e+00
0.000000e+00		0.000000e+00		0.000000e+00
0.000000e+00		0.000000e+00		0.000000e+00
0.000000e+00		0.000000e+00		0.000000e+00
0.000000e+00		0.000000e+00		0.000000e+00
0.000000e+00		0.000000e+00		0.000000e+00
0.000000e+00		0.000000e+00		0.000000e+00
0.000000e+00		0.000000e+00		0.000000e+00
0.000000e+00		0.000000e+00		0.000000e+00
0.000000e+00		0.000000e+00		0.000000e+00
0.000000e+00		0.000000e+00		0.000000e+00
0.000000e+00		0.000000e+00		0.000000e+00
0.000000e+00		0.000000e+00		0.000000e+00
0.000000e+00		0.000000e+00		0.000000e+00
0.000000e+00		0.000000e+00		0.000000e+00
0.000000e+00		0.000000e+00		0.000000e+00
0.000000e+00		0.000000e+00		0.000000e+00
0.000000e+00		0.000000e+00		0.000000e+00
0.000000e+00		0.000000e+00		0.000000e+00
0.000000e+00		0.000000e+00		0.000000e+00
0.000000e+00		0.000000e+00		0.000000e+00
0.000000e+00		0.000000e+00		0.000000e+00
0.000000e+00		0.000000e+00		0.000000e+00
0.000000e+00		0.000000e+00		0.000000e+00
0.000000e+00		0.000000e+00		0.000000e+00
0.000000e+00		0.000000e+00		0.000000e+00
0.000000e+00		0.000000e+00		0.000000e+00
0.000000e+00		0.000000e+00		0.000000e+00
0.000000e+00		0.000000e+00		0.000000e+00
0.000000e+00		0.000000e+00		0.000000e+00
0.000000e+00		0.000000e+00		0.000000e+00
0.000000e+00		0.000000e+00		0.000000e+00
0.000000e+00		0.000000e+00		0.000000e+00
0.000000e+00		0.000000e+00		0.000000e+00
0.000000e+00		0.000000e+00		0.000000e+00
0.000000e+00		0.000000e+00		0.000000e+00
0.000000e+00		0.000000e+00		0.000000e+00
0.000000e+00		0.000000e+00		0.000000e+00
0.000000e+00		0.000000e+00		0.000000e+00
0.000000e+00		0.000000e+00		0.000000e+00
0.000000e+00		0.000000e+00		0.000000e+00
0.000000e+00		0.000000e+00		0.000000e+00
0.000000e+00		0.000000e+00		0.000000e+00
0.000000e+00		0.000000e+00		0.000000e+00
0.000000e+00		0.000000e+00		0.000000e+00
0.000000e+00		0.000000e+00		0.000000e+00
0.000000e+00		0.000000e+00		0.000000e+00
0.000000e+00		0.000000e+00		0.000000e+00
0.000000e+00		0.000000e+00		0.000000e+00
0.000000e+00		0.000000e+00		0.000000e+00
0.000000e+00		0.000000e+00		0.000000e+00
0.000000e+00		0.000000e+00		0.000000e+00
0.000000e+00		0.000000e+00		0.000000e+00
0.000000e+00		0.000000e+00		0.000000e+00
0.000000e+00		0.000000e+00		0.000000e+00
0.000000e+00		0.000000e+00		0.000000e+00
0.000000e+00		0.000000e+00		0.000000e+00
0.000000e+00		0.000000e+00		0.000000e+00
0.000000e+00		0.000000e+00		0.000000e+00
0.000000e+00		0.000000e+00		0.000000e+00
0.000000e+00		0.000000e+00		0.000000e+00
0.000000e+00		0.000000e+00		0.000000e+00
0.000000e+00		0.000000e+00		0.000000e+00
0.000000e+00		0.000000e+00		0.000000e+00
0.000000e+00		0.000000e+00		0.000000e+00
0.000000e+00		0.000000e+00		0.000000e+00
0.000000e+00		0.000000e+00		0.000000e+00
0.000000e+00		0.000000e+00		0.000000e+00
0.000000e+00		0.000000e+00		0.000000e+00
0.000000e+00		0.000000e+00		0.000000e+00
0.000000e+00		0.000000e+00		0.000000e+00
0.000000e+00		0.000000e+00		0.000000e+00
0.000000e+00		0.000000e+00		0.000000e+00
0.000000e+00		0.000000e+00		0.000000e+00
0.000000e+00		0.000000e+00		0.000000e+00
0.000000e+00		0.000000e+00		0.000000e+00
0.000000e+00		0.000000e+00		0.000000e+00
0.000000e+00		0.000000e+00		0.000000e+00
0.000000e+00		0.000000e+00		0.000000e+00
0.000000e+00		0.000000e+00		0.000000e+00
0.000000e+00		0.000000e+00		0.000000e+00
0.000000e+00		0.000000e+00		0.000000e+00
0.000000e+00		0.000000e+00		0.000000e+00
0.000000e+00		0.000000e+00		0.000000e+00
0.000000e+00		0.000000e+00		0.000000e+00
0.000000e+00		0.000000e+00		0.000000e+00
0.000000e+00		0.000000e+00		0.000000e+00
0.000000e+00		0.000000e+00		0.000000e+00
0.000000e+00		0.000000e+00		0.000000e+00
0.000000e+00		0.000000e+00		0.000000e+00
0.000000e+00		0.000000e+00		0.000000e+00
0.000000e+00		0.000000e+00		0.000000e+00
0.000000e+00		0.000000e+00		0.000000e+00
0.000000e+00		0.000000e+00		0.000000e+00
0.000000e+00		0.000000e+00		0.000000e+00
0.000000e+00		0.000000e+00		0.000000e+00
0.000000e+00		0.000000e+00		0.000000e+00
0.000000e+00		0.000000e+00		0.000000e+00
0.000000e+00		0.000000e+00		0.000000e+00
0.000000e+00		0.000000e+00		0.000000e+00
0.000000e+00		0.000000e+00		0.000000e+00
0.000000e+00		0.000000e+00		0.000000e+00
0.000000e+00		0.000000e+00		0.000000e+00
0.000000e+00		0.000000e+00		0.000000e+00
0.000000e+00		0.000000e+00		0.000000e+00
0.000000e+00		0.000000e+00		0.000000e+00
0.000000e+00		0.000000e+00		0.000000e+00
0.000000e+00		0.000000e+00		0.000000e+00
0.000000e+00		0.000000e+00		0.000000e+00
0.000000e+00		0.000000e+00		0.000000e+00
0.000000e+00		0.000000e+00		0.000000e+00
0.000000e+00		0.000000e+00		0.000000e+00
0.000000e+00		0.000000e+00		0.000000e+00
0.000000e+00		0.000000e+00		0.000000e+00
0.000000e+00		0.000000e+00		0.000000e+00
0.000000e+00		0.000000e+00		0.000000e+00
0.000000e+00		0.000000e+00		0.000000e+00
0.000000e+00		0.000000e+00		0.000000e+00
0.000000e+00		0.000000e+00		0.000000e+00
0.000000e+00		0.000000e+00		0.000000e+00
0.000000e+00		0.000000e+00		0.000000e+00
0.000000e+00		0.000000e+00		0.000000e+00
0.000000e+00		0.000000e+00		0.000000e+00
0.000000e+00		0.000000e+00		0.000000e+00
0.000000e+00		0.000000e+00		0.000000e+00
0.000000e+00		0.000000e+00		0.000000e+00
0.000000e+00		0.000000e+00		0.000000e+00
0.000000e+00		0.000000e+00		0.000000e+00
0.000000e+00		0.000000e+00		0.000000e+00
0.000000e+00		0.000000e+00		0.000000e+00
0.000000e+00		0.000000e+00		0.000000e+00
0.000000e+00		0.000000e+00		0.000000e+00
0.000000e+00		0.000000e+00		0.000000e+00
0.000000e+00		0.000000e+00		0.000000e+00
0.000000e+00		0.000000e+00		0.000000e+00
0.000000e+00		0.000000e+00		0.000000e+00
0.000000e+00		0.000000e+00		0.000000e+00
0.000000e+00		0.000000e+00		0.000000e+00
0.000000e+00		0.000000e+00		0.000000e+00
0.000000e+00		0.000000e+00		0.000000e+00
0.000000e+00		0.000000e+00		0.000000e+00
0.000000e+00		0.000000e+00		0.000000e+00
0.000000e+00		0.000000e+00		0.000000e+00
0.000000e+00		0.000000e+00		0.000000e+00
0.000000e+00		0.000000e+00		0.000000e+00
0.000000e+00		0.000000e+00		0.000000e+00
0.000000e+00		0.000000e+00		0.000000e+00
0.000000e+00		0.000000e+00		0.000000e+00
0.000000e+00		0.000000e+00		0.000000e+00
0.000000e+00		0.000000e+00		0.000000e+00
0.000000e+00		0.000000e+00		0.000000e+00
0.000000e+00		0.000000e+00		0.000000e+00
0.000000e+00		0.000000e+00		0.000000e+00
0.000000e+00		0.000000e+00		0.000000e+00
0.000000e+00		0.000000e+00		0.000000e+00
0.000000e+00		0.000000e+00		0.000000e+00
0.000000e+00		0.000000e+00		0.000000e+00
0.000000e+00		0.000000e+00		0.000000e+00
0.000000e+00		0.000000e+00		0.000000e+00
0.000000e+00		0.000000e+00		0.000000e+00
0.000000e+00		0.000000e+00		0.000000e+00
0.000000e+00		0.000000e+00		0.000000e+00
0.000000e+00		0.000000e+00		0.000000e+00
0.000000e+00		0.000000e+00		0.000000e+00
0.000000e+00		0.000000e+00		0.000000e+00
0.000000e+00		0.000000e+00		0.000000e+00
0.000000e+00		0.000000e+00		0.000000e+00
0.000000e+00		0.000000e+00		0.000000e+00
0.000000e+00		0.000000e+00		0.000000e+00
0.000000e+00		0.000000e+00		0.000000e+00
0.000000e+00		0.000000e+00		0.000000e+00
0.000000e+00		0.000000e+00		0.000000e+00
0.000000e+00		0.000000e+00		0.000000e+00
0.000000e+00		0.000000e+00		0.000000e+00
0.000000e+00		0.000000e+00		0.000000e+00
0.000000e+00		0.000000e+00		0.000000e+00
0.000000e+00		0.000000e+00		0.000000e+00
0.000000e+00		0.000000e+00		0.000000e+00
0.000000e+00		0.000000e+00		0.000000e+00
0.000000e+00		0.000000e+00		0.000000e+00
0.000000e+00		0.000000e+00		0.000000e+00
0.000000e+00		0.000000e+00		0.000000e+00
0.000000e+00		0.000000e+00		0.000000e+00
0.000000e+00		0.000000e+00		0.000000e+00
0.000000e+00		0.000000e+00		0.000000e+00
0.000000e+00		0.000000e+00		0.000000e+00
0.000000e+00		0.000000e+00		0.000000e+00
0.000000e+00		0.000000e+00		0.000000e+00
0.000000e+00		0.000000e+00		0.000000e+00
0.000000e+00		0.000000e+00		0.000000e+00
0.000000e+00		0.000000e+00		0.000000e+00
0.000000e+00		0.000000e+00		0.000000e+00
0.000000e+00		0.000000e+00		0.000000e+00
0.000000e+00		0.000000e+00		0.000000e+00
0.000000e+00		0.000000e+00		0.000000e+00
0.000000e+00		0.000000e+00		0.000000e+00
0.000000e+00		0.000000e+00		0.000000e+00
0.000000e+00		0.000000e+00		0.000000e+00
0.000000e+00		0.000000e+00		0.000000e+00
0.000000e+00		0.000000e+00		0.000000e+00
0.000000e+00		0.000000e+00		0.000000e+00
0.000000e+00		0.000000e+00		0.000000e+00
0.000000e+00		0.000000e+00		0.000000e+00
0.000000e+00		0.000000e+00		0.000000e+00
0.000000e+00		0.000000e+00		0.000000e+00
0.000000e+00		0.000000e+00		0.000000e+00
0.000000e+00		0.000000e+00		0.000000e+00
0.000000e+00		0.000000e+00		0.000000e+00
0.000000e+00		0.000000e+00		0.000000e+00
0.000000e+00		0.000000e+00		0.000000e+00
0.000000e+00		0.000000e+00		0.000000e+00
0.000000e+00		0.000000e+00		0.000000e+00
0.000000e+00		0.000000e+00		0.000000e+00
0.000000e+00		0.000000e+00		0.000000e+00
0.000000e+00		0.000000e+00		0.000000e+00
0.000000e+00		0.000000e+00		0.000000e+00
0.000000e+00		0.000000e+00		0.000000e+00
0.000000e+00		0.000000e+00		0.000000e+00
0.000000e+00		0.000000e+00		0.000000e+00
0.000000e+00		0.000000e+00		0.000000e+00
0.000000e+00		0.000000e+00		0.000000e+00
0.000000e+00		0.000000e+00		0.000000e+00
0.000000e+00		0.000000e+00		0.000000e+00
0.000000e+00		0.000000e+00		0.000000e+00
0.000000e+00		0.000000e+00		0.000000e+00
0.000000e+00		0.000000e+00		0.000000e+00
0.000000e+00		0.000000e+00		0.000000e+00
0.000000e+00		0.000000e+00		0.000000e+00
0.000000e+00		0.000000e+00		0.000000e+00
0.000000e+00		0.000000e+00		0.000000e+00
0.000000e+00		0.000000e+00		0.000000e+00
0.000000e+00		0.000000e+00		0.000000e+00
0.000000e+00		0.000000e+00		0.000000e+00
0.000000e+00		0.000000e+00		0.000000e+00
0.000000e+00		0.000000e+00		0.000000e+00
0.000000e+00		0.000000e+00		0.000000e+00
0.000000e+00		0.000000e+00		0.000000e+00
0.000000e+00		0.000000e+00		0.000000e+00
0.000000e+00		0.000000e+00		0.000000e+00
0.000000e+00		0.000000e+00		0.000000e+00
0.000000e+00		0.000000e+00		0.000000e+00
0.000000e+00		0.000000e+00		0.000000e+00
0.000000e+00		0.000000e+00		0.000000e+00
0.000000e+00		0.000000e+00		0.000000e+00
0.000000e+00		0.000000e+00		0.000000e+00
0.000000e+00		0.000000e+00		0.000000e+00
0.000000e+00		0.000000e+00		0.000000e+00
0.000000e+00		0.000000e+00		0.000000e+00
0.000000e+00		0.000000e+00		0.000000e+00
0.000000e+00		0.000000e+00		0.000000e+00
0.000000e+00		0.000000e+00		0.000000e+00
0.000000e+00		0.000000e+00		0.000000e+00
0.000000e+00		0.000000e+00		0.000000e+00
0.000000e+00		0.000000e+00		0.000000e+00
0.000000e+00		0.000000e+00		0.000000e+00
0.000000e+00		0.000000e+00		0.000000e+00
0.000000e+00		0.000000e+00		0.000000e+00
0.000000e+00		0.000000e+00		0.000000e+00
0.000000e+00		0.000000e+00		0.000000e+00
0.000000e+00		0.000000e+00		0.000000e+00
0.000000e+00		0.000000e+00		0.000000e+00
0.000000e+00		0.000000e+00		0.000000e+00
0.000000e+00		0.000000e+00		0.000000e+00
0.000000e+00		0.000000e+00		0.000000e+00
0.000000e+00		0.000000e+00		0.000000e+00
0.000000e+00		0.000000e+00		0.000000e+00
0.000000e+00		0.000000e+00		0.000000e+00
0.000000e+00		0.000000e+00		0.000000e+00
0.000000e+00		0.000000e+00		0.000000e+00
0.000000e+00		0.000000e+00		0.000000e+00
0.000000e+00		0.000000e+00		0.000000e+00
0.000000e+00		0.000000e+00		0.000000e+00
0.000000e+00		0.000000e+00		0.000000e+00
0.000000e+00		0.000000e+00		0.000000e+00
0.000000e+00		0.000000e+00		0.000000e+00
0.000000e+00		0.000000e+00		0.000000e+00
0.000000e+00		0.000000e+00		0.000000e+00
0.000000e+00		0.000000e+00		0.000000e+00
0.000000e+00		0.000000e+00		0.000000e+00
0.000000e+00		0.000000e+00		0.000000e+00
0.000000e+00		0.000000e+00		0.000000e+00
0.000000e+00		0.000000e+00		0.000000e+00
0.000000e+00		0.000000e+00		0.000000e+00
0.000000e+00		0.000000e+00		0.000000e+00
0.000000e+00		0.000000e+00		0.000000e+00
0.000000e+00		0.000000e+00		0.000000e+00
0.000000e+00		0.000000e+00		0.000000e+00
0.000000e+00		0.000000e+00		0.000000e+00
0.000000e+00		0.000000e+00		0.000000e+00
0.000000e+00		0.000000e+00		0.000000e+00
0.000000e+00		0.000000e+00		0.000000e+00
0.000000e+00		0.000000e+00		0.000000e+00
0.000000e+00		0.000000e+00		0.000000e+00
0.000000e+00		0.000000e+00		0.000000e+00
0.000000e+00		0.000000e+00		0.000000e+00
0.000000e+00		0.000000e+00		0.000000e+00
0.000000e+00		0.000000e+00		0.000000e+00
0.000000e+00		0.000000e+00		0.000000e+00
0.000000e+00		0.000000e+00		0.000000e+00
0.000000e+00		0.000000e+00		0.000000e+00
0.000000e+00		0.000000e+00		0.000000e+00
0.000000e+00		0.000000e+00		0.000000e+00
0.000000e+00		0.000000e+00		0.000000e+00
0.000000e+00		0.000000e+00		0.000000e+00
0.000000e+00		0.000000e+00		0.000000e+00
0.000000e+00		0.000000e+00		0.000000e+00
0.000000e+00		0.000000e+00		0.000000e+00
0.000000e+00		0.000000e+00		0.000000e+00
0.000000e+00		0.000000e+00		0.000000e+00
0.000000e+00		0.000000e+00		0.000000e+00
0.000000e+00		0.000000e+00		0.000000e+00
0.000000e+00		0.000000e+00		0.000000e+00
0.000000e+00		0.000000e+00		0.000000e+00
0.000000e+00		0.000000e+00		0.000000e+00
0.000000e+00		0.000000e+00		0.000000e+00
0.000000e+00		0.000000e+00		0.000000e+00
0.000000e+00		0.000000e+00		0.000000e+00
0.000000e+00		0.000000e+00		0.000000e+00
0.000000e+00		0.000000e+00		0.000000e+00
0.000000e+00		0.000000e+00		0.000000e+00
0.000000e+00		0.000000e+00		0.000000e+00
0.000000e+00		0.000000e+00		0.000000e+00
0.000000e+00		0.000000e+00		0.000000e+00
0.000000e+00		0.000000e+00		0.000000e+00
0.000000e+00		0.000000e+00		0.000000e+00
0.000000e+00		0.000000e+00		0.000000e+00
0.000000e+00		0.000000e+00		0.000000e+00
0.000000e+00		0.000000e+00		0.000000e+00
0.000000e+00		0.000000e+00		0.000000e+00
0.000000e+00		0.000000e+00		0.000000e+00
0.000000e+00		0.000000e+00		0.000000e+00
0.000000e+00		0.000000e+00		0.000000e+00
0.000000e+00		0.000000e+00		0.000000e+00
0.000000e+00		0.000000e+00		0.000000e+00
0.000000e+00		0.000000e+00		0.000000e+00
0.000000e+00		0.000000e+00		0.000000e+00
0.000000e+00		0.000000e+00		0.000000e+00
0.000000e+00		0.000000e+00		0.000000e+00
0.000000e+00		0.000000e+00		0.000000e+00
0.000000e+00		0.000000e+00		0.000000e+00
0.000000e+00		0.000000e+00		0.000000e+00
0.000000e+00		0.000000e+00		0.000000e+00
0.000000e+00		0.000000e+00		0.000000e+00
0.000000e+00		0.000000e+00		0.000000e+00
0.000000e+00		0.000000e+00		0.000000e+00
0.000000e+00		0.000000e+00		0.000000e+00
0.000000e+00		0.000000e+00		0.000000e+00
0.000000e+00		0.000000e+00		0.000000e+00
0.000000e+00		0.000000e+00		0.000000e+00
0.000000e+00		0.000000e+00		0.000000e+00
0.000000e+00		0.000000e+00		0.000000e+00
0.000000e+00		0.000000e+00		0.000000e+00
0.000000e+00		0.000000e+00		0.000000e+00
0.000000e+00		0.000000e+00		0.000000e+00
0.000000e+00		0.000000e+00		0.000000e+00
0.000000e+00		0.000000e+00		0.000000e+00
0.000000e+00		0.000000e+00		0.000000e+00
0.000000e+00		0.000000e+00		0.000000e+00
0.000000e+00		0.000000e+00		0.000000e+00
0.000000e+00		0.000000e+00		0.000000e+00
0.000000e+00		0.000000e+00		0.000000e+00
0.000000e+00		0.000000e+00		0.000000e+00
0.000000e+00		0.000000e+00		0.000000e+00
0.000000e+00		0.000000e+00		0.000000e+00
0.000000e+00		0.000000e+00		0.000000e+00
0.000000e+00		0.000000e+00		0.000000e+00
0.000000e+00		0.000000e+00		0.000000e+00
0.000000e+00		0.000000e+00		0.000000e+00
0.000000e+00		0.000000e+00		0.000000e+00
0.000000e+00		0.000000e+00		0.000000e+00
0.000000e+00		0.000000e+00		0.000000e+00
0.000000e+00		0.000000e+00		0.000000e+00
0.000000e+00		0.000000e+00		0.000000e+00
0.000000e+00		0.000000e+00		0.000000e+00
0.000000e+00		0.000000e+00		0.000000e+00
0.000000e+00		0.000000e+00		0.000000e+00
0.000000e+00		0.000000e+00		0.000000e+00
0.000000e+00		0.000000e+00		0.000000e+00
0.000000e+00		0.000000e+00		0.000000e+00
0.000000e+00		0.000000e+00		0.000000e+00
0.000000e+00		0.000000e+00		0.000000e+00
0.000000e+00		0.000000e+00		0.000000e+00
0.000000e+00		0.000000e+00		0.000000e+00
0.000000e+00		0.000000e+00		0.000000e+00
0.000000e+00		0.000000e+00		0.000000e+00
0.000000e+00		0.000000e+00		0.000000e+00
0.000000e+00		0.000000e+00		0.000000e+00
0.000000e+00		0.000000e+00		0.000000e+00
0.000000e+00		0.000000e+00		0.000000e+00
0.000000e+00		0.000000e+00		0.000000e+00
0.000000e+00		0.000000e+00		0.000000e+00
0.000000e+00		0.000000e+00		0.000000e+00
0.000000e+00		0.000000e+00		0.000000e+00
0.000000e+00		0.000000e+00		0.000000e+00
0.000000e+00		0.000000e+00		0.000000e+00
0.000000e+00		0.000000e+00		0.000000e+00
0.000000e+00		0.000000e+00		0.000000e+00
0.000000e+00		0.000000e+00		0.000000e+00
0.000000e+00		0.000000e+00		0.000000e+00
0.000000e+00		0.000000e+00		0.000000e+00
0.000000e+00		0.000000e+00		0.000000e+00
0.000000e+00		0.000000e+00		0.000000e+00
0.000000e+00		0.000000e+00		0.000000e+00
0.000000e+00		0.000000e+00		0.000000e+00
0.000000e+00		0.000000e+00		0.000000e+00
0.000000e+00		0.000000e+00		0.000000e+00
0.000000e+00		0.000000e+00		0.000000e+00
0.000000e+00		0.000000e+00		0.000000e+00
0.000000e+00		0.000000e+00		0.000000e+00
0.000000e+00		0.000000e+00		0.000000e+00
0.000000e+00		0.000000e+00		0.000000e+00
0.000000e+00		0.000000e+00		0.000000e+00
0.000000e+00		0.000000e+00		0.000000e+00
0.000000e+00		0.000000e+00		0.000000e+00
0.000000e+00		0.000000e+00		0.000000e+00
0.000000e+00		0.000000e+00		0.000000e+00
0.000000e+00		0.000000e+00		0.000000e+00
0.000000e+00		0.000000e+00		0.000000e+00
0.000000e+00		0.000000e+00		0.000000e+00
0.000000e+00		0.000000e+00		0.000000e+00
0.000000e+00		0.000000e+00		0.000000e+00
0.000000e+00		0.000000e+00		0.000000e+00
0.000000e+00		0.000000e+00		0.000000e+00
0.000000e+00		0.000000e+00		0.000000e+00
0.000000e+00		0.000000e+00		0.000000e+00
0.000000e+00		0.000000e+00		0.000000e+00
0.000000e+00		0.000000e+00		0.000000e+00
0.000000e+00		0.000000e+00		0.000000e+00
0.000000e+00		0.000000e+00		0.000000e+00
0.000000e+00		0.000000e+00		0.000000e+00
0.000000e+00		0.000000e+00		0.000000e+00
0.000000e+00		0.000000e+00		0.000000e+00
0.000000e+00		0.000000e+00		0.000000e+00
0.000000e+00		0.000000e+00		0.000000e+00
0.000000e+00		0.000000e+00		0.000000e+00
0.000000e+00		0.000000e+00		0.000000e+00
0.000000e+00		0.000000e+00		0.000000e+00
0.000000e+00		0.000000e+00		0.000000e+00
0.000000e+00		0.000000e+00		0.000000e+00
0.000000e+00		0.000000e+00		0.000000e+00
0.000000e+00		0.000000e+00		0.000000e+00
0.000000e+00		0.000000e+00		0.000000e+00
0.000000e+00		0.000000e+00		0.000000e+00
0.000000e+00		0.000000e+00		0.000000e+00
0.000000e+00		0.000000e+00		0.000000e+00
0.000000e+00		0.000000e+00		0.000000e+00
0.000000e+00		0.000000e+00		0.000000e+00
0.000000e+00		0.000000e+00		0.000000e+00
0.000000e+00		0.000000e+00		0.000000e+00
0.000000e+00		0.000000e+00		0.000000e+00
0.000000e+00		0.000000e+00		0.000000e+00
0.000000e+00		0.000000e+00		0.000000e+00
0.000000e+00		0.000000e+00		0.000000e+00
0.000000e+00		0.000000e+00		0.000000e+00
0.000000e+00		0.000000e+00		0.000000e+00
0.000000e+00		0.000000e+00		0.000000e+00
0.000000e+00		0.000000e+00		0.000000e+00
0.000000e+00		0.000000e+00		0.000000e+00
0.000000e+00		0.000000e+00		0.000000e+00
0.000000e+00		0.000000e+00		0.000000e+00
0.000000e+00		0.000000e+00		0.000000e+00
0.000000e+00		0.000000e+00		0.000000e+00
0.000000e+00		0.000000e+00		0.000000e+00
0.000000e+00		0.000000e+00		0.000000e+00
0.000000e+00		0.000000e+00		0.000000e+00
0.000000e+00		0.000000e+00		0.000000e+00
0.000000e+00		0.000000e+00		0.000000e+00
0.000000e+00		0.000000e+00		0.000000e+00
0.000000e+00		0.000000e+00		0.000000e+00
0.000000e+00		0.000000e+00		0.000000e+00
0.000000e+00		0.000000e+00		0.000000e+00
0.000000e+00		0.000000e+00		0.000000e+00
0.000000e+00		0.000000e+00		0.000000e+00
0.000000e+00		0.000000e+00		0.000000e+00
0.000000e+00		0.000000e+00		0.000000e+00
0.000000e+00		0.000000e+00		0.000000e+00
0.000000e+00		0.000000e+00		0.000000e+00
0.000000e+00		0.000000e+00		0.000000e+00
0.000000e+00		0.000000e+00		0.000000e+00
0.000000e+00		0.000000e+00		0.000000e+00
0.000000e+00		0.000000e+00		0.000000e+00
0.000000e+00		0.000000e+00		0.000000e+00
0.000000e+00		0.000000e+00		0.000000e+00
0.000000e+00		0.000000e+00		0.000000e+00
0.000000e+00		0.000000e+00		0.000000e+00
0.000000e+00		0.000000e+00		0.000000e+00
0.000000e+00		0.000000e+00		0.000000e+00
0.000000e+00		0.000000e+00		0.000000e+00
0.000000e+00		0.000000e+00		0.000000e+00
0.000000e+00		0.000000e+00		0.000000e+00
0.000000e+00		0.000000e+00		0.000000e+00
0.000000e+00		0.000000e+00		0.000000e+00
0.000000e+00		0.000000e+00		0.000000e+00
0.000000e+00		0.000000e+00		0.000000e+00
0.000000e+00		0.000000e+00		0.000000e+00
0.000000e+00		0.000000e+00		0.000000e+00
0.000000e+00		0.000000e+00		0.000000e+00
0.000000e+00		0.000000e+00		0.000000e+00
0.000000e+00		0.000000e+00		0.000000e+00
0.000000e+00		0.000000e+00		0.000000e+00
0.000000e+00		0.000000e+00		0.000000e+00
0.000000e+00		0.000000e+00		0.000000e+00
0.000000e+00		0.000000e+00		0.000000e+00
0.000000e+00		0.000000e+00		0.000000e+00
0.000000e+00		0.000000e+00		0.000000e+00
0.000000e+00		0.000000e+00		0.000000e+00
0.000000e+00		0.000000e+00		0.000000e+00
0.000000e+00		0.000000e+00		0.000000e+00
0.000000e+00		0.000000e+00		0.000000e+00
0.000000e+00		0.000000e+00		0.000000e+00
0.000000e+00		0.000000e+00		0.000000e+00
0.000000e+00		0.000000e+00		0.000000e+00
0.000000e+00		0.000000e+00		0.000000e+00
0.000000e+00		0.000000e+00		0.000000e+00
0.000000e+00		0.000000e+00		0.000000e+00
0.000000e+00		0.000000e+00		0.000000e+00
0.000000e+00		0.000000e+00		0.000000e+00
0.000000e+00		0.000000e+00		0.000000e+00
0.000000e+00		0.000000e+00		0.000000e+00
0.000000e+00		0.000000e+00		0.000000e+00
0.000000e+00		0.000000e+00		0.000000e+00
0.000000e+00		0.000000e+00		0.000000e+00
0.000000e+00		0.000000e+00		0.000000e+00
0.000000e+00		0.000000e+00		0.000000e+00
0.000000e+00		0.000000e+00		0.000000e+00
0.000000e+00		0.000000e+00		0.000000e+00
0.000000e+00		0.000000e+00		0.000000e+00
0.000000e+00		0.000000e+00		0.000000e+00
0.000000e+00		0.000000e+00		0.000000e+00
0.000000e+00		0.000000e+00		0.000000e+00
0.000000e+00		0.000000e+00		0.000000e+00
0.000000e+00		0.000000e+00		0.000000e+00
0.000000e+00		0.000000e+00		0.000000e+00
0.000000e+00		0.000000e+00		0.000000e+00
0.000000e+00		0.000000e+00		0.000000e+00
0.000000e+00		0.000000e+00		0.000000e+00
0.000000e+00		0.000000e+00		0.000000e+00
0.000000e+00		0.000000e+00		0.000000e+00
0.000000e+00		0.000000e+00		0.000000e+00
0.000000e+00		0.000000e+00		0.000000e+00
0.000000e+00		0.000000e+00		0.000000e+00
0.000000e+00		0.000000e+00		0.000000e+00
0.000000e+00		0.000000e+00		0.000000e+00
0.000000e+00		0.000000e+00		0.000000e+00
0.000000e+00		0.000000e+00		0.000000e+00
0.000000e+00		0.000000e+00		0.000000e+00
0.000000e+00		0.000000e+00		0.000000e+00
0.000000e+00		0.000000e+00		0.000000e+00
0.000000e+00		0.000000e+00		0.000000e+00
0.000000e+00		0.000000e+00		0.000000e+00
0.000000e+00		0.000000e+00		0.000000e+00
0.000000e+00		0.000000e+00		0.000000e+00
0.000000e+00		0.000000e+00		0.000000e+00
0.000000e+00		0.000000e+00		0.000000e+00
0.000000e+00		0.000000e+00		0.000000e+00
0.000000e+00		0.000000e+00		0.000000e+00
0.000000e+00		0.000000e+00		0.000000e+00
0.000000e+00		0.000000e+00		0.000000e+00
0.000000e+00		0.000000e+00		0.000000e+00
0.000000e+00		0.000000e+00		0.000000e+00
0.000000e+00		0.000000e+00		0.000000e+00
0.000000e+00		0.000000e+00		0.000000e+00
0.000000e+00		0.000000e+00		0.000000e+00
0.000000e+00		0.000000e+00		0.000000e+00
0.000000e+00		0.000000e+00		0.000000e+00
0.000000e+00		0.000000e+00		0.000000e+00
0.000000e+00		0.000000e+00		0.000000e+00
0.000000e+00		0.000000e+00		0.000000e+00
0.000000e+00		0.000000e+00		0.000000e+00
0.000000e+00		0.000000e+00		0.000000e+00
0.000000e+00		0.000000e+00		0.000000e+00
0.000000e+00		0.000000e+00		0.000000e+00
0.000000e+00		0.000000e+00		0.000000e+00
0.000000e+00		0.000000e+00		0.000000e+00
0.000000e+00		0.000000e+00		0.000000e+00
0.000000e+00		0.000000e+00		0.000000e+00
0.000000e+00		0.000000e+00		0.000000e+00
0.000000e+00		0.000000e+00		0.000000e+00
0.000000e+00		0.000000e+00		0.000000e+00
0.000000e+00		0.000000e+00		0.000000e+00
0.000000e+00		0.000000e+00		0.000000e+00
0.000000e+00		0.000000e+00		0.000000e+00
0.000000e+00		0.000000e+00		0.000000e+00
0.000000e+00		0.000000e+00		0.000000e+00
0.000000e+00		0.000000e+00		0.000000e+00
0.000000e+00		0.000000e+00		0.000000e+00
0.000000e+00		0.000000e+00		0.000000e+00
0.000000e+00		0.000000e+00		0.000000e+00
0.000000e+00		0.000000e+00		0.000000e+00
0.000000e+00		0.000000e+00		0.000000e+00
0.000000e+00		0.000000e+00		0.000000e+00
0.000000e+00		0.000000e+00		0.000000e+00
0.000000e+00		0.000000e+00		0.000000e+00
0.000000e+00		0.000000e+00		0.000000e+00
0.000000e+00		0.000000e+00		0.000000e+00
0.000000e+00		0.000000e+00		0.000000e+00
0.000000e+00		0.000000e+00		0.000000e+00
0.000000e+00		0.000000e+00		0.000000e+00
0.000000e+00		0.000000e+00		0.000000e+00
0.000000e+00		0.000000e+00		0.000000e+00
0.000000e+00		0.000000e+00		0.000000e+00
0.000000e+00		0.000000e+00		0.000000e+00
0.000000e+00		0.000000e+00		0.000000e+00
0.000000e+00		0.000000e+00		0.000000e+00
0.000000e+00		0.000000e+00		0.000000e+00
0.000000e+00		0.000000e+00		0.000000e+00
0.000000e+00		0.000000e+00		0.000000e+00
0.000000e+00		0.000000e+00		0.000000e+00
0.000000e+00		0.000000e+00		0.000000e+00
0.000000e+00		0.000000e+00		0.000000e+00
0.000000e+00		0.000000e+00		0.000000e+00
0.000000e+00		0.000000e+00		0.000000e+00
0.000000e+00		0.000000e+00		0.000000e+00
0.000000e+00		0.000000e+00		0.000000e+00
0.000000e+00		0.000000e+00		0.000000e+00
0.000000e+00		0.000000e+00		0.000000e+00
0.000000e+00		0.000000e+00		0.000000e+00
0.000000e+00		0.000000e+00		0.000000e+00
0.000000e+00		0.000000e+00		0.000000e+00
0.000000e+00		0.000000e+00		0.000000e+00
0.000000e+00		0.000000e+00		0.000000e+00
0.000000e+00		0.000000e+00		0.000000e+00
0.000000e+00		0.000000e+00		0.000000e+00
0.000000e+00		0.000000e+00		0.000000e+00
0.000000e+00		0.000000e+00		0.000000e+00
0.000000e+00		0.000000e+00		0.000000e+00
0.000000e+00		0.000000e+00		0.000000e+00
0.000000e+00		0.000000e+00		0.000000e+00
0.000000e+00		0.000000e+00		0.000000e+00
0.000000e+00		0.000000e+00		0.000000e+00
0.000000e+00		0.000000e+00		0.000000e+00
0.000000e+00		0.000000e+00		0.000000e+00
0.000000e+00		0.000000e+00		0.000000e+00
0.000000e+00		0.000000e+00		0.000000e+00
0.000000e+00		0.000000e+00		0.000000e+00
0.000000e+00		0.000000e+00		0.000000e+00
0.000000e+00		0.000000e+00		0.000000e+00
0.000000e+00		0.000000e+00		0.000000e+00
0.000000e+00		0.000000e+00		0.000000e+00
0.000000e+00		0.000000e+00		0.000000e+00
0.000000e+00		0.000000e+00		0.000000e+00
0.000000e+00		0.000000e+00		0.000000e+00
0.000000e+00		0.000000e+00		0.000000e+00
0.000000e+00		0.000000e+00		0.000000e+00
0.000000e+00		0.000000e+00		0.000000e+00
0.000000e+00		0.000000e+00		0.000000e+00
0.000000e+00		0.000000e+00		0.000000e+00
0.000000e+00		0.000000e+00		0.000000e+00
0.000000e+00		0.000000e+00		0.000000e+00
0.000000e+00		0.000000e+00		0.000000e+00
0.000000e+00		0.000000e+00		0.000000e+00
0.000000e+00		0.000000e+00		0.000000e+00
0.000000e+00		0.000000e+00		0.000000e+00
0.000000e+00		0.000000e+00		0.000000e+00
0.000000e+00		0.000000e+00		0.000000e+00
0.000000e+00		0.000000e+00		0.000000e+00
0.000000e+00		0.000000e+00		0.000000e+00
0.000000e+00		0.000000e+00		0.000000e+00
0.000000e+00		0.000000e+00		0.000000e+00
0.000000e+00		0.000000e+00		0.000000e+00
0.000000e+00		0.000000e+00		0.000000e+00
0.000000e+00		0.000000e+00		0.000000e+00
0.000000e+00		0.000000e+00		0.000000e+00
0.000000e+00		0.000000e+00		0.000000e+00
0.000000e+00		0.000000e+00		0.000000e+00
0.000000e+00		0.000000e+00		0.000000e+00
0.000000e+00		0.000000e+00		0.000000e+00
0.000000e+00		0.000000e+00		0.000000e+00
0.000000e+00		0.000000e+00		0.000000e+00
0.000000e+00		0.000000e+00		0.000000e+00
0.000000e+00		0.000000e+00		0.000000e+00
0.000000e+00		0.000000e+00		0.000000e+00
0.000000e+00		0.000000e+00		0.000000e+00
0.000000e+00		0.000000e+00		0.000000e+00
0.000000e+00		0.000000e+00		0.000000e+00
0.000000e+00		0.000000e+00		0.000000e+00
0.000000e+00		0.000000e+00		0.000000e+00
0.000000e+00		0.000000e+00		0.000000e+00
0.000000e+00		0.000000e+00		0.000000e+00
0.000000e+00		0.000000e+00		0.000000e+00
0.000000e+00		0.000000e+00		0.000000e+00
0.000000e+00		0.000000e+00		0.000000e+00
0.000000e+00		0.000000e+00		0.000000e+00
0.000000e+00		0.000000e+00		0.000000e+00
0.000000e+00		0.000000e+00		0.000000e+00
0.000000e+00		0.000000e+00		0.000000e+00
0.000000e+00		0.000000e+00		0.000000e+00
0.000000e+00		0.000000e+00		0.000000e+00
0.000000e+00		0.000000e+00		0.000000e+00
0.000000e+00		0.000000e+00		0.000000e+00
0.000000e+00		0.000000e+00		0.000000e+00
0.000000e+00		0.000000e+00		0.000000e+00
0.000000e+00		0.000000e+00		0.000000e+00
0.000000e+00		0.000000e+00		0.000000e+00
0.000000e+00		0.000000e+00		0.000000e+00
0.000000e+00		0.000000e+00		0.000000e+00
0.000000e+00		0.000000e+00		0.000000e+00
0.000000e+00		0.000000e+00		0.000000e+00
0.000000e+00		0.000000e+00		0.000000e+00
0.000000e+00		0.000000e+00		0.000000e+00
0.000000e+00		0.000000e+00		0.000000e+00
0.000000e+00		0.000000e+00		0.000000e+00
0.000000e+00		0.000000e+00		0.000000e+00
0.000000e+00		0.000000e+00		0.000000e+00
0.000000e+00		0.000000e+00		0.000000e+00
0.000000e+00		0.000000e+00		0.000000e+00
0.000000e+00		0.000000e+00		0.000000e+00
0.000000e+00		0.000000e+00		0.000000e+00
0.000000e+00		0.000000e+00		0.000000e+00
0.000000e+00		0.000000e+00		0.000000e+00
0.000000e+00		0.000000e+00		0.000000e+00
0.000000e+00		0.000000e+00		0.000000e+00
0.000000e+00		0.000000e+00		0.000000e+00
0.000000e+00		0.000000e+00		0.000000e+00
0.000000e+00		0.000000e+00		0.000000e+00
0.000000e+00		0.000000e+00		0.000000e+00
0.000000e+00		0.000000e+00		0.000000e+00
0.000000e+00		0.000000e+00		0.000000e+00
0.000000e+00		0.000000e+00		0.000000e+00
0.000000e+00		0.000000e+00		0.000000e+00
0.000000e+00		0.000000e+00		0.000000e+00
0.000000e+00		0.000000e+00		0.000000e+00
0.000000e+00		0.000000e+00		0.000000e+00
0.000000e+00		0.000000e+00		0.000000e+00
0.000000e+00		0.000000e+00		0.000000e+00
0.000000e+00		0.000000e+00		0.000000e+00
0.000000e+00		0.000000e+00		0.000000e+00
0.000000e+00		0.000000e+00		0.000000e+00
0.000000e+00		0.000000e+00		0.000000e+00
0.000000e+00		0.000000e+00		0.000000e+00
0.000000e+00		0.000000e+00		0.000000e+00
0.000000e+00		0.000000e+00		0.000000e+00
0.000000e+00		0.000000e+00		0.000000e+00
0.000000e+00		0.000000e+00		0.000000e+00
0.000000e+00		0.000000e+00		0.000000e+00
0.000000e+00		0.000000e+00		0.000000e+00
0.000000e+00		0.000000e+00		0.000000e+00
0.000000e+00		0.000000e+00		0.000000e+00
0.000000e+00		0.000000e+00		0.000000e+00
0.000000e+00		0.000000e+00		0.000000e+00
0.000000e+00		0.000000e+00		0.000000e+00
0.000000e+00		0.000000e+00		0.000000e+00
0.000000e+00		0.000000e+00		0.000000e+00
0.000000e+00		0.000000e+00		0.000000e+00
0.000000e+00		0.000000e+00		0.000000e+00
0.000000e+00		0.000000e+00		0.000000e+00
0.000000e+00		0.000000e+00		0.000000e+00
0.000000e+00		0.000000e+00		0.000000e+00
0.000000e+00		0.000000e+00		0.000000e+00
0.000000e+00		0.000000e+00		0.000000e+00
0.000000e+00		0.000000e+00		0.000000e+00
0.000000e+00		0.000000e+00		0.000000e+00
0.000000e+00		0.000000e+00		0.000000e+00
0.000000e+00		0.000000e+00		0.000000e+00
0.000000e+00		0.000000e+00		0.000000e+00
0.000000e+00		0.000000e+00		0.000000e+00
0.000000e+00		0.000000e+00		0.000000e+00
0.000000e+00		0.000000e+00		0.000000e+00
0.000000e+00		0.000000e+00		0.000000e+00
0.000000e+00		0.000000e+00		0.000000e+00
0.000000e+00		0.000000e+00		0.000000e+00
0.000000e+00		0.000000e+00		0.000000e+00
0.000000e+00		0.000000e+00		0.000000e+00
0.000000e+00		0.000000e+00		0.000000e+00
0.000000e+00		0.000000e+00		0.000000e+00
0.000000e+00		0.000000e+00		0.000000e+00
0.000000e+00		0.000000e+00		0.000000e+00
0.000000e+00		0.000000e+00		0.000000e+00
0.000000e+00		0.000000e+00		0.000000e+00
0.000000e+00		0.000000e+00		0.000000e+00
0.000000e+00		0.000000e+00		0.000000e+00
0.000000e+00		0.000000e+00		0.000000e+00
0.000000e+00		0.000000e+00		0.000000e+00
0.000000e+00		0.000000e+00		0.000000e+00
0.000000e+00		0.000000e+00		0.000000e+00
0.000000e+00		0.000000e+00		0.000000e+00
0.000000e+00		0.000000e+00		0.000000e+00
0.000000e+00		0.000000e+00		0.000000e+00
0.000000e+00		0.000000e+00		0.000000e+00
0.000000e+00		0.000000e+00		0.000000e+00
0.000000e+00		0.000000e+00		0.000000e+00
0.000000e+00		0.000000e+00		0.000000e+00
0.000000e+00		0.000000e+00		0.000000e+00
0.000000e+00		0.000000e+00		0.000000e+00
0.000000e+00		0.000000e+00		0.000000e+00
0.000000e+00		0.000000e+00		0.000000e+00
0.000000e+00		0.000000e+00		0.000000e+00
0.000000e+00		0.000000e+00		0.000000e+00
0.000000e+00		0.000000e+00		0.000000e+00
0.000000e+00		0.000000e+00		0.000000e+00
0.000000e+00		0.000000e+00		0.000000e+00
0.000000e+00		0.000000e+00		0.000000e+00
0.000000e+00		0.000000e+00		0.000000e+00
0.000000e+00		0.000000e+00		0.000000e+00
0.000000e+00		0.000000e+00		0.000000e+00
0.000000e+00		0.000000e+00		0.000000e+00
0.000000e+00		0.000000e+00		0.000000e+00
0.000000e+00		0.000000e+00		0.000000e+00
0.000000e+00		0.000000e+00		0.000000e+00
0.000000e+00		0.000000e+00		0.000000e+00
0.000000e+00		0.000000e+00		0.000000e+00
0.000000e+00		0.000000e+00		0.000000e+00
0.000000e+00		0.000000e+00		0.000000e+00
0.000000e+00		0.000000e+00		0.000000e+00
0.000000e+00		0.000000e+00		0.000000e+00
0.000000e+00		0.000000e+00		0.000000e+00
0.000000e+00		0.000000e+00		0.000000e+00
0.000000e+00		0.000000e+00		0.000000e+00
0.000000e+00		0.000000e+00		0.000000e+00
0.000000e+00		0.000000e+00		0.000000e+00
0.000000e+00		0.000000e+00		0.000000e+00
0.000000e+00		0.000000e+00		0.000000e+00
0.000000e+00		0.000000e+00		0.000000e+00
0.000000e+00		0.000000e+00		0.000000e+00
0.000000e+00		0.000000e+00		0.000000e+00
0.000000e+00		0.000000e+00		0.000000e+00
0.000000e+00		0.000000e+00		0.000000e+00
0.000000e+00		0.000000e+00		0.000000e+00
0.000000e+00		0.000000e+00		0.000000e+00
0.000000e+00		0.000000e+00		0.000000e+00
0.000000e+00		0.000000e+00		0.000000e+00
0.000000e+00		0.000000e+00		0.000000e+00
0.000000e+00		0.000000e+00		0.000000e+00
0.000000e+00		0.000000e+00		0.000000e+00
0.000000e+00		0.000000e+00		0.000000e+00
0.000000e+00		0.000000e+00		0.000000e+00
0.000000e+00		0.000000e+00		0.000000e+00
0.000000e+00		0.000000e+00		0.000000e+00
0.000000e+00		0.000000e+00		0.000000e+00
0.000000e+00		0.000000e+00		0.000000e+00
0.000000e+00		0.000000e+00		0.000000e+00
0.000000e+00		0.000000e+00		0.000000e+00
0.000000e+00		0.000000e+00		0.000000e+00
0.000000e+00		0.000000e+00		0.000000e+00
0.000000e+00		0.000000e+00		0.000000e+00
0.000000e+00		0.000000e+00		0.000000e+00
0.000000e+00		0.000000e+00		0.000000e+00
0.000000e+00		0.000000e+00		0.000000e+00
0.000000e+00		0.000000e+00		0.000000e+00
0.000000e+00		0.000000e+00		0.000000e+00
0.000000e+00		0.000000e+00		0.000000e+00
0.000000e+00		0.000000e+00		0.000000e+00
0.000000e+00		0.000000e+00		0.000000e+00
0.000000e+00		0.000000e+00		0.000000e+00
0.000000e+00		0.000000e+00		0.000000e+00
0.000000e+00		0.000000e+00		0.000000e+00
0.000000e+00		0.000000e+00		0.000000e+00
0.000000e+00		0.000000e+00		0.000000e+00
0.000000e+00		0.000000e+00		0.000000e+00
0.000000e+00		0.000000e+00		0.000000e+00
0.000000e+00		0.000000e+00		0.000000e+00
0.000000e+00		0.000000e+00		0.000000e+00
0.000000e+00		0.000000e+00		0.000000e+00
0.000000e+00		0.000000e+00		0.000000e+00
0.000000e+00		0.000000e+00		0.000000e+00
0.000000e+00		0.000000e+00		0.000000e+00
0.000000e+00		0.000000e+00		0.000000e+00
0.000000e+00		0.000000e+00		0.000000e+00
0.000000e+00		0.000000e+00		0.000000e+00
0.000000e+00		0.000000e+00		0.000000e+00
0.000000e+00		0.000000e+00		0.000000e+00
0.000000e+00		0.000000e+00		0.000000e+00
0.000000e+00		0.000000e+00		0.000000e+00
0.000000e+00		0.000000e+00		0.000000e+00
0.000000e+00		0.000000e+00		0.000000e+00
0.000000e+00		0.000000e+00		0.000000e+00
0.000000e+00		0.000000e+00		0.000000e+00
0.000000e+00		0.000000e+00		0.000000e+00
0.000000e+00		0.000000e+00		0.000000e+00
0.000000e+00		0.000000e+00		0.000000e+00
0.000000e+00		0.000000e+00		0.000000e+00
0.000000e+00		0.000000e+00		0.000000e+00
0.000000e+00		0.000000e+00		0.000000e+00
0.000000e+00		0.000000e+00		0.000000e+00
0.000000e+00		0.000000e+00		0.000000e+00
0.000000e+00		0.000000e+00		0.000000e+00
0.000000e+00		0.000000e+00		0.000000e+00
0.000000e+00		0.000000e+00		0.000000e+00
0.000000e+00		0.000000e+00		0.000000e+00
0.000000e+00		0.000000e+00		0.000000e+00
0.000000e+00		0.000000e+00		0.000000e+00
0.000000e+00		0.000000e+00		0.000000e+00
0.000000e+00		0.000000e+00		0.000000e+00
0.000000e+00		0.000000e+00		0.000000e+00
0.000000e+00		0.000000e+00		0.000000e+00
0.000000e+00		0.000000e+00		0.000000e+00
0.000000e+00		0.000000e+00		0.000000e+00
0.000000e+00		0.000000e+00		0.000000e+00
0.000000e+00		0.000000e+00		0.000000e+00
0.000000e+00		0.000000e+00		0.000000e+00
0.000000e+00		0.000000e+00		0.000000e+00
0.000000e+00		0.000000e+00		0.000000e+00
0.000000e+00		0.000000e+00		0.000000e+00
0.000000e+00		0.000000e+00		0.000000e+00
0.000000e+00		0.000000e+00		0.000000e+00
0.000000e+00		0.000000e+00		0.000000e+00
0.000000e+00		0.000000e+00		0.000000e+00
0.000000e+00		0.000000e+00		0.000000e+00
0.000000e+00		0.000000e+00		0.000000e+00
0.000000e+00		0.000000e+00		0.000000e+00
0.000000e+00		0.000000e+00		0.000000e+00
0.000000e+00		0.000000e+00		0.000000e+00
0.000000e+00		0.000000e+00		0.000000e+00
0.000000e+00		0.000000e+00		0.000000e+00
0.000000e+00		0.000000e+00		0.000000e+00
0.000000e+00		0.000000e+00		0.000000e+00
0.000000e+00		0.000000e+00		0.000000e+00
0.000000e+00		0.000000e+00		0.000000e+00
0.000000e+00		0.000000e+00		0.000000e+00
0.000000e+00		0.000000e+00		0.000000e+00
0.000000e+00		0.000000e+00		0.000000e+00
0.000000e+00		0.000000e+00		0.000000e+00
0.000000e+00		0.000000e+00		0.000000e+00
0.000000e+00		0.000000e+00		0.000000e+00
0.000000e+00		0.000000e+00		0.000000e+00
0.000000e+00		0.000000e+00		0.000000e+00
0.000000e+00		0.000000e+00		0.000000e+00
0.000000e+00		0.000000e+00		0.000000e+00
0.000000e+00		0.000000e+00		0.000000e+00
0.000000e+00		0.000000e+00		0.000000e+00
0.000000e+00		0.000000e+00		0.000000e+00
0.000000e+00		0.000000e+00		0.000000e+00
0.000000e+00		0.000000e+00		0.000000e+00
0.000000e+00		0.000000e+00		0.000000e+00
0.000000e+00		0.000000e+00		0.000000e+00
0.000000e+00		0.000000e+00		0.000000e+00
0.000000e+00		0.000000e+00		0.000000e+00
0.000000e+00		0.000000e+00		0.000000e+00
0.000000e+00		0.000000e+00		0.000000e+00
0.000000e+00		0.000000e+00		0.000000e+00
0.000000e+00		0.000000e+00		0.000000e+00
0.000000e+00		0.000000e+00		0.000000e+00
0.000000e+00		0.000000e+00		0.000000e+00
0.000000e+00		0.000000e+00		0.000000e+00
0.000000e+00		0.000000e+00		0.000000e+00
0.000000e+00		0.000000e+00		0.000000e+00
0.000000e+00		0.000000e+00		0.000000e+00
0.000000e+00		0.000000e+00		0.000000e+00
0.000000e+00		0.000000e+00		0.000000e+00
0.000000e+00		0.000000e+00		0.000000e+00
0.000000e+00		0.000000e+00		0.000000e+00
0.000000e+00		0.000000e+00		0.000000e+00
0.000000e+00		0.000000e+00		0.000000e+00
0.000000e+00		0.000000e+00		0.000000e+00
0.000000e+00		0.000000e+00		0.000000e+00
0.000000e+00		0.000000e+00		0.000000e+00
0.000000e+00		0.000000e+00		0.000000e+00
0.000000e+00		0.000000e+00		0.000000e+00
0.000000e+00		0.000000e+00		0.000000e+00
0.000000e+00		0.000000e+00		0.000000e+00
0.000000e+00		0.000000e+00		0.000000e+00
0.000000e+00		0.000000e+00		0.000000e+00
0.000000e+00		0.000000e+00		0.000000e+00
0.000000e+00		0.000000e+00		0.000000e+00
0.000000e+00		0.000000e+00		0.000000e+00
0.000000e+00		0.000000e+00		0.000000e+00
0.000000e+00		0.000000e+00		0.000000e+00
0.000000e+00		0.000000e+00		0.000000e+00
0.000000e+00		0.000000e+00		0.000000e+00
0.000000e+00		0.000000e+00		0.000000e+00
0.000000e+00		0.000000e+00		0.000000e+00
0.000000e+00		0.000000e+00		0.000000e+00
0.000000e+00		0.000000e+00		0.000000e+00
0.000000e+00		0.000000e+00		0.000000e+00
0.000000e+00		0.000000e+00		0.000000e+00
0.000000e+00		0.000000e+00		0.000000e+00
0.000000e+00		0.000000e+00		0.000000e+00
0.000000e+00		0.000000e+00		0.000000e+00
0.000000e+00		0.000000e+00		0.000000e+00
0.000000e+00		0.000000e+00		0.000000e+00
0.000000e+00		0.000000e+00		0.000000e+00
0.000000e+00		0.000000e+00		0.000000e+00
0.000000e+00		0.000000e+00		0.000000e+00
0.000000e+00		0.000000e+00		0.000000e+00
0.000000e+00		0.000000e+00		0.000000e+00
0.000000e+00		0.000000e+00		0.000000e+00
0.000000e+00		0.000000e+00		0.000000e+00
0.000000e+00		0.000000e+00		0.000000e+00
0.000000e+00		0.000000e+00		0.000000e+00
0.000000e+00		0.000000e+00		0.000000e+00
0.000000e+00		0.000000e+00		0.000000e+00
0.000000e+00		0.000000e+00		0.000000e+00
0.000000e+00		0.000000e+00		0.000000e+00
0.000000e+00		0.000000e+00		0.000000e+00
0.000000e+00		0.000000e+00		0.000000e+00
0.000000e+00		0.000000e+00		0.000000e+00
0.000000e+00		0.000000e+00		0.000000e+00
0.000000e+00		0.000000e+00		0.000000e+00
0.000000e+00		0.000000e+00		0.000000e+00
0.000000e+00		0.000000e+00		0.000000e+00
0.000000e+00		0.000000e+00		0.000000e+00
0.000000e+00		0.000000e+00		0.000000e+00
0.000000e+00		0.000000e+00		0.000000e+00
0.000000e+00		0.000000e+00		0.000000e+00
0.000000e+00		0.000000e+00		0.000000e+00
0.000000e+00		0.000000e+00		0.000000e+00
0.000000e+00		0.000000e+00		0.000000e+00
0.000000e+00		0.000000e+00		0.000000e+00
0.000000e+00		0.000000e+00		0.000000e+00
0.000000e+00		0.000000e+00		0.000000e+00
0.000000e+00		0.000000e+00		0.000000e+00
0.000000e+00		0.000000e+00		0.000000e+00
0.000000e+00		0.000000e+00		0.000000e+00
0.000000e+00		0.000000e+00		0.000000e+00
0.000000e+00		0.000000e+00		0.000000e+00
0.000000e+00		0.000000e+00		0.000000e+00
0.000000e+00		0.000000e+00		0.000000e+00
0.000000e+00		0.000000e+00		0.000000e+00
0.000000e+00		0.000000e+00		0.000000e+00
0.000000e+00		0.000000e+00		0.000000e+00
0.000000e+00		0.000000e+00		0.000000e+00
0.000000e+00		0.000000e+00		0.000000e+00
0.000000e+00		0.000000e+00		0.000000e+00
0.000000e+00		0.000000e+00		0.000000e+00
0.000000e+00		0.000000e+00		0.000000e+00
0.000000e+00		0.000000e+00		0.000000e+00
0.000000e+00		0.000000e+00		0.000000e+00
0.000000e+00		0.000000e+00		0.000000e+00
0.000000e+00		0.000000e+00		0.000000e+00
0.000000e+00		0.000000e+00		0.000000e+00
0.000000e+00		0.000000e+00		0.000000e+00
0.000000e+00		0.000000e+00		0.000000e+00
0.000000e+00		0.000000e+00		0.000000e+00
0.000000e+00		0.000000e+00		0.000000e+00
0.000000e+00		0.000000e+00		0.000000e+00
0.000000e+00		0.000000e+00		0.000000e+00
0.000000e+00		0.000000e+00		0.000000e+00
0.000000e+00		0.000000e+00		0.000000e+00
0.000000e+00		0.000000e+00		0.000000e+00
0.000000e+00		0.000000e+00		0.000000e+00
0.000000e+00		0.000000e+00		0.000000e+00
0.000000e+00		0.000000e+00		0.000000e+00
0.000000e+00		0.000000e+00		0.000000e+00
0.000000e+00		0.000000e+00		0.000000e+00
0.000000e+00		0.000000e+00		0.000000e+00
0.000000e+00		0.000000e+00		0.000000e+00
0.000000e+00		0.000000e+00		0.000000e+00
0.000000e+00		0.000000e+00		0.000000e+00
0.000000e+00		0.000000e+00		0.000000e+00
0.000000e+00		0.000000e+00		0.000000e+00
0.000000e+00		0.000000e+00		0.000000e+00
0.000000e+00		0.000000e+00		0.000000e+00
0.000000e+00		0.000000e+00		0.000000e+00
0.000000e+00		0.000000e+00		0.000000e+00
0.000000e+00		0.000000e+00		0.000000e+00
0.000000e+00		0.000000e+00		0.000000e+00
0.000000e+00		0.000000e+00		0.000000e+00
0.000000e+00		0.000000e+00		0.000000e+00
0.000000e+00		0.000000e+00		0.000000e+00
0.000000e+00		0.000000e+00		0.000000e+00
0.000000e+00		0.000000e+00		0.000000e+00
0.000000e+00		0.000000e+00		0.000000e+00
0.000000e+00		0.000000e+00		0.000000e+00
0.000000e+00		0.000000e+00		0.000000e+00
0.000000e+00		0.000000e+00		0.000000e+00
0.000000e+00		0.000000e+00		0.000000e+00
0.000000e+00		0.000000e+00		0.000000e+00
0.000000e+00		0.000000e+00		0.000000e+00
0.000000e+00		0.000000e+00		0.000000e+00
0.000000e+00		0.000000e+00		0.000000e+00
0.000000e+00		0.000000e+00		0.000000e+00
0.000000e+00		0.000000e+00		0.000000e+00
0.000000e+00		0.000000e+00		0.000000e+00
0.000000e+00		0.000000e+00		0.000000e+00
0.000000e+00		0.000000e+00		0.000000e+00
0.000000e+00		0.000000e+00		0.000000e+00
0.000000e+00		0.000000e+00		0.000000e+00
0.000000e+00		0.000000e+00		0.000000e+00
0.000000e+00		0.000000e+00		0.000000e+00
0.000000e+00		0.000000e+00		0.000000e+00
0.000000e+00		0.000000e+00		0.000000e+00
0.000000e+00		0.000000e+00		0.000000e+00
0.000000e+00		0.000000e+00		0.000000e+00
0.000000e+00		0.000000e+00		0.000000e+00
0.000000e+00		0.000000e+00		0.000000e+00
0.000000e+00		0.000000e+00		0.000000e+00
0.000000e+00		0.000000e+00		0.000000e+00
0.000000e+00		0.000000e+00		0.000000e+00
0.000000e+00		0.000000e+00		0.000000e+00
0.000000e+00		0.000000e+00		0.000000e+00
0.000000e+00		0.000000e+00		0.000000e+00
0.000000e+00		0.000000e+00		0.000000e+00
0.000000e+00		0.000000e+00		0.000000e+00
0.000000e+00		0.000000e+00		0.000000e+00
0.000000e+00		0.000000e+00		0.000000e+00
0.000000e+00		0.000000e+00		0.000000e+00
0.000000e+00		0.000000e+00		0.000000e+00
0.000000e+00		0.000000e+00		0.000000e+00
0.000000e+00		0.000000e+00		0.000000e+00
0.000000e+00		0.000000e+00		0.000000e+00
0.000000e+00		0.000000e+00		0.000000e+00
0.000000e+00		0.000000e+00		0.000000e+00
0.000000e+00		0.000000e+00		0.000000e+00
0.000000e+00		0.000000e+00		0.000000e+00
0.000000e+00		0.000000e+00		0.000000e+00
0.000000e+00		0.000000e+00		0.000000e+00
0.000000e+00		0.000000e+00		0.000000e+00
0.000000e+00		0.000000e+00		0.000000e+00
0.000000e+00		0.000000e+00		0.000000e+00
0.000000e+00		0.000000e+00		0.000000e+00
0.000000e+00		0.000000e+00		0.000000e+00
0.000000e+00		0.000000e+00		0.000000e+00
0.000000e+00		0.000000e+00		0.000000e+00
0.000000e+00		0.000000e+00		0.000000e+00
0.000000e+00		0.000000e+00		0.000000e+00
0.000000e+00		0.000000e+00		0.000000e+00
0.000000e+00		0.000000e+00		0.000000e+00
0.000000e+00		0.000000e+00		0.000000e+00
0.000000e+00		0.000000e+00		0.000000e+00
0.000000e+00		0.000000e+00		0.000000e+00
0.000000e+00		0.000000e+00		0.000000e+00
0.000000e+00		0.000000e+00		0.000000e+00
0.000000e+00		0.000000e+00		0.000000e+00
0.000000e+00		0.000000e+00		0.000000e+00
0.000000e+00		0.000000e+00		0.000000e+00
0.000000e+00		0.000000e+00		0.000000e+00
0.000000e+00		0.000000e+00		0.000000e+00
0.000000e+00		0.000000e+00		0.000000e+00
0.000000e+00		0.000000e+00		0.000000e+00
0.000000e+00		0.000000e+00		0.000000e+00
0.000000e+00		0.000000e+00		0.000000e+00
0.000000e+00		0.000000e+00		0.000000e+00
0.000000e+00		0.000000e+00		0.000000e+00
0.000000e+00		0.000000e+00		0.000000e+00
0.000000e+00		0.000000e+00		0.000000e+00
0.000000e+00		0.000000e+00		0.000000e+00
0.000000e+00		0.000000e+00		0.000000e+00
0.000000e+00		0.000000e+00		0.000000e+00
0.000000e+00		0.000000e+00		0.000000e+00
0.000000e+00		0.000000e+00		0.000000e+00
0.000000e+00		0.000000e+00		0.000000e+00
0.000000e+00		0.000000e+00		0.000000e+00
0.000000e+00		0.000000e+00		0.000000e+00
0.000000e+00		0.000000e+00		0.000000e+00
0.000000e+00		0.000000e+00		0.000000e+00
0.000000e+00		0.000000e+00		0.000000e+00
0.000000e+00		0.000000e+00		0.000000e+00
0.000000e+00		0.000000e+00		0.000000e+00
0.000000e+00		0.000000e+00		0.000000e+00
0.000000e+00		0.000000e+00		0.000000e+00
0.000000e+00		0.000000e+00		0.000000e+00
0.000000e+00		0.000000e+00		0.000000e+00
0.000000e+00		0.000000e+00		0.000000e+00
0.000000e+00		0.000000e+00		0.000000e+00
0.000000e+00		0.000000e+00		0.000000e+00
0.000000e+00		0.000000e+00		0.000000e+00
0.000000e+00		0.000000e+00		0.000000e+00
0.000000e+00		0.000000e+00		0.000000e+00
0.000000e+00		0.000000e+00		0.000000e+00
0.000000e+00		0.000000e+00		0.000000e+00
0.000000e+00		0.000000e+00		0.000000e+00
0.000000e+00		0.000000e+00		0.000000e+00
0.000000e+00		0.000000e+00		0.000000e+00
0.000000e+00		0.000000e+00		0.000000e+00
0.000000e+00		0.000000e+00		0.000000e+00
0.000000e+00		0.000000e+00		0.000000e+00
0.000000e+00		0.000000e+00		0.000000e+00
0.000000e+00		0.000000e+00		0.000000e+00
0.000000e+00		0.000000e+00		0.000000e+00
0.000000e+00		0.000000e+00		0.000000e+00
0.000000e+00		0.000000e+00		0.000000e+00
0.000000e+00		0.000000e+00		0.000000e+00
0.000000e+00		0.000000e+00		0.000000e+00
0.000000e+00		0.000000e+00		0.000000e+00
0.000000e+00		0.000000e+00		0.000000e+00
0.000000e+00		0.000000e+00		0.000000e+00
0.000000e+00		0.000000e+00		0.000000e+00
0.000000e+00		0.000000e+00		0.000000e+00
0.000000e+00		0.000000e+00		0.000000e+00
0.000000e+00		0.000000e+00		0.000000e+00
0.000000e+00		0.000000e+00		0.000000e+00
0.000000e+00		0.000000e+00		0.000000e+00
0.000000e+00		0.000000e+00		0.000000e+00
0.000000e+00		0.000000e+00		0.000000e+00
0.000000e+00		0.000000e+00		0.000000e+00
0.000000e+00		0.000000e+00		0.000000e+00
0.000000e+00		0.000000e+00		0.000000e+00
0.000000e+00		0.000000e+00		0.000000e+00
0.000000e+00		0.000000e+00		0.000000e+00
3.778611e+07		3.308515e+07		1.211239e+07
1.799739e+08		6.387590e+07		-5.247175e+08
6.737997e+07		-1.095432e+07		8.202554e+07
2.017050e+08		3.266005e+07		-5.697097e+08
6.747586e+07		6.057322e-06		8.431886e+07
2.017050e+08		-3.266005e+07		-5.697097e+08
6.737997e+07		1.095432e+07		8.202554e+07
1.799739e+08		-6.387590e+07		-5.247175e+08
3.778611e+07		-3.308515e+07		1.211239e+07
-1.941202e+06		1.810897e+08		-4.678578e+08
5.773652e+07		1.057093e+08		-7.267565e+08
7.238231e+07		-1.731515e-05		-7.359466e+08
5.773652e+07		-1.057093e+08		-7.267565e+08
-1.941202e+06		-1.810897e+08		-4.678578e+08
-1.000739e+07		1.797908e+07		7.909712e+07
5.116961e+07		7.426742e+07		-4.706006e+08
-1.078847e+07		-2.277699e+07		2.382397e+08
1.034122e+08		3.747146e+07		-4.914257e+08
-2.330846e+07		7.236309e-06		2.473873e+08
1.034122e+08		-3.747146e+07		-4.914257e+08
-1.078847e+07		2.277699e+07		2.382397e+08
5.116961e+07		-7.426742e+07		-4.706006e+08
-1.000739e+07		-1.797908e+07		7.909712e+07
-7.613523e+06		5.735728e+07		-1.580305e+08
6.062965e+07		3.327049e+07		-2.428118e+08
8.579172e+07		1.903849e-06		-2.441246e+08
6.062965e+07		-3.327049e+07		-2.428118e+08
-7.613523e+06		-5.735728e+07		-1.580305e+08
-1.770182e+07		-1.214445e-06		-4.004687e-07
1.360173e+07		2.719462e-06		9.123236e-06
-2.699385e+07		-9.983778e-07		-5.461276e-06
7.368873e+07		6.694347e-06		6.482005e-07
-4.591588e+07		3.786758e-06		-1.501292e-06
7.368873e+07		4.805624e-07		-1.079589e-05
-2.699385e+07		6.075948e-06		1.021847e-05
1.360173e+07		-2.913177e-06		-1.825765e-05
-1.770182e+07		-1.665205e-06		6.705523e-07
-7.613523e+06		-5.735728e+07		1.580305e+08
6.062965e+07		-3.327049e+07		2.428118e+08
8.579172e+07		6.549060e-06		2.441246e+08
6.062965e+07		3.327049e+07		2.428118e+08
-7.613523e+06		5.735728e+07		1.580305e+08
-1.000739e+07		-1.797908e+07		-7.909712e+07
5.116961e+07		-7.426742e+07		4.706006e+08
-1.078847e+07		2.277699e+07		-2.382397e+08
1.034122e+08		-3.747146e+07		4.914257e+08
-2.330846e+07		-2.257526e-06		-2.473873e+08
1.034122e+08		3.747146e+07		4.914257e+08
-1.078847e+07		-2.277699e+07		-2.382397e+08
5.116961e+07		7.426742e+07		4.706006e+08
-1.000739e+07		1.797908e+07		-7.909712e+07
-1.941202e+06		-1.810897e+08		4.678578e+08
5.773652e+07		-1.057093e+08		7.267565e+08
7.238231e+07		1.274049e-05		7.359466e+08
5.773652e+07		1.057093e+08		7.267565e+08
-1.941202e+06		1.810897e+08		4.678578e+08
3.778611e+07		-3.308515e+07		-1.211239e+07
1.799739e+08		-6.387590e+07		5.247175e+08
6.737997e+07		1.095432e+07		-8.202554e+07
2.017050e+08		-3.266005e+07		5.697097e+08
6.747586e+07		-3.695488e-06		-8.431886e+07
2.017050e+08		3.266005e+07		5.697097e+08
6.737997e+07		-1.095432e+07		-8.202554e+07
1.799739e+08		6.387590e+07		5.247175e+08
3.778611e+07		3.308515e+07		-1.211239e+07
VECTORS velocity double
0.000000e+00		0.000000e+00		0.000000e+00
0.000000e+00		0.000000e+00		0.000000e+00
0.000000e+00		0.000000e+00		0.000000e+00
0.000000e+00		0.000000e+00		0.000000e+00
0.000000e+00		0.000000e+00		0.000000e+00
0.000000e+00		0.000000e+00		0.000000e+00
0.000000e+00		0.000000e+00		0.000000e+00
0.000000e+00		0.000000e+00		0.000000e+00
0.000000e+00		0.000000e+00		0.000000e+00
0.000000e+00		0.000000e+00		0.000000e+00
0.000000e+00		0.000000e+00		0.000000e+00
0.000000e+00		0.000000e+00		0.000000e+00
0.000000e+00		0.000000e+00		0.000000e+00
0.000000e+00		0.000000e+00		0.000000e+00
0.000000e+00		0.000000e+00		0.000000e+00
0.000000e+00		0.000000e+00		0.000000e+00
0.000000e+00		0.000000e+00		0.000000e+00
0.000000e+00		0.000000e+00		0.000000e+00
0.000000e+00		0.000000e+00		0.000000e+00
0.000000e+00		0.000000e+00		0.000000e+00
0.000000e+00		0.000000e+00		0.000000e+00
0.000000e+00		0.000000e+00		0.000000e+00
0.000000e+00		0.000000e+00		0.000000e+00
0.000000e+00		0.000000e+00		0.000000e+00
0.000000e+00		0.000000e+00		0.000000e+00
0.000000e+00		0.000000e+00		0.000000e+00
0.000000e+00		0.000000e+00		0.000000e+00
0.000000e+00		0.000000e+00		0.000000e+00
0.000000e+00		0.000000e+00		0.000000e+00
0.000000e+00		0.000000e+00		0.000000e+00
0.000000e+00		0.000000e+00		0.000000e+00
0.000000e+00		0.000000e+00		0.000000e+00
0.000000e+00		0.000000e+00		0.000000e+00
0.000000e+00		0.000000e+00		0.000000e+00
0.000000e+00		0.000000e+00		0.000000e+00
0.000000e+00		0.000000e+00		0.000000e+00
0.000000e+00		0.000000e+00		0.000000e+00
0.000000e+00		0.000000e+00		0.000000e+00
0.000000e+00		0.000000e+00		0.000000e+00
0.000000e+00		0.000000e+00		0.000000e+00
0.000000e+00		0.000000e+00		0.000000e+00
0.000000e+00		0.000000e+00		0.000000e+00
0.000000e+00		0.000000e+00		0.000000e+00
0.000000e+00		0.000000e+00		0.000000e+00
0.000000e+00		0.000000e+00		0.000000e+00
0.000000e+00		0.000000e+00		0.000000e+00
0.000000e+00		0.000000e+00		0.000000e+00
0.000000e+00		0.000000e+00		0.000000e+00
0.000000e+00		0.000000e+00		0.000000e+00
0.000000e+00		0.000000e+00		0.000000e+00
0.000000e+00		0.000000e+00		0.000000e+00
0.000000e+00		0.000000e+00		0.000000e+00
0.000000e+00		0.000000e+00		0.000000e+00
0.000000e+00		0.000000e+00		0.000000e+00
0.000000e+00		0.000000e+00		0.000000e+00
0.000000e+00		0.000000e+00		0.000000e+00
0.000000e+00		0.000000e+00		0.000000e+00
0.000000e+00		0.000000e+00		0.000000e+00
0.000000e+00		0.000000e+00		0.000000e+00
0.000000e+00		0.000000e+00		0.000000e+00
0.000000e+00		0.000000e+00		0.000000e+00
0.000000e+00		0.000000e+00		0.000000e+00
0.000000e+00		0.000000e+00		0.000000e+00
0.000000e+00		0.000000e+00		0.000000e+00
0.000000e+00		0.000000e+00		0.000000e+00
0.000000e+00		0.000000e+00		0.000000e+00
0.000000e+00		0.000000e+00		0.000000e+00
0.000000e+00		0.000000e+00		0.000000e+00
0.000000e+00		0.000000e+00		0.000000e+00
0.000000e+00		0.000000e+00		0.000000e+00
0.000000e+00		0.000000e+00		0.000000e+00
0.000000e+00		0.000000e+00		0.000000e+00
0.000000e+00		0.000000e+00		0.000000e+00
0.000000e+00		0.000000e+00		0.000000e+00
0.000000e+00		0.000000e+00		0.000000e+00
0.000000e+00		0.000000e+00		0.000000e+00
0.000000e+00		0.000000e+00		0.000000e+00
0.000000e+00		0.000000e+00		0.000000e+00
0.000000e+00		0.000000e+00		0.000000e+00
0.000000e+00		0.000000e+00		0.000000e+00
0.000000e+00		0.000000e+00		0.000000e+00
0.000000e+00		0.000000e+00		0.000000e+00
0.000000e+00		0.000000e+00		0.000000e+00
0.000000e+00		0.000000e+00		0.000000e+00
0.000000e+00		0.000000e+00		0.000000e+00
0.000000e+00		0.000000e+00		0.000000e+00
0.000000e+00		0.000000e+00		0.000000e+00
0.000000e+00		0.000000e+00		0.000000e+00
0.000000e+00		0.000000e+00		0.000000e+00
0.000000e+00		0.000000e+00		0.000000e+00
0.000000e+00		0.000000e+00		0.000000e+00
0.000000e+00		0.000000e+00		0.000000e+00
0.000000e+00		0.000000e+00		0.000000e+00
0.000000e+00		0.000000e+00		0.000000e+00
0.000000e+00		0.000000e+00		0.000000e+00
0.000000e+00		0.000000e+00		0.000000e+00
0.000000e+00		0.000000e+00		0.000000e+00
0.000000e+00		0.000000e+00		0.000000e+00
0.000000e+00		0.000000e+00		0.000000e+00
0.000000e+00		0.000000e+00		0.000000e+00
0.000000e+00		0.000000e+00		0.000000e+00
0.000000e+00		0.000000e+00		0.000000e+00
0.000000e+00		0.000000e+00		0.000000e+00
0.000000e+00		0.000000e+00		0.000000e+00
0.000000e+00		0.000000e+00		0.000000e+00
0.000000e+00		0.000000e+00		0.000000e+00
0.000000e+00		0.000000e+00		0.000000e+00
0.000000e+00		0.000000e+00		0.000000e+00
0.000000e+00		0.000000e+00		0.000000e+00
0.000000e+00		0.000000e+00		0.000000e+00
0.000000e+00		0.000000e+00		0.000000e+00
0.000000e+00		0.000000e+00		0.000000e+00
0.000000e+00		0.000000e+00		0.000000e+00
0.000000e+00		0.000000e+00		0.000000e+00
0.000000e+00		0.000000e+00		0.000000e+00
0.000000e+00		0.000000e+00		0.000000e+00
0.000000e+00		0.000000e+00		0.000000e+00
0.000000e+00		0.000000e+00		0.000000e+00
0.000000e+00		0.000000e+00		0.000000e+00
0.000000e+00		0.000000e+00		0.000000e+00
0.000000e+00		0.000000e+00		0.000000e+00
0.000000e+00		0.000000e+00		0.000000e+00
0.000000e+00		0.000000e+00		0.000000e+00
0.000000e+00		0.000000e+00		0.000000e+00
0.000000e+00		0.000000e+00		0.000000e+00
0.000000e+00		0.000000e+00		0.000000e+00
0.000000e+00		0.000000e+00		0.000000e+00
0.000000e+00		0.000000e+00		0.000000e+00
0.000000e+00		0.000000e+00		0.000000e+00
0.000000e+00		0.000000e+00		0.000000e+00
0.000000e+00		0.000000e+00		0.000000e+00
0.000000e+00		0.000000e+00		0.000000e+00
0.000000e+00		0.000000e+00		0.000000e+00
0.000000e+00		0.000000e+00		0.000000e+00
0.000000e+00		0.000000e+00		0.000000e+00
0.000000e+00		0.000000e+00		0.000000e+00
0.000000e+00		0.000000e+00		0.000000e+00
0.000000e+00		0.000000e+00		0.000000e+00
0.000000e+00		0.000000e+00		0.000000e+00
0.000000e+00		0.000000e+00		0.000000e+00
0.000000e+00		0.000000e+00		0.000000e+00
0.000000e+00		0.000000e+00		0.000000e+00
0.000000e+00		0.000000e+00		0.000000e+00
0.000000e+00		0.000000e+00		0.000000e+00
0.000000e+00		0.000000e+00		0.000000e+00
0.000000e+00		0.000000e+00		0.000000e+00
0.000000e+00		0.000000e+00		0.000000e+00
0.000000e+00		0.000000e+00		0.000000e+00
0.000000e+00		0.000000e+00		0.000000e+00
0.000000e+00		0.000000e+00		0.000000e+00
0.000000e+00		0.000000e+00		0.000000e+00
0.000000e+00		0.000000e+00		0.000000e+00
0.000000e+00		0.000000e+00		0.000000e+00
0.000000e+00		0.000000e+00		0.000000e+00
0.000000e+00		0.000000e+00		0.000000e+00
0.000000e+00		0.000000e+00		0.000000e+00
0.000000e+00		0.000000e+00		0.000000e+00
0.000000e+00		0.000000e+00		0.000000e+00
0.000000e+00		0.000000e+00		0.000000e+00
0.000000e+00		0.000000e+00		0.000000e+00
0.000000e+00		0.000000e+00		0.000000e+00
0.000000e+00		0.000000e+00		0.000000e+00
0.000000e+00		0.000000e+00		0.000000e+00
0.000000e+00		0.000000e+00		0.000000e+00
0.000000e+00		0.000000e+00		0.000000e+00
0.000000e+00		0.000000e+00		0.000000e+00
0.000000e+00		0.000000e+00		0.000000e+00
0.000000e+00		0.000000e+00		0.000000e+00
0.000000e+00		0.000000e+00		0.000000e+00
0.000000e+00		0.000000e+00		0.000000e+00
0.000000e+00		0.000000e+00		0.000000e+00
0.000000e+00		0.000000e+00		0.000000e+00
0.000000e+00		0.000000e+00		0.000000e+00
0.000000e+00		0.000000e+00		0.000000e+00
0.000000e+00		0.000000e+00		0.000000e+00
0.000000e+00		0.000000e+00		0.000000e+00
0.000000e+00		0.000000e+00		0.000000e+00
0.000000e+00		0.000000e+00		0.000000e+00
0.000000e+00		0.000000e+00		0.000000e+00
0.000000e+00		0.000000e+00		0.000000e+00
0.000000e+00		0.000000e+00		0.000000e+00
0.000000e+00		0.000000e+00		0.000000e+00
0.000000e+00		0.000000e+00		0.000000e+00
0.000000e+00		0.000000e+00		0.000000e+00
0.000000e+00		0.000000e+00		0.000000e+00
0.000000e+00		0.000000e+00		0.000000e+00
0.000000e+00		0.000000e+00		0.000000e+00
0.000000e+00		0.000000e+00		0.000000e+00
0.000000e+00		0.000000e+00		0.000000e+00
0.000000e+00		0.000000e+00		0.000000e+00
0.000000e+00		0.000000e+00		0.000000e+00
0.000000e+00		0.000000e+00		0.000000e+00
0.000000e+00		0.000000e+00		0.000000e+00
0.000000e+00		0.000000e+00		0.000000e+00
0.000000e+00		0.000000e+00		0.000000e+00
0.000000e+00		0.000000e+00		0.000000e+00
0.000000e+00		0.000000e+00		0.000000e+00
0.000000e+00		0.000000e+00		0.000000e+00
0.000000e+00		0.000000e+00		0.000000e+00
0.000000e+00		0.000000e+00		0.000000e+00
0.000000e+00		0.000000e+00		0.000000e+00
0.000000e+00		0.000000e+00		0.000000e+00
0.000000e+00		0.000000e+00		0.000000e+00
0.000000e+00		0.000000e+00		0.000000e+00
0.000000e+00		0.000000e+00		0.000000e+00
0.000000e+00		0.000000e+00		0.000000e+00
0.000000e+00		0.000000e+00		0.000000e+00
0.000000e+00		0.000000e+00		0.000000e+00
0.000000e+00		0.000000e+00		0.000000e+00
0.000000e+00		0.000000e+00		0.000000e+00
0.000000e+00		0.000000e+00		0.000000e+00
0.000000e+00		0.000000e+00		0.000000e+00
0.000000e+00		0.000000e+00		0.000000e+00
0.000000e+00		0.000000e+00		0.000000e+00
0.000000e+00		0.000000e+00		0.000000e+00
0.000000e+00		0.000000e+00		0.000000e+00
0.000000e+00		0.000000e+00		0.000000e+00
0.000000e+00		0.000000e+00		0.000000e+00
0.000000e+00		0.000000e+00		0.000000e+00
0.000000e+00		0.000000e+00		0.000000e+00
0.000000e+00		0.000000e+00		0.000000e+00
0.000000e+00		0.000000e+00		0.000000e+00
0.000000e+00		0.000000e+00		0.000000e+00
0.000000e+00		0.000000e+00		0.000000e+00
0.000000e+00		0.000000e+00		0.000000e+00
0.000000e+00		0.000000e+00		0.000000e+00
0.000000e+00		0.000000e+00		0.000000e+00
0.000000e+00		0.000000e+00		0.000000e+00
0.000000e+00		0.000000e+00		0.000000e+00
0.000000e+00		0.000000e+00		0.000000e+00
0.000000e+00		0.000000e+00		0.000000e+00
0.000000e+00		0.000000e+00		0.000000e+00
0.000000e+00		0.000000e+00		0.000000e+00
0.000000e+00		0.000000e+00		0.000000e+00
0.000000e+00		0.000000e+00		0.000000e+00
0.000000e+00		0.000000e+00		0.000000e+00
0.000000e+00		0.000000e+00		0.000000e+00
0.000000e+00		0.000000e+00		0.000000e+00
0.000000e+00		0.000000e+00		0.000000e+00
0.000000e+00		0.000000e+00		0.000000e+00
0.000000e+00		0.000000e+00		0.000000e+00
0.000000e+00		0.000000e+00		0.000000e+00
0.000000e+00		0.000000e+00		0.000000e+00
0.000000e+00		0.000000e+00		0.000000e+00
0.000000e+00		0.000000e+00		0.000000e+00
0.000000e+00		0.000000e+00		0.000000e+00
0.000000e+00		0.000000e+00		0.000000e+00
0.000000e+00		0.000000e+00		0.000000e+00
0.000000e+00		0.000000e+00		0.000000e+00
0.000000e+00		0.000000e+00		0.000000e+00
0.000000e+00		0.000000e+00		0.000000e+00
0.000000e+00		0.000000e+00		0.000000e+00
0.000000e+00		0.000000e+00		0.000000e+00
0.000000e+00		0.000000e+00		0.000000e+00
0.000000e+00		0.000000e+00		0.000000e+00
0.000000e+00		0.000000e+00		0.000000e+00
0.000000e+00		0.000000e+00		0.000000e+00
0.000000e+00		0.000000e+00		0.000000e+00
0.000000e+00		0.000000e+00		0.000000e+00
0.000000e+00		0.000000e+00		0.000000e+00
0.000000e+00		0.000000e+00		0.000000e+00
0.000000e+00		0.000000e+00		0.000000e+00
0.000000e+00		0.000000e+00		0.000000e+00
0.000000e+00		0.000000e+00		0.000000e+00
0.000000e+00		0.000000e+00		0.000000e+00
0.000000e+00		0.000000e+00		0.000000e+00
0.000000e+00		0.000000e+00		0.000000e+00
0.000000e+00		0.000000e+00		0.000000e+00
0.000000e+00		0.000000e+00		0.000000e+00
0.000000e+00		0.000000e+00		0.000000e+00
0.000000e+00		0.000000e+00		0.000000e+00
0.000000e+00		0.000000e+00		0.000000e+00
0.000000e+00		0.000000e+00		0.000000e+00
0.000000e+00		0.000000e+00		0.000000e+00
0.000000e+00		0.000000e+00		0.000000e+00
0.000000e+00		0.000000e+00		0.000000e+00
0.000000e+00		0.000000e+00		0.000000e+00
0.000000e+00		0.000000e+00		0.000000e+00
0.000000e+00		0.000000e+00		0.000000e+00
0.000000e+00		0.000000e+00		0.000000e+00
0.000000e+00		0.000000e+00		0.000000e+00
0.000000e+00		0.000000e+00		0.000000e+00
0.000000e+00		0.000000e+00		0.000000e+00
0.000000e+00		0.000000e+00		0.000000e+00
0.000000e+00		0.000000e+00		0.000000e+00
0.000000e+00		0.000000e+00		0.000000e+00
0.000000e+00		0.000000e+00		0.000000e+00
0.000000e+00		0.000000e+00		0.000000e+00
0.000000e+00		0.000000e+00		0.000000e+00
0.000000e+00		0.000000e+00		0.000000e+00
0.000000e+00		0.000000e+00		0.000000e+00
0.000000e+00		0.000000e+00		0.000000e+00
0.000000e+00		0.000000e+00		0.000000e+00
0.000000e+00		0.000000e+00		0.000000e+00
0.000000e+00		0.000000e+00		0.000000e+00
0.000000e+00		0.000000e+00		0.000000e+00
0.000000e+00		0.000000e+00		0.000000e+00
0.000000e+00		0.000000e+00		0.000000e+00
0.000000e+00		0.000000e+00		0.000000e+00
0.000000e+00		0.000000e+00		0.000000e+00
0.000000e+00		0.000000e+00		0.000000e+00
0.000000e+00		0.000000e+00		0.000000e+00
0.000000e+00		0.000000e+00		0.000000e+00
0.000000e+00		0.000000e+00		0.000000e+00
0.000000e+00		0.000000e+00		0.000000e+00
0.000000e+00		0.000000e+00		0.000000e+00
0.000000e+00		0.000000e+00		0.000000e+00
0.000000e+00		0.000000e+00		0.000000e+00
0.000000e+00		0.000000e+00		0.000000e+00
0.000000e+00		0.000000e+00		0.000000e+00
0.000000e+00		0.000000e+00		0.000000e+00
0.000000e+00		0.000000e+00		0.000000e+00
0.000000e+00		0.000000e+00		0.000000e+00
0.000000e+00		0.000000e+00		0.000000e+00
0.000000e+00		0.000000e+00		0.000000e+00
0.000000e+00		0.000000e+00		0.000000e+00
0.000000e+00		0.000000e+00		0.000000e+00
0.000000e+00		0.000000e+00		0.000000e+00
0.000000e+00		0.000000e+00		0.000000e+00
0.000000e+00		0.000000e+00		0.000000e+00
0.000000e+00		0.000000e+00		0.000000e+00
0.000000e+00		0.000000e+00		0.000000e+00
0.000000e+00		0.000000e+00		0.000000e+00
0.000000e+00		0.000000e+00		0.000000e+00
0.000000e+00		0.000000e+00		0.000000e+00
0.000000e+00		0.000000e+00		0.000000e+00
0.000000e+00		0.000000e+00		0.000000e+00
0.000000e+00		0.000000e+00		0.000000e+00
0.000000e+00		0.000000e+00		0.000000e+00
0.000000e+00		0.000000e+00		0.000000e+00
0.000000e+00		0.000000e+00		0.000000e+00
0.000000e+00		0.000000e+00		0.000000e+00
0.000000e+00		0.000000e+00		0.000000e+00
0.000000e+00		0.000000e+00		0.000000e+00
0.000000e+00		0.000000e+00		0.000000e+00
0.000000e+00		0.000000e+00		0.000000e+00
0.000000e+00		0.000000e+00		0.000000e+00
0.000000e+00		0.000000e+00		0.000000e+00
0.000000e+00		0.000000e+00		0.000000e+00
0.000000e+00		0.000000e+00		0.000000e+00
0.000000e+00		0.000000e+00		0.000000e+00
0.000000e+00		0.000000e+00		0.000000e+00
0.000000e+00		0.000000e+00		0.000000e+00
0.000000e+00		0.000000e+00		0.000000e+00
0.000000e+00		0.000000e+00		0.000000e+00
0.000000e+00		0.000000e+00		0.000000e+00
0.000000e+00		0.000000e+00		0.000000e+00
0.000000e+00		0.000000e+00		0.000000e+00
0.000000e+00		0.000000e+00		0.000000e+00
0.000000e+00		0.000000e+00		0.000000e+00
0.000000e+00		0.000000e+00		0.000000e+00
0.000000e+00		0.000000e+00		0.000000e+00
0.000000e+00		0.000000e+00		0.000000e+00
0.000000e+00		0.000000e+00		0.000000e+00
0.000000e+00		0.000000e+00		0.000000e+00
0.000000e+00		0.000000e+00		0.000000e+00
0.000000e+00		0.000000e+00		0.000000e+00
0.000000e+00		0.000000e+00		0.000000e+00
0.000000e+00		0.000000e+00		0.000000e+00
0.000000e+00		0.000000e+00		0.000000e+00
0.000000e+00		0.000000e+00		0.000000e+00
0.000000e+00		0.000000e+00		0.000000e+00
0.000000e+00		0.000000e+00		0.000000e+00
0.000000e+00		0.000000e+00		0.000000e+00
0.000000e+00		0.000000e+00		0.000000e+00
0.000000e+00		0.000000e+00		0.000000e+00
0.000000e+00		0.000000e+00		0.000000e+00
0.000000e+00		0.000000e+00		0.000000e+00
0.000000e+00		0.000000e+00		0.000000e+00
0.000000e+00		0.000000e+00		0.000000e+00
0.000000e+00		0.000000e+00		0.000000e+00
0.000000e+00		0.000000e+00		0.000000e+00
0.000000e+00		0.000000e+00		0.000000e+00
0.000000e+00		0.000000e+00		0.000000e+00
0.000000e+00		0.000000e+00		0.000000e+00
0.000000e+00		0.000000e+00		0.000000e+00
0.000000e+00		0.000000e+00		0.000000e+00
0.000000e+00		0.000000e+00		0.000000e+00
0.000000e+00		0.000000e+00		0.000000e+00
0.000000e+00		0.000000e+00		0.000000e+00
0.000000e+00		0.000000e+00		0.000000e+00
0.000000e+00		0.000000e+00		0.000000e+00
0.000000e+00		0.000000e+00		0.000000e+00
0.000000e+00		0.000000e+00		0.000000e+00
0.000000e+00		0.000000e+00		0.000000e+00
0.000000e+00		0.000000e+00		0.000000e+00
0.000000e+00		0.000000e+00		0.000000e+00
0.000000e+00		0.000000e+00		0.000000e+00
0.000000e+00		0.000000e+00		0.000000e+00
0.000000e+00		0.000000e+00		0.000000e+00
0.000000e+00		0.000000e+00		0.000000e+00
0.000000e+00		0.000000e+00		0.000000e+00
0.000000e+00		0.000000e+00		0.000000e+00
0.000000e+00		0.000000e+00		0.000000e+00
0.000000e+00		0.000000e+00		0.000000e+00
0.000000e+00		0.000000e+00		0.000000e+00
0.000000e+00		0.000000e+00		0.000000e+00
0.000000e+00		0.000000e+00		0.000000e+00
0.000000e+00		0.000000e+00		0.000000e+00
0.000000e+00		0.000000e+00		0.000000e+00
0.000000e+00		0.000000e+00		0.000000e+00
0.000000e+00		0.000000e+00		0.000000e+00
0.000000e+00		0.000000e+00		0.000000e+00
0.000000e+00		0.000000e+00		0.000000e+00
0.000000e+00		0.000000e+00		0.000000e+00
0.000000e+00		0.000000e+00		0.000000e+00
0.000000e+00		0.000000e+00		0.000000e+00
0.000000e+00		0.000000e+00		0.000000e+00
0.000000e+00		0.000000e+00		0.000000e+00
0.000000e+00		0.000000e+00		0.000000e+00
0.000000e+00		0.000000e+00		0.000000e+00
0.000000e+00		0.000000e+00		0.000000e+00
0.000000e+00		0.000000e+00		0.000000e+00
0.000000e+00		0.000000e+00		0.000000e+00
0.000000e+00		0.000000e+00		0.000000e+00
0.000000e+00		0.000000e+00		0.000000e+00
0.000000e+00		0.000000e+00		0.000000e+00
0.000000e+00		0.000000e+00		0.000000e+00
0.000000e+00		0.000000e+00		0.000000e+00
0.000000e+00		0.000000e+00		0.000000e+00
0.000000e+00		0.000000e+00		0.000000e+00
0.000000e+00		0.000000e+00		0.000000e+00
0.000000e+00		0.000000e+00		0.000000e+00
0.000000e+00		0.000000e+00		0.000000e+00
0.000000e+00		0.000000e+00		0.000000e+00
0.000000e+00		0.000000e+00		0.000000e+00
0.000000e+00		0.000000e+00		0.000000e+00
0.000000e+00		0.000000e+00		0.000000e+00
0.000000e+00		0.000000e+00		0.000000e+00
0.000000e+00		0.000000e+00		0.000000e+00
0.000000e+00		0.000000e+00		0.000000e+00
0.000000e+00		0.000000e+00		0.000000e+00
0.000000e+00		0.000000e+00		0.000000e+00
0.000000e+00		0.000000e+00		0.000000e+00
0.000000e+00		0.000000e+00		0.000000e+00
0.000000e+00		0.000000e+00		0.000000e+00
0.000000e+00		0.000000e+00		0.000000e+00
0.000000e+00		0.000000e+00		0.000000e+00
0.000000e+00		0.000000e+00		0.000000e+00
0.000000e+00		0.000000e+00		0.000000e+00
0.000000e+00		0.000000e+00		0.000000e+00
0.000000e+00		0.000000e+00		0.000000e+00
0.000000e+00		0.000000e+00		0.000000e+00
0.000000e+00		0.000000e+00		0.000000e+00
0.000000e+00		0.000000e+00		0.000000e+00
0.000000e+00		0.000000e+00		0.000000e+00
0.000000e+00		0.000000e+00		0.000000e+00
0.000000e+00		0.000000e+00		0.000000e+00
0.000000e+00		0.000000e+00		0.000000e+00
0.000000e+00		0.000000e+00		0.000000e+00
0.000000e+00		0.000000e+00		0.000000e+00
0.000000e+00		0.000000e+00		0.000000e+00
0.000000e+00		0.000000e+00		0.000000e+00
0.000000e+00		0.000000e+00		0.000000e+00
0.000000e+00		0.000000e+00		0.000000e+00
0.000000e+00		0.000000e+00		0.000000e+00
0.000000e+00		0.000000e+00		0.000000e+00
0.000000e+00		0.000000e+00		0.000000e+00
0.000000e+00		0.000000e+00		0.000000e+00
0.000000e+00		0.000000e+00		0.000000e+00
0.000000e+00		0.000000e+00		0.000000e+00
0.000000e+00		0.000000e+00		0.000000e+00
0.000000e+00		0.000000e+00		0.000000e+00
0.000000e+00		0.000000e+00		0.000000e+00
0.000000e+00		0.000000e+00		0.000000e+00
0.000000e+00		0.000000e+00		0.000000e+00
0.000000e+00		0.000000e+00		0.000000e+00
0.000000e+00		0.000000e+00		0.000000e+00
0.000000e+00		0.000000e+00		0.000000e+00
0.000000e+00		0.000000e+00		0.000000e+00
0.000000e+00		0.000000e+00		0.000000e+00
0.000000e+00		0.000000e+00		0.000000e+00
0.000000e+00		0.000000e+00		0.000000e+00
0.000000e+00		0.000000e+00		0.000000e+00
0.000000e+00		0.000000e+00		0.000000e+00
0.000000e+00		0.000000e+00		0.000000e+00
0.000000e+00		0.000000e+00		0.000000e+00
0.000000e+00		0.000000e+00		0.000000e+00
0.000000e+00		0.000000e+00		0.000000e+00
0.000000e+00		0.000000e+00		0.000000e+00
0.000000e+00		0.000000e+00		0.000000e+00
0.000000e+00		0.000000e+00		0.000000e+00
0.000000e+00		0.000000e+00		0.000000e+00
0.000000e+00		0.000000e+00		0.000000e+00
0.000000e+00		0.000000e+00		0.000000e+00
0.000000e+00		0.000000e+00		0.000000e+00
0.000000e+00		0.000000e+00		0.000000e+00
0.000000e+00		0.000000e+00		0.000000e+00
0.000000e+00		0.000000e+00		0.000000e+00
0.000000e+00		0.000000e+00		0.000000e+00
0.000000e+00		0.000000e+00		0.000000e+00
0.000000e+00		0.000000e+00		0.000000e+00
0.000000e+00		0.000000e+00		0.000000e+00
0.000000e+00		0.000000e+00		0.000000e+00
0.000000e+00		0.000000e+00		0.000000e+00
0.000000e+00		0.000000e+00		0.000000e+00
0.000000e+00		0.000000e+00		0.000000e+00
0.000000e+00		0.000000e+00		0.000000e+00
0.000000e+00		0.000000e+00		0.000000e+00
0.000000e+00		0.000000e+00		0.000000e+00
0.000000e+00		0.000000e+00		0.000000e+00
0.000000e+00		0.000000e+00		0.000000e+00
0.000000e+00		0.000000e+00		0.000000e+00
0.000000e+00		0.000000e+00		0.000000e+00
0.000000e+00		0.000000e+00		0.000000e+00
0.000000e+00		0.000000e+00		0.000000e+00
0.000000e+00		0.000000e+00		0.000000e+00
0.000000e+00		0.000000e+00		0.000000e+00
0.000000e+00		0.000000e+00		0.000000e+00
0.000000e+00		0.000000e+00		0.000000e+00
0.000000e+00		0.000000e+00		0.000000e+00
0.000000e+00		0.000000e+00		0.000000e+00
0.000000e+00		0.000000e+00		0.000000e+00
0.000000e+00		0.000000e+00		0.000000e+00
0.000000e+00		0.000000e+00		0.000000e+00
0.000000e+00		0.000000e+00		0.000000e+00
0.000000e+00		0.000000e+00		0.000000e+00
0.000000e+00		0.000000e+00		0.000000e+00
0.000000e+00		0.000000e+00		0.000000e+00
0.000000e+00		0.000000e+00		0.000000e+00
0.000000e+00		0.000000e+00		0.000000e+00
0.000000e+00		0.000000e+00		0.000000e+00
0.000000e+00		0.000000e+00		0.000000e+00
0.000000e+00		0.000000e+00		0.000000e+00
0.000000e+00		0.000000e+00		0.000000e+00
0.000000e+00		0.000000e+00		0.000000e+00
0.000000e+00		0.000000e+00		0.000000e+00
0.000000e+00		0.000000e+00		0.000000e+00
0.000000e+00		0.000000e+00		0.000000e+00
0.000000e+00		0.000000e+00		0.000000e+00
0.000000e+00		0.000000e+00		0.000000e+00
0.000000e+00		0.000000e+00		0.000000e+00
0.000000e+00		0.000000e+00		0.000000e+00
0.000000e+00		0.000000e+00		0.000000e+00
0.000000e+00		0.000000e+00		0.000000e+00
0.000000e+00		0.000000e+00		0.000000e+00
0.000000e+00		0.000000e+00		0.000000e+00
0.000000e+00		0.000000e+00		0.000000e+00
0.000000e+00		0.000000e+00		0.000000e+00
0.000000e+00		0.000000e+00		0.000000e+00
0.000000e+00		0.000000e+00		0.000000e+00
0.000000e+00		0.000000e+00		0.000000e+00
0.000000e+00		0.000000e+00		0.000000e+00
0.000000e+00		0.000000e+00		0.000000e+00
0.000000e+00		0.000000e+00		0.000000e+00
0.000000e+00		0.000000e+00		0.000000e+00
0.000000e+00		0.000000e+00		0.000000e+00
0.000000e+00		0.000000e+00		0.000000e+00
0.000000e+00		0.000000e+00		0.000000e+00
0.000000e+00		0.000000e+00		0.000000e+00
0.000000e+00		0.000000e+00		0.000000e+00
0.000000e+00		0.000000e+00		0.000000e+00
0.000000e+00		0.000000e+00		0.000000e+00
0.000000e+00		0.000000e+00		0.000000e+00
0.000000e+00		0.000000e+00		0.000000e+00
0.000000e+00		0.000000e+00		0.000000e+00
0.000000e+00		0.000000e+00		0.000000e+00
0.000000e+00		0.000000e+00		0.000000e+00
0.000000e+00		0.000000e+00		0.000000e+00
0.000000e+00		0.000000e+00		0.000000e+00
0.000000e+00		0.000000e+00		0.000000e+00
0.000000e+00		0.000000e+00		0.000000e+00
0.000000e+00		0.000000e+00		0.000000e+00
0.000000e+00		0.000000e+00		0.000000e+00
0.000000e+00		0.000000e+00		0.000000e+00
0.000000e+00		0.000000e+00		0.000000e+00
0.000000e+00		0.000000e+00		0.000000e+00
0.000000e+00		0.000000e+00		0.000000e+00
0.000000e+00		0.000000e+00		0.000000e+00
0.000000e+00		0.000000e+00		0.000000e+00
0.000000e+00		0.000000e+00		0.000000e+00
0.000000e+00		0.000000e+00		0.000000e+00
0.000000e+00		0.000000e+00		0.000000e+00
0.000000e+00		0.000000e+00		0.000000e+00
0.000000e+00		0.000000e+00		0.000000e+00
0.000000e+00		0.000000e+00		0.000000e+00
0.000000e+00		0.000000e+00		0.000000e+00
0.000000e+00		0.000000e+00		0.000000e+00
0.000000e+00		0.000000e+00		0.000000e+00
0.000000e+00		0.000000e+00		0.000000e+00
0.000000e+00		0.000000e+00		0.000000e+00
0.000000e+00		0.000000e+00		0.000000e+00
0.000000e+00		0.000000e+00		0.000000e+00
0.000000e+00		0.000000e+00		0.000000e+00
0.000000e+00		0.000000e+00		0.000000e+00
0.000000e+00		0.000000e+00		0.000000e+00
0.000000e+00		0.000000e+00		0.000000e+00
0.000000e+00		0.000000e+00		0.000000e+00
0.000000e+00		0.000000e+00		0.000000e+00
0.000000e+00		0.000000e+00		0.000000e+00
0.000000e+00		0.000000e+00		0.000000e+00
0.000000e+00		0.000000e+00		0.000000e+00
0.000000e+00		0.000000e+00		0.000000e+00
0.000000e+00		0.000000e+00		0.000000e+00
0.000000e+00		0.000000e+00		0.000000e+00
0.000000e+00		0.000000e+00		0.000000e+00
0.000000e+00		0.000000e+00		0.000000e+00
0.000000e+00		0.000000e+00		0.000000e+00
0.000000e+00		0.000000e+00		0.000000e+00
0.000000e+00		0.000000e+00		0.000000e+00
0.000000e+00		0.000000e+00		0.000000e+00
0.000000e+00		0.000000e+00		0.000000e+00
0.000000e+00		0.000000e+00		0.000000e+00
0.000000e+00		0.000000e+00		0.000000e+00
0.000000e+00		0.000000e+00		0.000000e+00
0.000000e+00		0.000000e+00		0.000000e+00
0.000000e+00		0.000000e+00		0.000000e+00
0.000000e+00		0.000000e+00		0.000000e+00
0.000000e+00		0.000000e+00		0.000000e+00
0.000000e+00		0.000000e+00		0.000000e+00
0.000000e+00		0.000000e+00		0.000000e+00
0.000000e+00		0.000000e+00		0.000000e+00
0.000000e+00		0.000000e+00		0.000000e+00
0.000000e+00		0.000000e+00		0.000000e+00
0.000000e+00		0.000000e+00		0.000000e+00
0.000000e+00		0.000000e+00		0.000000e+00
0.000000e+00		0.000000e+00		0.000000e+00
0.000000e+00		0.000000e+00		0.000000e+00
0.000000e+00		0.000000e+00		0.000000e+00
0.000000e+00		0.000000e+00		0.000000e+00
0.000000e+00		0.000000e+00		0.000000e+00
0.000000e+00		0.000000e+00		0.000000e+00
0.000000e+00		0.000000e+00		0.000000e+00
0.000000e+00		0.000000e+00		0.000000e+00
0.000000e+00		0.000000e+00		0.000000e+00
0.000000e+00		0.000000e+00		0.000000e+00
0.000000e+00		0.000000e+00		0.000000e+00
0.000000e+00		0.000000e+00		0.000000e+00
0.000000e+00		0.000000e+00		0.000000e+00
0.000000e+00		0.000000e+00		0.000000e+00
0.000000e+00		0.000000e+00		0.000000e+00
0.000000e+00		0.000000e+00		0.000000e+00
0.000000e+00		0.000000e+00		0.000000e+00
0.000000e+00		0.000000e+00		0.000000e+00
0.000000e+00		0.000000e+00		0.000000e+00
0.000000e+00		0.000000e+00		0.000000e+00
0.000000e+00		0.000000e+00		0.000000e+00
0.000000e+00		0.000000e+00		0.000000e+00
0.000000e+00		0.000000e+00		0.000000e+00
0.000000e+00		0.000000e+00		0.000000e+00
0.000000e+00		0.000000e+00		0.000000e+00
0.000000e+00		0.000000e+00		0.000000e+00
0.000000e+00		0.000000e+00		0.000000e+00
0.000000e+00		0.000000e+00		0.000000e+00
0.000000e+00		0.000000e+00		0.000000e+00
0.000000e+00		0.000000e+00		0.000000e+00
0.000000e+00		0.000000e+00		0.000000e+00
0.000000e+00		0.000000e+00		0.000000e+00
0.000000e+00		0.000000e+00		0.000000e+00
0.000000e+00		0.000000e+00		0.000000e+00
0.000000e+00		0.000000e+00		0.000000e+00
0.000000e+00		0.000000e+00		0.000000e+00
0.000000e+00		0.000000e+00		0.000000e+00
0.000000e+00		0.000000e+00		0.000000e+00
0.000000e+00		0.000000e+00		0.000000e+00
0.000000e+00		0.000000e+00		0.000000e+00
0.000000e+00		0.000000e+00		0.000000e+00
0.000000e+00		0.000000e+00		0.000000e+00
0.000000e+00		0.000000e+00		0.000000e+00
0.000000e+00		0.000000e+00		0.000000e+00
0.000000e+00		0.000000e+00		0.000000e+00
0.000000e+00		0.000000e+00		0.000000e+00
0.000000e+00		0.000000e+00		0.000000e+00
0.000000e+00		0.000000e+00		0.000000e+00
0.000000e+00		0.000000e+00		0.000000e+00
0.000000e+00		0.000000e+00		0.000000e+00
0.000000e+00		0.000000e+00		0.000000e+00
0.000000e+00		0.000000e+00		0.000000e+00
0.000000e+00		0.000000e+00		0.000000e+00
0.000000e+00		0.000000e+00		0.000000e+00
0.000000e+00		0.000000e+00		0.000000e+00
0.000000e+00		0.000000e+00		0.000000e+00
0.000000e+00		0.000000e+00		0.000000e+00
0.000000e+00		0.000000e+00		0.000000e+00
0.000000e+00		0.000000e+00		0.000000e+00
0.000000e+00		0.000000e+00		0.000000e+00
0.000000e+00		0.000000e+00		0.000000e+00
0.000000e+00		0.000000e+00		0.000000e+00
0.000000e+00		0.000000e+00		0.000000e+00
0.000000e+00		0.000000e+00		0.000000e+00
0.000000e+00		0.000000e+00		0.000000e+00
0.000000e+00		0.000000e+00		0.000000e+00
0.000000e+00		0.000000e+00		0.000000e+00
0.000000e+00		0.000000e+00		0.000000e+00
0.000000e+00		0.000000e+00		0.000000e+00
0.000000e+00		0.000000e+00		0.000000e+00
0.000000e+00		0.000000e+00		0.000000e+00
0.000000e+00		0.000000e+00		0.000000e+00
0.000000e+00		0.000000e+00		0.000000e+00
0.000000e+00		0.000000e+00		0.000000e+00
0.000000e+00		0.000000e+00		0.000000e+00
0.000000e+00		0.000000e+00		0.000000e+00
0.000000e+00		0.000000e+00		0.000000e+00
0.000000e+00		0.000000e+00		0.000000e+00
0.000000e+00		0.000000e+00		0.000000e+00
0.000000e+00		0.000000e+00		0.000000e+00
0.000000e+00		0.000000e+00		0.000000e+00
0.000000e+00		0.000000e+00		0.000000e+00
0.000000e+00		0.000000e+00		0.000000e+00
0.000000e+00		0.000000e+00		0.000000e+00
0.000000e+00		0.000000e+00		0.000000e+00
0.000000e+00		0.000000e+00		0.000000e+00
0.000000e+00		0.000000e+00		0.000000e+00
0.000000e+00		0.000000e+00		0.000000e+00
0.000000e+00		0.000000e+00		0.000000e+00
0.000000e+00		0.000000e+00		0.000000e+00
0.000000e+00		0.000000e+00		0.000000e+00
0.000000e+00		0.000000e+00		0.000000e+00
0.000000e+00		0.000000e+00		0.000000e+00
0.000000e+00		0.000000e+00		0.000000e+00
0.000000e+00		0.000000e+00		0.000000e+00
0.000000e+00		0.000000e+00		0.000000e+00
0.000000e+00		0.000000e+00		0.000000e+00
0.000000e+00		0.000000e+00		0.000000e+00
0.000000e+00		0.000000e+00		0.000000e+00
0.000000e+00		0.000000e+00		0.000000e+00
0.000000e+00		0.000000e+00		0.000000e+00
0.000000e+00		0.000000e+00		0.000000e+00
0.000000e+00		0.000000e+00		0.000000e+00
0.000000e+00		0.000000e+00		0.000000e+00
0.000000e+00		0.000000e+00		0.000000e+00
0.000000e+00		0.000000e+00		0.000000e+00
0.000000e+00		0.000000e+00		0.000000e+00
0.000000e+00		0.000000e+00		0.000000e+00
0.000000e+00		0.000000e+00		0.000000e+00
0.000000e+00		0.000000e+00		0.000000e+00
0.000000e+00		0.000000e+00		0.000000e+00
0.000000e+00		0.000000e+00		0.000000e+00
0.000000e+00		0.000000e+00		0.000000e+00
0.000000e+00		0.000000e+00		0.000000e+00
0.000000e+00		0.000000e+00		0.000000e+00
0.000000e+00		0.000000e+00		0.000000e+00
0.000000e+00		0.000000e+00		0.000000e+00
0.000000e+00		0.000000e+00		0.000000e+00
0.000000e+00		0.000000e+00		0.000000e+00
0.000000e+00		0.000000e+00		0.000000e+00
0.000000e+00		0.000000e+00		0.000000e+00
0.000000e+00		0.000000e+00		0.000000e+00
0.000000e+00		0.000000e+00		0.000000e+00
0.000000e+00		0.000000e+00		0.000000e+00
0.000000e+00		0.000000e+00		0.000000e+00
0.000000e+00		0.000000e+00		0.000000e+00
0.000000e+00		0.000000e+00		0.000000e+00
0.000000e+00		0.000000e+00		0.000000e+00
0.000000e+00		0.000000e+00		0.000000e+00
0.000000e+00		0.000000e+00		0.000000e+00
0.000000e+00		0.000000e+00		0.000000e+00
0.000000e+00		0.000000e+00		0.000000e+00
0.000000e+00		0.000000e+00		0.000000e+00
0.000000e+00		0.000000e+00		0.000000e+00
0.000000e+00		0.000000e+00		0.000000e+00
0.000000e+00		0.000000e+00		0.000000e+00
0.000000e+00		0.000000e+00		0.000000e+00
0.000000e+00		0.000000e+00		0.000000e+00
0.000000e+00		0.000000e+00		0.000000e+00
0.000000e+00		0.000000e+00		0.000000e+00
0.000000e+00		0.000000e+00		0.000000e+00
0.000000e+00		0.000000e+00		0.000000e+00
0.000000e+00		0.000000e+00		0.000000e+00
0.000000e+00		0.000000e+00		0.000000e+00
0.000000e+00		0.000000e+00		0.000000e+00
0.000000e+00		0.000000e+00		0.000000e+00
0.000000e+00		0.000000e+00		0.000000e+00
0.000000e+00		0.000000e+00		0.000000e+00
0.000000e+00		0.000000e+00		0.000000e+00
0.000000e+00		0.000000e+00		0.000000e+00
0.000000e+00		0.000000e+00		0.000000e+00
0.000000e+00		0.000000e+00		0.000000e+00
0.000000e+00		0.000000e+00		0.000000e+00
0.000000e+00		0.000000e+00		0.000000e+00
0.000000e+00		0.000000e+00		0.000000e+00
0.000000e+00		0.000000e+00		0.000000e+00
0.000000e+00		0.000000e+00		0.000000e+00
0.000000e+00		0.000000e+00		0.000000e+00
0.000000e+00		0.000000e+00		0.000000e+00
0.000000e+00		0.000000e+00		0.000000e+00
0.000000e+00		0.000000e+00		0.000000e+00
0.000000e+00		0.000000e+00		0.000000e+00
0.000000e+00		0.000000e+00		0.000000e+00
0.000000e+00		0.000000e+00		0.000000e+00
0.000000e+00		0.000000e+00		0.000000e+00
0.000000e+00		0.000000e+00		0.000000e+00
0.000000e+00		0.000000e+00		0.000000e+00
0.000000e+00		0.000000e+00		0.000000e+00
0.000000e+00		0.000000e+00		0.000000e+00
0.000000e+00		0.000000e+00		0.000000e+00
0.000000e+00		0.000000e+00		0.000000e+00
0.000000e+00		0.000000e+00		0.000000e+00
0.000000e+00		0.000000e+00		0.000000e+00
0.000000e+00		0.000000e+00		0.000000e+00
0.000000e+00		0.000000e+00		0.000000e+00
0.000000e+00		0.000000e+00		0.000000e+00
0.000000e+00		0.000000e+00		0.000000e+00
0.000000e+00		0.000000e+00		0.000000e+00
0.000000e+00		0.000000e+00		0.000000e+00
0.000000e+00		0.000000e+00		0.000000e+00
0.000000e+00		0.000000e+00		0.000000e+00
0.000000e+00		0.000000e+00		0.000000e+00
0.000000e+00		0.000000e+00		0.000000e+00
0.000000e+00		0.000000e+00		0.000000e+00
0.000000e+00		0.000000e+00		0.000000e+00
0.000000e+00		0.000000e+00		0.000000e+00
0.000000e+00		0.000000e+00		0.000000e+00
0.000000e+00		0.000000e+00		0.000000e+00
0.000000e+00		0.000000e+00		0.000000e+00
0.000000e+00		0.000000e+00		0.000000e+00
0.000000e+00		0.000000e+00		0.000000e+00
0.000000e+00		0.000000e+00		0.000000e+00
0.000000e+00		0.000000e+00		0.000000e+00
0.000000e+00		0.000000e+00		0.000000e+00
0.000000e+00		0.000000e+00		0.000000e+00
0.000000e+00		0.000000e+00		0.000000e+00
0.000000e+00		0.000000e+00		0.000000e+00
0.000000e+00		0.000000e+00		0.000000e+00
0.000000e+00		0.000000e+00		0.000000e+00
0.000000e+00		0.000000e+00		0.000000e+00
0.000000e+00		0.000000e+00		0.000000e+00
0.000000e+00		0.000000e+00		0.000000e+00
0.000000e+00		0.000000e+00		0.000000e+00
0.000000e+00		0.000000e+00		0.000000e+00
0.000000e+00		0.000000e+00		0.000000e+00
0.000000e+00		0.000000e+00		0.000000e+00
0.000000e+00		0.000000e+00		0.000000e+00
0.000000e+00		0.000000e+00		0.000000e+00
0.000000e+00		0.000000e+00		0.000000e+00
0.000000e+00		0.000000e+00		0.000000e+00
0.000000e+00		0.000000e+00		0.000000e+00
0.000000e+00		0.000000e+00		0.000000e+00
0.000000e+00		0.000000e+00		0.000000e+00
0.000000e+00		0.000000e+00		0.000000e+00
0.000000e+00		0.000000e+00		0.000000e+00
0.000000e+00		0.000000e+00		0.000000e+00
0.000000e+00		0.000000e+00		0.000000e+00
0.000000e+00		0.000000e+00		0.000000e+00
0.000000e+00		0.000000e+00		0.000000e+00
0.000000e+00		0.000000e+00		0.000000e+00
0.000000e+00		0.000000e+00		0.000000e+00
0.000000e+00		0.000000e+00		0.000000e+00
0.000000e+00		0.000000e+00		0.000000e+00
0.000000e+00		0.000000e+00		0.000000e+00
0.000000e+00		0.000000e+00		0.000000e+00
0.000000e+00		0.000000e+00		0.000000e+00
0.000000e+00		0.000000e+00		0.000000e+00
0.000000e+00		0.000000e+00		0.000000e+00
0.000000e+00		0.000000e+00		0.000000e+00
0.000000e+00		0.000000e+00		0.000000e+00
0.000000e+00		0.000000e+00		0.000000e+00
0.000000e+00		0.000000e+00		0.000000e+00
0.000000e+00		0.000000e+00		0.000000e+00
0.000000e+00		0.000000e+00		0.000000e+00
0.000000e+00		0.000000e+00		0.000000e+00
0.000000e+00		0.000000e+00		0.000000e+00
0.000000e+00		0.000000e+00		0.000000e+00
0.000000e+00		0.000000e+00		0.000000e+00
0.000000e+00		0.000000e+00		0.000000e+00
0.000000e+00		0.000000e+00		0.000000e+00
0.000000e+00		0.000000e+00		0.000000e+00
0.000000e+00		0.000000e+00		0.000000e+00
0.000000e+00		0.000000e+00		0.000000e+00
0.000000e+00		0.000000e+00		0.000000e+00
0.000000e+00		0.000000e+00		0.000000e+00
0.000000e+00		0.000000e+00		0.000000e+00
0.000000e+00		0.000000e+00		0.000000e+00
0.000000e+00		0.000000e+00		0.000000e+00
0.000000e+00		0.000000e+00		0.000000e+00
0.000000e+00		0.000000e+00		0.000000e+00
0.000000e+00		0.000000e+00		0.000000e+00
0.000000e+00		0.000000e+00		0.000000e+00
0.000000e+00		0.000000e+00		0.000000e+00
0.000000e+00		0.000000e+00		0.000000e+00
0.000000e+00		0.000000e+00		0.000000e+00
0.000000e+00		0.000000e+00		0.000000e+00
0.000000e+00		0.000000e+00		0.000000e+00
0.000000e+00		0.000000e+00		0.000000e+00
0.000000e+00		0.000000e+00		0.000000e+00
0.000000e+00		0.000000e+00		0.000000e+00
0.000000e+00		0.000000e+00		0.000000e+00
0.000000e+00		0.000000e+00		0.000000e+00
0.000000e+00		0.000000e+00		0.000000e+00
0.000000e+00		0.000000e+00		0.000000e+00
0.000000e+00		0.000000e+00		0.000000e+00
0.000000e+00		0.000000e+00		0.000000e+00
0.000000e+00		0.000000e+00		0.000000e+00
0.000000e+00		0.000000e+00		0.000000e+00
0.000000e+00		0.000000e+00		0.000000e+00
0.000000e+00		0.000000e+00		0.000000e+00
0.000000e+00		0.000000e+00		0.000000e+00
0.000000e+00		0.000000e+00		0.000000e+00
0.000000e+00		0.000000e+00		0.000000e+00
0.000000e+00		0.000000e+00		0.000000e+00
0.000000e+00		0.000000e+00		0.000000e+00
0.000000e+00		0.000000e+00		0.000000e+00
0.000000e+00		0.000000e+00		0.000000e+00
0.000000e+00		0.000000e+00		0.000000e+00
0.000000e+00		0.000000e+00		0.000000e+00
0.000000e+00		0.000000e+00		0.000000e+00
0.000000e+00		0.000000e+00		0.000000e+00
0.000000e+00		0.000000e+00		0.000000e+00
0.000000e+00		0.000000e+00		0.000000e+00
0.000000e+00		0.000000e+00		0.000000e+00
0.000000e+00		0.000000e+00		0.000000e+00
0.000000e+00		0.000000e+00		0.000000e+00
0.000000e+00		0.000000e+00		0.000000e+00
0.000000e+00		0.000000e+00		0.000000e+00
0.000000e+00		0.000000e+00		0.000000e+00
0.000000e+00		0.000000e+00		0.000000e+00
0.000000e+00		0.000000e+00		0.000000e+00
0.000000e+00		0.000000e+00		0.000000e+00
0.000000e+00		0.000000e+00		0.000000e+00
0.000000e+00		0.000000e+00		0.000000e+00
0.000000e+00		0.000000e+00		0.000000e+00
0.000000e+00		0.000000e+00		0.000000e+00
0.000000e+00		0.000000e+00		0.000000e+00
0.000000e+00		0.000000e+00		0.000000e+00
0.000000e+00		0.000000e+00		0.000000e+00
0.000000e+00		0.000000e+00		0.000000e+00
0.000000e+00		0.000000e+00		0.000000e+00
0.000000e+00		0.000000e+00		0.000000e+00
0.000000e+00		0.000000e+00		0.000000e+00
0.000000e+00		0.000000e+00		0.000000e+00
0.000000e+00		0.000000e+00		0.000000e+00
0.000000e+00		0.000000e+00		0.000000e+00
0.000000e+00		0.000000e+00		0.000000e+00
0.000000e+00		0.000000e+00		0.000000e+00
0.000000e+00		0.000000e+00		0.000000e+00
0.000000e+00		0.000000e+00		0.000000e+00
0.000000e+00		0.000000e+00		0.000000e+00
0.000000e+00		0.000000e+00		0.000000e+00
0.000000e+00		0.000000e+00		0.000000e+00
0.000000e+00		0.000000e+00		0.000000e+00
0.000000e+00		0.000000e+00		0.000000e+00
0.000000e+00		0.000000e+00		0.000000e+00
0.000000e+00		0.000000e+00		0.000000e+00
0.000000e+00		0.000000e+00		0.000000e+00
0.000000e+00		0.000000e+00		0.000000e+00
0.000000e+00		0.000000e+00		0.000000e+00
0.000000e+00		0.000000e+00		0.000000e+00
0.000000e+00		0.000000e+00		0.000000e+00
0.000000e+00		0.000000e+00		0.000000e+00
0.000000e+00		0.000000e+00		0.000000e+00
0.000000e+00		0.000000e+00		0.000000e+00
0.000000e+00		0.000000e+00		0.000000e+00
0.000000e+00		0.000000e+00		0.000000e+00
0.000000e+00		0.000000e+00		0.000000e+00
0.000000e+00		0.000000e+00		0.000000e+00
0.000000e+00		0.000000e+00		0.000000e+00
0.000000e+00		0.000000e+00		0.000000e+00
0.000000e+00		0.000000e+00		0.000000e+00
0.000000e+00		0.000000e+00		0.000000e+00
0.000000e+00		0.000000e+00		0.000000e+00
0.000000e+00		0.000000e+00		0.000000e+00
0.000000e+00		0.000000e+00		0.000000e+00
0.000000e+00		0.000000e+00		0.000000e+00
0.000000e+00		0.000000e+00		0.000000e+00
0.000000e+00		0.000000e+00		0.000000e+00
0.000000e+00		0.000000e+00		0.000000e+00
0.000000e+00		0.000000e+00		0.000000e+00
0.000000e+00		0.000000e+00		0.000000e+00
0.000000e+00		0.000000e+00		0.000000e+00
0.000000e+00		0.000000e+00		0.000000e+00
0.000000e+00		0.000000e+00		0.000000e+00
0.000000e+00		0.000000e+00		0.000000e+00
0.000000e+00		0.000000e+00		0.000000e+00
0.000000e+00		0.000000e+00		0.000000e+00
0.000000e+00		0.000000e+00		0.000000e+00
0.000000e+00		0.000000e+00		0.000000e+00
0.000000e+00		0.000000e+00		0.000000e+00
0.000000e+00		0.000000e+00		0.000000e+00
0.000000e+00		0.000000e+00		0.000000e+00
0.000000e+00		0.000000e+00		0.000000e+00
0.000000e+00		0.000000e+00		0.000000e+00
0.000000e+00		0.000000e+00		0.000000e+00
0.000000e+00		0.000000e+00		0.000000e+00
0.000000e+00		0.000000e+00		0.000000e+00
0.000000e+00		0.000000e+00		0.000000e+00
0.000000e+00		0.000000e+00		0.000000e+00
0.000000e+00		0.000000e+00		0.000000e+00
0.000000e+00		0.000000e+00		0.000000e+00
0.000000e+00		0.000000e+00		0.000000e+00
0.000000e+00		0.000000e+00		0.000000e+00
0.000000e+00		0.000000e+00		0.000000e+00
0.000000e+00		0.000000e+00		0.000000e+00
0.000000e+00		0.000000e+00		0.000000e+00
0.000000e+00		0.000000e+00		0.000000e+00
0.000000e+00		0.000000e+00		0.000000e+00
0.000000e+00		0.000000e+00		0.000000e+00
0.000000e+00		0.000000e+00		0.000000e+00
0.000000e+00		0.000000e+00		0.000000e+00
0.000000e+00		0.000000e+00		0.000000e+00
0.000000e+00		0.000000e+00		0.000000e+00
0.000000e+00		0.000000e+00		0.000000e+00
0.000000e+00		0.000000e+00		0.000000e+00
0.000000e+00		0.000000e+00		0.000000e+00
0.000000e+00		0.000000e+00		0.000000e+00
0.000000e+00		0.000000e+00		0.000000e+00
0.000000e+00		0.000000e+00		0.000000e+00
0.000000e+00		0.000000e+00		0.000000e+00
0.000000e+00		0.000000e+00		0.000000e+00
0.000000e+00		0.000000e+00		0.000000e+00
0.000000e+00		0.000000e+00		0.000000e+00
0.000000e+00		0.000000e+00		0.000000e+00
0.000000e+00		0.000000e+00		0.000000e+00
0.000000e+00		0.000000e+00		0.000000e+00
0.000000e+00		0.000000e+00		0.000000e+00
0.000000e+00		0.000000e+00		0.000000e+00
0.000000e+00		0.000000e+00		0.000000e+00
0.000000e+00		0.000000e+00		0.000000e+00
0.000000e+00		0.000000e+00		0.000000e+00
0.000000e+00		0.000000e+00		0.000000e+00
0.000000e+00		0.000000e+00		0.000000e+00
0.000000e+00		0.000000e+00		0.000000e+00
0.000000e+00		0.000000e+00		0.000000e+00
0.000000e+00		0.000000e+00		0.000000e+00
0.000000e+00		0.000000e+00		0.000000e+00
0.000000e+00		0.000000e+00		0.000000e+00
0.000000e+00		0.000000e+00		0.000000e+00
0.000000e+00		0.000000e+00		0.000000e+00
0.000000e+00		0.000000e+00		0.000000e+00
0.000000e+00		0.000000e+00		0.000000e+00
0.000000e+00		0.000000e+00		0.000000e+00
0.000000e+00		0.000000e+00		0.000000e+00
0.000000e+00		0.000000e+00		0.000000e+00
0.000000e+00		0.000000e+00		0.000000e+00
0.000000e+00		0.000000e+00		0.000000e+00
0.000000e+00		0.000000e+00		0.000000e+00
0.000000e+00		0.000000e+00		0.000000e+00
0.000000e+00		0.000000e+00		0.000000e+00
0.000000e+00		0.000000e+00		0.000000e+00
0.000000e+00		0.000000e+00		0.000000e+00
0.000000e+00		0.000000e+00		0.000000e+00
0.000000e+00		0.000000e+00		0.000000e+00
0.000000e+00		0.000000e+00		0.000000e+00
0.000000e+00		0.000000e+00		0.000000e+00
0.000000e+00		0.000000e+00		0.000000e+00
0.000000e+00		0.000000e+00		0.000000e+00
0.000000e+00		0.000000e+00		0.000000e+00
0.000000e+00		0.000000e+00		0.000000e+00
0.000000e+00		0.000000e+00		0.000000e+00
0.000000e+00		0.000000e+00		0.000000e+00
0.000000e+00		0.000000e+00		0.000000e+00
0.000000e+00		0.000000e+00		0.000000e+00
0.000000e+00		0.000000e+00		0.000000e+00
0.000000e+00		0.000000e+00		0.000000e+00
0.000000e+00		0.000000e+00		0.000000e+00
0.000000e+00		0.000000e+00		0.000000e+00
0.000000e+00		0.000000e+00		0.000000e+00
0.000000e+00		0.000000e+00		0.000000e+00
0.000000e+00		0.000000e+00		0.000000e+00
0.000000e+00		0.000000e+00		0.000000e+00
0.000000e+00		0.000000e+00		0.000000e+00
0.000000e+00		0.000000e+00		0.000000e+00
0.000000e+00		0.000000e+00		0.000000e+00
0.000000e+00		0.000000e+00		0.000000e+00
0.000000e+00		0.000000e+00		0.000000e+00
0.000000e+00		0.000000e+00		0.000000e+00
0.000000e+00		0.000000e+00		0.000000e+00
0.000000e+00		0.000000e+00		0.000000e+00
0.000000e+00		0.000000e+00		0.000000e+00
0.000000e+00		0.000000e+00		0.000000e+00
0.000000e+00		0.000000e+00		0.000000e+00
0.000000e+00		0.000000e+00		0.000000e+00
0.000000e+00		0.000000e+00		0.000000e+00
0.000000e+00		0.000000e+00		0.000000e+00
0.000000e+00		0.000000e+00		0.000000e+00
0.000000e+00		0.000000e+00		0.000000e+00
0.000000e+00		0.000000e+00		0.000000e+00
0.000000e+00		0.000000e+00		0.000000e+00
0.000000e+00		0.000000e+00		0.000000e+00
0.000000e+00		0.000000e+00		0.000000e+00
0.000000e+00		0.000000e+00		0.000000e+00
0.000000e+00		0.000000e+00		0.000000e+00
0.000000e+00		0.000000e+00		0.000000e+00
0.000000e+00		0.000000e+00		0.000000e+00
0.000000e+00		0.000000e+00		0.000000e+00
0.000000e+00		0.000000e+00		0.000000e+00
0.000000e+00		0.000000e+00		0.000000e+00
0.000000e+00		0.000000e+00		0.000000e+00
0.000000e+00		0.000000e+00		0.000000e+00
0.000000e+00		0.000000e+00		0.000000e+00
0.000000e+00		0.000000e+00		0.000000e+00
0.000000e+00		0.000000e+00		0.000000e+00
0.000000e+00		0.000000e+00		0.000000e+00
0.000000e+00		0.000000e+00		0.000000e+00
0.000000e+00		0.000000e+00		0.000000e+00
0.000000e+00		0.000000e+00		0.000000e+00
0.000000e+00		0.000000e+00		0.000000e+00
0.000000e+00		0.000000e+00		0.000000e+00
0.000000e+00		0.000000e+00		0.000000e+00
0.000000e+00		0.000000e+00		0.000000e+00
0.000000e+00		0.000000e+00		0.000000e+00
0.000000e+00		0.000000e+00		0.000000e+00
0.000000e+00		0.000000e+00		0.000000e+00
0.000000e+00		0.000000e+00		0.000000e+00
0.000000e+00		0.000000e+00		0.000000e+00
0.000000e+00		0.000000e+00		0.000000e+00
0.000000e+00		0.000000e+00		0.000000e+00
0.000000e+00		0.000000e+00		0.000000e+00
0.000000e+00		0.000000e+00		0.000000e+00
0.000000e+00		0.000000e+00		0.000000e+00
0.000000e+00		0.000000e+00		0.000000e+00
0.000000e+00		0.000000e+00		0.000000e+00
0.000000e+00		0.000000e+00		0.000000e+00
0.000000e+00		0.000000e+00		0.000000e+00
0.000000e+00		0.000000e+00		0.000000e+00
0.000000e+00		0.000000e+00		0.000000e+00
0.000000e+00		0.000000e+00		0.000000e+00
0.000000e+00		0.000000e+00		0.000000e+00
0.000000e+00		0.000000e+00		0.000000e+00
0.000000e+00		0.000000e+00		0.000000e+00
0.000000e+00		0.000000e+00		0.000000e+00
0.000000e+00		0.000000e+00		0.000000e+00
0.000000e+00		0.000000e+00		0.000000e+00
0.000000e+00		0.000000e+00		0.000000e+00
0.000000e+00		0.000000e+00		0.000000e+00
0.000000e+00		0.000000e+00		0.000000e+00
0.000000e+00		0.000000e+00		0.000000e+00
0.000000e+00		0.000000e+00		0.000000e+00
0.000000e+00		0.000000e+00		0.000000e+00
0.000000e+00		0.000000e+00		0.000000e+00
0.000000e+00		0.000000e+00		0.000000e+00
0.000000e+00		0.000000e+00		0.000000e+00
0.000000e+00		0.000000e+00		0.000000e+00
0.000000e+00		0.000000e+00		0.000000e+00
0.000000e+00		0.000000e+00		0.000000e+00
0.000000e+00		0.000000e+00		0.000000e+00
0.000000e+00		0.000000e+00		0.000000e+00
0.000000e+00		0.000000e+00		0.000000e+00
0.000000e+00		0.000000e+00		0.000000e+00
0.000000e+00		0.000000e+00		0.000000e+00
0.000000e+00		0.000000e+00		0.000000e+00
0.000000e+00		0.000000e+00		0.000000e+00
0.000000e+00		0.000000e+00		0.000000e+00
0.000000e+00		0.000000e+00		0.000000e+00
0.000000e+00		0.000000e+00		0.000000e+00
0.000000e+00		0.000000e+00		0.000000e+00
0.000000e+00		0.000000e+00		0.000000e+00
0.000000e+00		0.000000e+00		0.000000e+00
0.000000e+00		0.000000e+00		0.000000e+00
0.000000e+00		0.000000e+00		0.000000e+00
0.000000e+00		0.000000e+00		0.000000e+00
0.000000e+00		0.000000e+00		0.000000e+00
0.000000e+00		0.000000e+00		0.000000e+00
0.000000e+00		0.000000e+00		0.000000e+00
0.000000e+00		0.000000e+00		0.000000e+00
0.000000e+00		0.000000e+00		0.000000e+00
0.000000e+00		0.000000e+00		0.000000e+00
0.000000e+00		0.000000e+00		0.000000e+00
0.000000e+00		0.000000e+00		0.000000e+00
0.000000e+00		0.000000e+00		0.000000e+00
0.000000e+00		0.000000e+00		0.000000e+00
0.000000e+00		0.000000e+00		0.000000e+00
0.000000e+00		0.000000e+00		0.000000e+00
0.000000e+00		0.000000e+00		0.000000e+00
0.000000e+00		0.000000e+00		0.000000e+00
0.000000e+00		0.000000e+00		0.000000e+00
0.000000e+00		0.000000e+00		0.000000e+00
0.000000e+00		0.000000e+00		0.000000e+00
0.000000e+00		0.000000e+00		0.000000e+00
0.000000e+00		0.000000e+00		0.000000e+00
0.000000e+00		0.000000e+00		0.000000e+00
0.000000e+00		0.000000e+00		0.000000e+00
0.000000e+00		0.000000e+00		0.000000e+00
0.000000e+00		0.000000e+00		0.000000e+00
0.000000e+00		0.000000e+00		0.000000e+00
0.000000e+00		0.000000e+00		0.000000e+00
0.000000e+00		0.000000e+00		0.000000e+00
0.000000e+00		0.000000e+00		0.000000e+00
0.000000e+00		0.000000e+00		0.000000e+00
0.000000e+00		0.000000e+00		0.000000e+00
0.000000e+00		0.000000e+00		0.000000e+00
0.000000e+00		0.000000e+00		0.000000e+00
0.000000e+00		0.000000e+00		0.000000e+00
0.000000e+00		0.000000e+00		0.000000e+00
0.000000e+00		0.000000e+00		0.000000e+00
0.000000e+00		0.000000e+00		0.000000e+00
0.000000e+00		0.000000e+00		0.000000e+00
0.000000e+00		0.000000e+00		0.000000e+00
0.000000e+00		0.000000e+00		0.000000e+00
0.000000e+00		0.000000e+00		0.000000e+00
0.000000e+00		0.000000e+00		0.000000e+00
0.000000e+00		0.000000e+00		0.000000e+00
0.000000e+00		0.000000e+00		0.000000e+00
0.000000e+00		0.000000e+00		0.000000e+00
0.000000e+00		0.000000e+00		0.000000e+00
0.000000e+00		0.000000e+00		0.000000e+00
0.000000e+00		0.000000e+00		0.000000e+00
0.000000e+00		0.000000e+00		0.000000e+00
0.000000e+00		0.000000e+00		0.000000e+00
0.000000e+00		0.000000e+00		0.000000e+00
0.000000e+00		0.000000e+00		0.000000e+00
0.000000e+00		0.000000e+00		0.000000e+00
0.000000e+00		0.000000e+00		0.000000e+00
0.000000e+00		0.000000e+00		0.000000e+00
0.000000e+00		0.000000e+00		0.000000e+00
0.000000e+00		0.000000e+00		0.000000e+00
0.000000e+00		0.000000e+00		0.000000e+00
0.000000e+00		0.000000e+00		0.000000e+00
0.000000e+00		0.000000e+00		0.000000e+00
0.000000e+00		0.000000e+00		0.000000e+00
0.000000e+00		0.000000e+00		0.000000e+00
0.000000e+00		0.000000e+00		0.000000e+00
0.000000e+00		0.000000e+00		0.000000e+00
0.000000e+00		0.000000e+00		0.000000e+00
0.000000e+00		0.000000e+00		0.000000e+00
0.000000e+00		0.000000e+00		0.000000e+00
0.000000e+00		0.000000e+00		0.000000e+00
0.000000e+00		0.000000e+00		0.000000e+00
0.000000e+00		0.000000e+00		0.000000e+00
0.000000e+00		0.000000e+00		0.000000e+00
0.000000e+00		0.000000e+00		0.000000e+00
0.000000e+00		0.000000e+00		0.000000e+00
0.000000e+00		0.000000e+00		0.000000e+00
0.000000e+00		0.000000e+00		0.000000e+00
0.000000e+00		0.000000e+00		0.000000e+00
0.000000e+00		0.000000e+00		0.000000e+00
0.000000e+00		0.000000e+00		0.000000e+00
0.000000e+00		0.000000e+00		0.000000e+00
0.000000e+00		0.000000e+00		0.000000e+00
0.000000e+00		0.000000e+00		0.000000e+00
0.000000e+00		0.000000e+00		0.000000e+00
0.000000e+00		0.000000e+00		0.000000e+00
0.000000e+00		0.000000e+00		0.000000e+00
0.000000e+00		0.000000e+00		0.000000e+00
0.000000e+00		0.000000e+00		0.000000e+00
0.000000e+00		0.000000e+00		0.000000e+00
0.000000e+00		0.000000e+00		0.000000e+00
0.000000e+00		0.000000e+00		0.000000e+00
0.000000e+00		0.000000e+00		0.000000e+00
0.000000e+00		0.000000e+00		0.000000e+00
0.000000e+00		0.000000e+00		0.000000e+00
0.000000e+00		0.000000e+00		0.000000e+00
0.000000e+00		0.000000e+00		0.000000e+00
0.000000e+00		0.000000e+00		0.000000e+00
0.000000e+00		0.000000e+00		0.000000e+00
0.000000e+00		0.000000e+00		0.000000e+00
0.000000e+00		0.000000e+00		0.000000e+00
0.000000e+00		0.000000e+00		0.000000e+00
0.000000e+00		0.000000e+00		0.000000e+00
0.000000e+00		0.000000e+00		0.000000e+00
0.000000e+00		0.000000e+00		0.000000e+00
0.000000e+00		0.000000e+00		0.000000e+00
0.000000e+00		0.000000e+00		0.000000e+00
0.000000e+00		0.000000e+00		0.000000e+00
0.000000e+00		0.000000e+00		0.000000e+00
0.000000e+00		0.000000e+00		0.000000e+00
0.000000e+00		0.000000e+00		0.000000e+00
0.000000e+00		0.000000e+00		0.000000e+00
0.000000e+00		0.000000e+00		0.000000e+00
0.000000e+00		0.000000e+00		0.000000e+00
0.000000e+00		0.000000e+00		0.000000e+00
0.000000e+00		0.000000e+00		0.000000e+00
0.000000e+00		0.000000e+00		0.000000e+00
0.000000e+00		0.000000e+00		0.000000e+00
0.000000e+00		0.000000e+00		0.000000e+00
0.000000e+00		0.000000e+00		0.000000e+00
0.000000e+00		0.000000e+00		0.000000e+00
0.000000e+00		0.000000e+00		0.000000e+00
0.000000e+00		0.000000e+00		0.000000e+00
0.000000e+00		0.000000e+00		0.000000e+00
0.000000e+00		0.000000e+00		0.000000e+00
0.000000e+00		0.000000e+00		0.000000e+00
0.000000e+00		0.000000e+00		0.000000e+00
0.000000e+00		0.000000e+00		0.000000e+00
0.000000e+00		0.000000e+00		0.000000e+00
0.000000e+00		0.000000e+00		0.000000e+00
0.000000e+00		0.000000e+00		0.000000e+00
0.000000e+00		0.000000e+00		0.000000e+00
0.000000e+00		0.000000e+00		0.000000e+00
0.000000e+00		0.000000e+00		0.000000e+00
0.000000e+00		0.000000e+00		0.000000e+00
0.000000e+00		0.000000e+00		0.000000e+00
0.000000e+00		0.000000e+00		0.000000e+00
0.000000e+00		0.000000e+00		0.000000e+00
0.000000e+00		0.000000e+00		0.000000e+00
0.000000e+00		0.000000e+00		0.000000e+00
0.000000e+00		0.000000e+00		0.000000e+00
0.000000e+00		0.000000e+00		0.000000e+00
0.000000e+00		0.000000e+00		0.000000e+00
0.000000e+00		0.000000e+00		0.000000e+00
0.000000e+00		0.000000e+00		0.000000e+00
0.000000e+00		0.000000e+00		0.000000e+00
0.000000e+00		0.000000e+00		0.000000e+00
0.000000e+00		0.000000e+00		0.000000e+00
0.000000e+00		0.000000e+00		0.000000e+00
0.000000e+00		0.000000e+00		0.000000e+00
0.000000e+00		0.000000e+00		0.000000e+00
0.000000e+00		0.000000e+00		0.000000e+00
0.000000e+00		0.000000e+00		0.000000e+00
0.000000e+00		0.000000e+00		0.000000e+00
0.000000e+00		0.000000e+00		0.000000e+00
0.000000e+00		0.000000e+00		0.000000e+00
0.000000e+00		0.000000e+00		0.000000e+00
0.000000e+00		0.000000e+00		0.000000e+00
0.000000e+00		0.000000e+00		0.000000e+00
0.000000e+00		0.000000e+00		0.000000e+00
0.000000e+00		0.000000e+00		0.000000e+00
0.000000e+00		0.000000e+00		0.000000e+00
0.000000e+00		0.000000e+00		0.000000e+00
0.000000e+00		0.000000e+00		0.000000e+00
0.000000e+00		0.000000e+00		0.000000e+00
0.000000e+00		0.000000e+00		0.000000e+00
0.000000e+00		0.000000e+00		0.000000e+00
0.000000e+00		0.000000e+00		0.000000e+00
0.000000e+00		0.000000e+00		0.000000e+00
0.000000e+00		0.000000e+00		0.000000e+00
0.000000e+00		0.000000e+00		0.000000e+00
0.000000e+00		0.000000e+00		0.000000e+00
0.000000e+00		0.000000e+00		0.000000e+00
0.000000e+00		0.000000e+00		0.000000e+00
0.000000e+00		0.000000e+00		0.000000e+00
0.000000e+00		0.000000e+00		0.000000e+00
0.000000e+00		0.000000e+00		0.000000e+00
0.000000e+00		0.000000e+00		0.000000e+00
0.000000e+00		0.000000e+00		0.000000e+00
0.000000e+00		0.000000e+00		0.000000e+00
0.000000e+00		0.000000e+00		0.000000e+00
0.000000e+00		0.000000e+00		0.000000e+00
0.000000e+00		0.000000e+00		0.000000e+00
0.000000e+00		0.000000e+00		0.000000e+00
0.000000e+00		0.000000e+00		0.000000e+00
0.000000e+00		0.000000e+00		0.000000e+00
0.000000e+00		0.000000e+00		0.000000e+00
0.000000e+00		0.000000e+00		0.000000e+00
0.000000e+00		0.000000e+00		0.000000e+00
0.000000e+00		0.000000e+00		0.000000e+00
VECTORS acceleration double
0.000000e+00		0.000000e+00		0.000000e+00
0.000000e+00		0.000000e+00		0.000000e+00
0.000000e+00		0.000000e+00		0.000000e+00
0.000000e+00		0.000000e+00		0.000000e+00
0.000000e+00		0.000000e+00		0.000000e+00
0.000000e+00		0.000000e+00		0.000000e+00
0.000000e+00		0.000000e+00		0.000000e+00
0.000000e+00		0.000000e+00		0.000000e+00
0.000000e+00		0.000000e+00		0.000000e+00
0.000000e+00		0.000000e+00		0.000000e+00
0.000000e+00		0.000000e+00		0.000000e+00
0.000000e+00		0.000000e+00		0.000000e+00
0.000000e+00		0.000000e+00		0.000000e+00
0.000000e+00		0.000000e+00		0.000000e+00
0.000000e+00		0.000000e+00		0.000000e+00
0.000000e+00		0.000000e+00		0.000000e+00
0.000000e+00		0.000000e+00		0.000000e+00
0.000000e+00		0.000000e+00		0.000000e+00
0.000000e+00		0.000000e+00		0.000000e+00
0.000000e+00		0.000000e+00		0.000000e+00
0.000000e+00		0.000000e+00		0.000000e+00
0.000000e+00		0.000000e+00		0.000000e+00
0.000000e+00		0.000000e+00		0.000000e+00
0.000000e+00		0.000000e+00		0.000000e+00
0.000000e+00		0.000000e+00		0.000000e+00
0.000000e+00		0.000000e+00		0.000000e+00
0.000000e+00		0.000000e+00		0.000000e+00
0.000000e+00		0.000000e+00		0.000000e+00
0.000000e+00		0.000000e+00		0.000000e+00
0.000000e+00		0.000000e+00		0.000000e+00
0.000000e+00		0.000000e+00		0.000000e+00
0.000000e+00		0.000000e+00		0.000000e+00
0.000000e+00		0.000000e+00		0.000000e+00
0.000000e+00		0.000000e+00		0.000000e+00
0.000000e+00		0.000000e+00		0.000000e+00
0.000000e+00		0.000000e+00		0.000000e+00
0.000000e+00		0.000000e+00		0.000000e+00
0.000000e+00		0.000000e+00		0.000000e+00
0.000000e+00		0.000000e+00		0.000000e+00
0.000000e+00		0.000000e+00		0.000000e+00
0.000000e+00		0.000000e+00		0.000000e+00
0.000000e+00		0.000000e+00		0.000000e+00
0.000000e+00		0.000000e+00		0.000000e+00
0.000000e+00		0.000000e+00		0.000000e+00
0.000000e+00		0.000000e+00		0.000000e+00
0.000000e+00		0.000000e+00		0.000000e+00
0.000000e+00		0.000000e+00		0.000000e+00
0.000000e+00		0.000000e+00		0.000000e+00
0.000000e+00		0.000000e+00		0.000000e+00
0.000000e+00		0.000000e+00		0.000000e+00
0.000000e+00		0.000000e+00		0.000000e+00
0.000000e+00		0.000000e+00		0.000000e+00
0.000000e+00		0.000000e+00		0.000000e+00
0.000000e+00		0.000000e+00		0.000000e+00
0.000000e+00		0.000000e+00		0.000000e+00
0.000000e+00		0.000000e+00		0.000000e+00
0.000000e+00		0.000000e+00		0.000000e+00
0.000000e+00		0.000000e+00		0.000000e+00
0.000000e+00		0.000000e+00		0.000000e+00
0.000000e+00		0.000000e+00		0.000000e+00
0.000000e+00		0.000000e+00		0.000000e+00
0.000000e+00		0.000000e+00		0.000000e+00
0.000000e+00		0.000000e+00		0.000000e+00
0.000000e+00		0.000000e+00		0.000000e+00
0.000000e+00		0.000000e+00		0.000000e+00
0.000000e+00		0.000000e+00		0.000000e+00
0.000000e+00		0.000000e+00		0.000000e+00
0.000000e+00		0.000000e+00		0.000000e+00
0.000000e+00		0.000000e+00		0.000000e+00
0.000000e+00		0.000000e+00		0.000000e+00
0.000000e+00		0.000000e+00		0.000000e+00
0.000000e+00		0.000000e+00		0.000000e+00
0.000000e+00		0.000000e+00		0.000000e+00
0.000000e+00		0.000000e+00		0.000000e+00
0.000000e+00		0.000000e+00		0.000000e+00
0.000000e+00		0.000000e+00		0.000000e+00
0.000000e+00		0.000000e+00		0.000000e+00
0.000000e+00		0.000000e+00		0.000000e+00
0.000000e+00		0.000000e+00		0.000000e+00
0.000000e+00		0.000000e+00		0.000000e+00
0.000000e+00		0.000000e+00		0.000000e+00
0.000000e+00		0.000000e+00		0.000000e+00
0.000000e+00		0.000000e+00		0.000000e+00
0.000000e+00		0.000000e+00		0.000000e+00
0.000000e+00		0.000000e+00		0.000000e+00
0.000000e+00		0.000000e+00		0.000000e+00
0.000000e+00		0.000000e+00		0.000000e+00
0.000000e+00		0.000000e+00		0.000000e+00
0.000000e+00		0.000000e+00		0.000000e+00
0.000000e+00		0.000000e+00		0.000000e+00
0.000000e+00		0.000000e+00		0.000000e+00
0.000000e+00		0.000000e+00		0.000000e+00
0.000000e+00		0.000000e+00		0.000000e+00
0.000000e+00		0.000000e+00		0.000000e+00
0.000000e+00		0.000000e+00		0.000000e+00
0.000000e+00		0.000000e+00		0.000000e+00
0.000000e+00		0.000000e+00		0.000000e+00
0.000000e+00		0.000000e+00		0.000000e+00
0.000000e+00		0.000000e+00		0.000000e+00
0.000000e+00		0.000000e+00		0.000000e+00
0.000000e+00		0.000000e+00		0.000000e+00
0.000000e+00		0.000000e+00		0.000000e+00
0.000000e+00		0.000000e+00		0.000000e+00
0.000000e+00		0.000000e+00		0.000000e+00
0.000000e+00		0.000000e+00		0.000000e+00
0.000000e+00		0.000000e+00		0.000000e+00
0.000000e+00		0.000000e+00		0.000000e+00
0.000000e+00		0.000000e+00		0.000000e+00
0.000000e+00		0.000000e+00		0.000000e+00
0.000000e+00		0.000000e+00		0.000000e+00
0.000000e+00		0.000000e+00		0.000000e+00
0.000000e+00		0.000000e+00		0.000000e+00
0.000000e+00		0.000000e+00		0.000000e+00
0.000000e+00		0.000000e+00		0.000000e+00
0.000000e+00		0.000000e+00		0.000000e+00
0.000000e+00		0.000000e+00		0.000000e+00
0.000000e+00		0.000000e+00		0.000000e+00
0.000000e+00		0.000000e+00		0.000000e+00
0.000000e+00		0.000000e+00		0.000000e+00
0.000000e+00		0.000000e+00		0.000000e+00
0.000000e+00		0.000000e+00		0.000000e+00
0.000000e+00		0.000000e+00		0.000000e+00
0.000000e+00		0.000000e+00		0.000000e+00
0.000000e+00		0.000000e+00		0.000000e+00
0.000000e+00		0.000000e+00		0.000000e+00
0.000000e+00		0.000000e+00		0.000000e+00
0.000000e+00		0.000000e+00		0.000000e+00
0.000000e+00		0.000000e+00		0.000000e+00
0.000000e+00		0.000000e+00		0.000000e+00
0.000000e+00		0.000000e+00		0.000000e+00
0.000000e+00		0.000000e+00		0.000000e+00
0.000000e+00		0.000000e+00		0.000000e+00
0.000000e+00		0.000000e+00		0.000000e+00
0.000000e+00		0.000000e+00		0.000000e+00
0.000000e+00		0.000000e+00		0.000000e+00
0.000000e+00		0.000000e+00		0.000000e+00
0.000000e+00		0.000000e+00		0.000000e+00
0.000000e+00		0.000000e+00		0.000000e+00
0.000000e+00		0.000000e+00		0.000000e+00
0.000000e+00		0.000000e+00		0.000000e+00
0.000000e+00		0.000000e+00		0.000000e+00
0.000000e+00		0.000000e+00		0.000000e+00
0.000000e+00		0.000000e+00		0.000000e+00
0.000000e+00		0.000000e+00		0.000000e+00
0.000000e+00		0.000000e+00		0.000000e+00
0.000000e+00		0.000000e+00		0.000000e+00
0.000000e+00		0.000000e+00		0.000000e+00
0.000000e+00		0.000000e+00		0.000000e+00
0.000000e+00		0.000000e+00		0.000000e+00
0.000000e+00		0.000000e+00		0.000000e+00
0.000000e+00		0.000000e+00		0.000000e+00
0.000000e+00		0.000000e+00		0.000000e+00
0.000000e+00		0.000000e+00		0.000000e+00
0.000000e+00		0.000000e+00		0.000000e+00
0.000000e+00		0.000000e+00		0.000000e+00
0.000000e+00		0.000000e+00		0.000000e+00
0.000000e+00		0.000000e+00		0.000000e+00
0.000000e+00		0.000000e+00		0.000000e+00
0.000000e+00		0.000000e+00		0.000000e+00
0.000000e+00		0.000000e+00		0.000000e+00
0.000000e+00		0.000000e+00		0.000000e+00
0.000000e+00		0.000000e+00		0.000000e+00
0.000000e+00		0.000000e+00		0.000000e+00
0.000000e+00		0.000000e+00		0.000000e+00
0.000000e+00		0.000000e+00		0.000000e+00
0.000000e+00		0.000000e+00		0.000000e+00
0.000000e+00		0.000000e+00		0.000000e+00
0.000000e+00		0.000000e+00		0.000000e+00
0.000000e+00		0.000000e+00		0.000000e+00
0.000000e+00		0.000000e+00		0.000000e+00
0.000000e+00		0.000000e+00		0.000000e+00
0.000000e+00		0.000000e+00		0.000000e+00
0.000000e+00		0.000000e+00		0.000000e+00
0.000000e+00		0.000000e+00		0.000000e+00
0.000000e+00		0.000000e+00		0.000000e+00
0.000000e+00		0.000000e+00		0.000000e+00
0.000000e+00		0.000000e+00		0.000000e+00
0.000000e+00		0.000000e+00		0.000000e+00
0.000000e+00		0.000000e+00		0.000000e+00
0.000000e+00		0.000000e+00		0.000000e+00
0.000000e+00		0.000000e+00		0.000000e+00
0.000000e+00		0.000000e+00		0.000000e+00
0.000000e+00		0.000000e+00		0.000000e+00
0.000000e+00		0.000000e+00		0.000000e+00
0.000000e+00		0.000000e+00		0.000000e+00
0.000000e+00		0.000000e+00		0.000000e+00
0.000000e+00		0.000000e+00		0.000000e+00
0.000000e+00		0.000000e+00		0.000000e+00
0.000000e+00		0.000000e+00		0.000000e+00
0.000000e+00		0.000000e+00		0.000000e+00
0.000000e+00		0.000000e+00		0.000000e+00
0.000000e+00		0.000000e+00		0.000000e+00
0.000000e+00		0.000000e+00		0.000000e+00
0.000000e+00		0.000000e+00		0.000000e+00
0.000000e+00		0.000000e+00		0.000000e+00
0.000000e+00		0.000000e+00		0.000000e+00
0.000000e+00		0.000000e+00		0.000000e+00
0.000000e+00		0.000000e+00		0.000000e+00
0.000000e+00		0.000000e+00		0.000000e+00
0.000000e+00		0.000000e+00		0.000000e+00
0.000000e+00		0.000000e+00		0.000000e+00
0.000000e+00		0.000000e+00		0.000000e+00
0.000000e+00		0.000000e+00		0.000000e+00
0.000000e+00		0.000000e+00		0.000000e+00
0.000000e+00		0.000000e+00		0.000000e+00
0.000000e+00		0.000000e+00		0.000000e+00
0.000000e+00		0.000000e+00		0.000000e+00
0.000000e+00		0.000000e+00		0.000000e+00
0.000000e+00		0.000000e+00		0.000000e+00
0.000000e+00		0.000000e+00		0.000000e+00
0.000000e+00		0.000000e+00		0.000000e+00
0.000000e+00		0.000000e+00		0.000000e+00
0.000000e+00		0.000000e+00		0.000000e+00
0.000000e+00		0.000000e+00		0.000000e+00
0.000000e+00		0.000000e+00		0.000000e+00
0.000000e+00		0.000000e+00		0.000000e+00
0.000000e+00		0.000000e+00		0.000000e+00
0.000000e+00		0.000000e+00		0.000000e+00
0.000000e+00		0.000000e+00		0.000000e+00
0.000000e+00		0.000000e+00		0.000000e+00
0.000000e+00		0.000000e+00		0.000000e+00
0.000000e+00		0.000000e+00		0.000000e+00
0.000000e+00		0.000000e+00		0.000000e+00
0.000000e+00		0.000000e+00		0.000000e+00
0.000000e+00		0.000000e+00		0.000000e+00
0.000000e+00		0.000000e+00		0.000000e+00
0.000000e+00		0.000000e+00		0.000000e+00
0.000000e+00		0.000000e+00		0.000000e+00
0.000000e+00		0.000000e+00		0.000000e+00
0.000000e+00		0.000000e+00		0.000000e+00
0.000000e+00		0.000000e+00		0.000000e+00
0.000000e+00		0.000000e+00		0.000000e+00
0.000000e+00		0.000000e+00		0.000000e+00
0.000000e+00		0.000000e+00		0.000000e+00
0.000000e+00		0.000000e+00		0.000000e+00
0.000000e+00		0.000000e+00		0.000000e+00
0.000000e+00		0.000000e+00		0.000000e+00
0.000000e+00		0.000000e+00		0.000000e+00
0.000000e+00		0.000000e+00		0.000000e+00
0.000000e+00		0.000000e+00		0.000000e+00
0.000000e+00		0.000000e+00		0.000000e+00
0.000000e+00		0.000000e+00		0.000000e+00
0.000000e+00		0.000000e+00		0.000000e+00
0.000000e+00		0.000000e+00		0.000000e+00
0.000000e+00		0.000000e+00		0.000000e+00
0.000000e+00		0.000000e+00		0.000000e+00
0.000000e+00		0.000000e+00		0.000000e+00
0.000000e+00		0.000000e+00		0.000000e+00
0.000000e+00		0.000000e+00		0.000000e+00
0.000000e+00		0.000000e+00		0.000000e+00
0.000000e+00		0.000000e+00		0.000000e+00
0.000000e+00		0.000000e+00		0.000000e+00
0.000000e+00		0.000000e+00		0.000000e+00
0.000000e+00		0.000000e+00		0.000000e+00
0.000000e+00		0.000000e+00		0.000000e+00
0.000000e+00		0.000000e+00		0.000000e+00
0.000000e+00		0.000000e+00		0.000000e+00
0.000000e+00		0.000000e+00		0.000000e+00
0.000000e+00		0.000000e+00		0.000000e+00
0.000000e+00		0.000000e+00		0.000000e+00
0.000000e+00		0.000000e+00		0.000000e+00
0.000000e+00		0.000000e+00		0.000000e+00
0.000000e+00		0.000000e+00		0.000000e+00
0.000000e+00		0.000000e+00		0.000000e+00
0.000000e+00		0.000000e+00		0.000000e+00
0.000000e+00		0.000000e+00		0.000000e+00
0.000000e+00		0.000000e+00		0.000000e+00
0.000000e+00		0.000000e+00		0.000000e+00
0.000000e+00		0.000000e+00		0.000000e+00
0.000000e+00		0.000000e+00		0.000000e+00
0.000000e+00		0.000000e+00		0.000000e+00
0.000000e+00		0.000000e+00		0.000000e+00
0.000000e+00		0.000000e+00		0.000000e+00
0.000000e+00		0.000000e+00		0.000000e+00
0.000000e+00		0.000000e+00		0.000000e+00
0.000000e+00		0.000000e+00		0.000000e+00
0.000000e+00		0.000000e+00		0.000000e+00
0.000000e+00		0.000000e+00		0.000000e+00
0.000000e+00		0.000000e+00		0.000000e+00
0.000000e+00		0.000000e+00		0.000000e+00
0.000000e+00		0.000000e+00		0.000000e+00
0.000000e+00		0.000000e+00		0.000000e+00
0.000000e+00		0.000000e+00		0.000000e+00
0.000000e+00		0.000000e+00		0.000000e+00
0.000000e+00		0.000000e+00		0.000000e+00
0.000000e+00		0.000000e+00		0.000000e+00
0.000000e+00		0.000000e+00		0.000000e+00
0.000000e+00		0.000000e+00		0.000000e+00
0.000000e+00		0.000000e+00		0.000000e+00
0.000000e+00		0.000000e+00		0.000000e+00
0.000000e+00		0.000000e+00		0.000000e+00
0.000000e+00		0.000000e+00		0.000000e+00
0.000000e+00		0.000000e+00		0.000000e+00
0.000000e+00		0.000000e+00		0.000000e+00
0.000000e+00		0.000000e+00		0.000000e+00
0.000000e+00		0.000000e+00		0.000000e+00
0.000000e+00		0.000000e+00		0.000000e+00
0.000000e+00		0.000000e+00		0.000000e+00
0.000000e+00		0.000000e+00		0.000000e+00
0.000000e+00		0.000000e+00		0.000000e+00
0.000000e+00		0.000000e+00		0.000000e+00
0.000000e+00		0.000000e+00		0.000000e+00
0.000000e+00		0.000000e+00		0.000000e+00
0.000000e+00		0.000000e+00		0.000000e+00
0.000000e+00		0.000000e+00		0.000000e+00
0.000000e+00		0.000000e+00		0.000000e+00
0.000000e+00		0.000000e+00		0.000000e+00
0.000000e+00		0.000000e+00		0.000000e+00
0.000000e+00		0.000000e+00		0.000000e+00
0.000000e+00		0.000000e+00		0.000000e+00
0.000000e+00		0.000000e+00		0.000000e+00
0.000000e+00		0.000000e+00		0.000000e+00
0.000000e+00		0.000000e+00		0.000000e+00
0.000000e+00		0.000000e+00		0.000000e+00
0.000000e+00		0.000000e+00		0.000000e+00
0.000000e+00		0.000000e+00		0.000000e+00
0.000000e+00		0.000000e+00		0.000000e+00
0.000000e+00		0.000000e+00		0.000000e+00
0.000000e+00		0.000000e+00		0.000000e+00
0.000000e+00		0.000000e+00		0.000000e+00
0.000000e+00		0.000000e+00		0.000000e+00
0.000000e+00		0.000000e+00		0.000000e+00
0.000000e+00		0.000000e+00		0.000000e+00
0.000000e+00		0.000000e+00		0.000000e+00
0.000000e+00		0.000000e+00		0.000000e+00
0.000000e+00		0.000000e+00		0.000000e+00
0.000000e+00		0.000000e+00		0.000000e+00
0.000000e+00		0.000000e+00		0.000000e+00
0.000000e+00		0.000000e+00		0.000000e+00
0.000000e+00		0.000000e+00		0.000000e+00
0.000000e+00		0.000000e+00		0.000000e+00
0.000000e+00		0.000000e+00		0.000000e+00
0.000000e+00		0.000000e+00		0.000000e+00
0.000000e+00		0.000000e+00		0.000000e+00
0.000000e+00		0.000000e+00		0.000000e+00
0.000000e+00		0.000000e+00		0.000000e+00
0.000000e+00		0.000000e+00		0.000000e+00
0.000000e+00		0.000000e+00		0.000000e+00
0.000000e+00		0.000000e+00		0.000000e+00
0.000000e+00		0.000000e+00		0.000000e+00
0.000000e+00		0.000000e+00		0.000000e+00
0.000000e+00		0.000000e+00		0.000000e+00
0.000000e+00		0.000000e+00		0.000000e+00
0.000000e+00		0.000000e+00		0.000000e+00
0.000000e+00		0.000000e+00		0.000000e+00
0.000000e+00		0.000000e+00		0.000000e+00
0.000000e+00		0.000000e+00		0.000000e+00
0.000000e+00		0.000000e+00		0.000000e+00
0.000000e+00		0.000000e+00		0.000000e+00
0.000000e+00		0.000000e+00		0.000000e+00
0.000000e+00		0.000000e+00		0.000000e+00
0.000000e+00		0.000000e+00		0.000000e+00
0.000000e+00		0.000000e+00		0.000000e+00
0.000000e+00		0.000000e+00		0.000000e+00
0.000000e+00		0.000000e+00		0.000000e+00
0.000000e+00		0.000000e+00		0.000000e+00
0.000000e+00		0.000000e+00		0.000000e+00
0.000000e+00		0.000000e+00		0.000000e+00
0.000000e+00		0.000000e+00		0.000000e+00
0.000000e+00		0.000000e+00		0.000000e+00
0.000000e+00		0.000000e+00		0.000000e+00
0.000000e+00		0.000000e+00		0.000000e+00
0.000000e+00		0.000000e+00		0.000000e+00
0.000000e+00		0.000000e+00		0.000000e+00
0.000000e+00		0.000000e+00		0.000000e+00
0.000000e+00		0.000000e+00		0.000000e+00
0.000000e+00		0.000000e+00		0.000000e+00
0.000000e+00		0.000000e+00		0.000000e+00
0.000000e+00		0.000000e+00		0.000000e+00
0.000000e+00		0.000000e+00		0.000000e+00
0.000000e+00		0.000000e+00		0.000000e+00
0.000000e+00		0.000000e+00		0.000000e+00
0.000000e+00		0.000000e+00		0.000000e+00
0.000000e+00		0.000000e+00		0.000000e+00
0.000000e+00		0.000000e+00		0.000000e+00
0.000000e+00		0.000000e+00		0.000000e+00
0.000000e+00		0.000000e+00		0.000000e+00
0.000000e+00		0.000000e+00		0.000000e+00
0.000000e+00		0.000000e+00		0.000000e+00
0.000000e+00		0.000000e+00		0.000000e+00
0.000000e+00		0.000000e+00		0.000000e+00
0.000000e+00		0.000000e+00		0.000000e+00
0.000000e+00		0.000000e+00		0.000000e+00
0.000000e+00		0.000000e+00		0.000000e+00
0.000000e+00		0.000000e+00		0.000000e+00
0.000000e+00		0.000000e+00		0.000000e+00
0.000000e+00		0.000000e+00		0.000000e+00
0.000000e+00		0.000000e+00		0.000000e+00
0.000000e+00		0.000000e+00		0.000000e+00
0.000000e+00		0.000000e+00		0.000000e+00
0.000000e+00		0.000000e+00		0.000000e+00
0.000000e+00		0.000000e+00		0.000000e+00
0.000000e+00		0.000000e+00		0.000000e+00
0.000000e+00		0.000000e+00		0.000000e+00
0.000000e+00		0.000000e+00		0.000000e+00
0.000000e+00		0.000000e+00		0.000000e+00
0.000000e+00		0.000000e+00		0.000000e+00
0.000000e+00		0.000000e+00		0.000000e+00
0.000000e+00		0.000000e+00		0.000000e+00
0.000000e+00		0.000000e+00		0.000000e+00
0.000000e+00		0.000000e+00		0.000000e+00
0.000000e+00		0.000000e+00		0.000000e+00
0.000000e+00		0.000000e+00		0.000000e+00
0.000000e+00		0.000000e+00		0.000000e+00
0.000000e+00		0.000000e+00		0.000000e+00
0.000000e+00		0.000000e+00		0.000000e+00
0.000000e+00		0.000000e+00		0.000000e+00
0.000000e+00		0.000000e+00		0.000000e+00
0.000000e+00		0.000000e+00		0.000000e+00
0.000000e+00		0.000000e+00		0.000000e+00
0.000000e+00		0.000000e+00		0.000000e+00
0.000000e+00		0.000000e+00		0.000000e+00
0.000000e+00		0.000000e+00		0.000000e+00
0.000000e+00		0.000000e+00		0.000000e+00
0.000000e+00		0.000000e+00		0.000000e+00
0.000000e+00		0.000000e+00		0.000000e+00
0.000000e+00		0.000000e+00		0.000000e+00
0.000000e+00		0.000000e+00		0.000000e+00
0.000000e+00		0.000000e+00		0.000000e+00
0.000000e+00		0.000000e+00		0.000000e+00
0.000000e+00		0.000000e+00		0.000000e+00
0.000000e+00		0.000000e+00		0.000000e+00
0.000000e+00		0.000000e+00		0.000000e+00
0.000000e+00		0.000000e+00		0.000000e+00
0.000000e+00		0.000000e+00		0.000000e+00
0.000000e+00		0.000000e+00		0.000000e+00
0.000000e+00		0.000000e+00		0.000000e+00
0.000000e+00		0.000000e+00		0.000000e+00
0.000000e+00		0.000000e+00		0.000000e+00
0.000000e+00		0.000000e+00		0.000000e+00
0.000000e+00		0.000000e+00		0.000000e+00
0.000000e+00		0.000000e+00		0.000000e+00
0.000000e+00		0.000000e+00		0.000000e+00
0.000000e+00		0.000000e+00		0.000000e+00
0.000000e+00		0.000000e+00		0.000000e+00
0.000000e+00		0.000000e+00		0.000000e+00
0.000000e+00		0.000000e+00		0.000000e+00
0.000000e+00		0.000000e+00		0.000000e+00
0.000000e+00		0.000000e+00		0.000000e+00
0.000000e+00		0.000000e+00		0.000000e+00
0.000000e+00		0.000000e+00		0.000000e+00
0.000000e+00		0.000000e+00		0.000000e+00
0.000000e+00		0.000000e+00		0.000000e+00
0.000000e+00		0.000000e+00		0.000000e+00
0.000000e+00		0.000000e+00		0.000000e+00
0.000000e+00		0.000000e+00		0.000000e+00
0.000000e+00		0.000000e+00		0.000000e+00
0.000000e+00		0.000000e+00		0.000000e+00
0.000000e+00		0.000000e+00		0.000000e+00
0.000000e+00		0.000000e+00		0.000000e+00
0.000000e+00		0.000000e+00		0.000000e+00
0.000000e+00		0.000000e+00		0.000000e+00
0.000000e+00		0.000000e+00		0.000000e+00
0.000000e+00		0.000000e+00		0.000000e+00
0.000000e+00		0.000000e+00		0.000000e+00
0.000000e+00		0.000000e+00		0.000000e+00
0.000000e+00		0.000000e+00		0.000000e+00
0.000000e+00		0.000000e+00		0.000000e+00
0.000000e+00		0.000000e+00		0.000000e+00
0.000000e+00		0.000000e+00		0.000000e+00
0.000000e+00		0.000000e+00		0.000000e+00
0.000000e+00		0.000000e+00		0.000000e+00
0.000000e+00		0.000000e+00		0.000000e+00
0.000000e+00		0.000000e+00		0.000000e+00
0.000000e+00		0.000000e+00		0.000000e+00
0.000000e+00		0.000000e+00		0.000000e+00
0.000000e+00		0.000000e+00		0.000000e+00
0.000000e+00		0.000000e+00		0.000000e+00
0.000000e+00		0.000000e+00		0.000000e+00
0.000000e+00		0.000000e+00		0.000000e+00
0.000000e+00		0.000000e+00		0.000000e+00
0.000000e+00		0.000000e+00		0.000000e+00
0.000000e+00		0.000000e+00		0.000000e+00
0.000000e+00		0.000000e+00		0.000000e+00
0.000000e+00		0.000000e+00		0.000000e+00
0.000000e+00		0.000000e+00		0.000000e+00
0.000000e+00		0.000000e+00		0.000000e+00
0.000000e+00		0.000000e+00		0.000000e+00
0.000000e+00		0.000000e+00		0.000000e+00
0.000000e+00		0.000000e+00		0.000000e+00
0.000000e+00		0.000000e+00		0.000000e+00
0.000000e+00		0.000000e+00		0.000000e+00
0.000000e+00		0.000000e+00		0.000000e+00
0.000000e+00		0.000000e+00		0.000000e+00
0.000000e+00		0.000000e+00		0.000000e+00
0.000000e+00		0.000000e+00		0.000000e+00
0.000000e+00		0.000000e+00		0.000000e+00
0.000000e+00		0.000000e+00		0.000000e+00
0.000000e+00		0.000000e+00		0.000000e+00
0.000000e+00		0.000000e+00		0.000000e+00
0.000000e+00		0.000000e+00		0.000000e+00
0.000000e+00		0.000000e+00		0.000000e+00
0.000000e+00		0.000000e+00		0.000000e+00
0.000000e+00		0.000000e+00		0.000000e+00
0.000000e+00		0.000000e+00		0.000000e+00
0.000000e+00		0.000000e+00		0.000000e+00
0.000000e+00		0.000000e+00		0.000000e+00
0.000000e+00		0.000000e+00		0.000000e+00
0.000000e+00		0.000000e+00		0.000000e+00
0.000000e+00		0.000000e+00		0.000000e+00
0.000000e+00		0.000000e+00		0.000000e+00
0.000000e+00		0.000000e+00		0.000000e+00
0.000000e+00		0.000000e+00		0.000000e+00
0.000000e+00		0.000000e+00		0.000000e+00
0.000000e+00		0.000000e+00		0.000000e+00
0.000000e+00		0.000000e+00		0.000000e+00
0.000000e+00		0.000000e+00		0.000000e+00
0.000000e+00		0.000000e+00		0.000000e+00
0.000000e+00		0.000000e+00		0.000000e+00
0.000000e+00		0.000000e+00		0.000000e+00
0.000000e+00		0.000000e+00		0.000000e+00
0.000000e+00		0.000000e+00		0.000000e+00
0.000000e+00		0.000000e+00		0.000000e+00
0.000000e+00		0.000000e+00		0.000000e+00
0.000000e+00		0.000000e+00		0.000000e+00
0.000000e+00		0.000000e+00		0.000000e+00
0.000000e+00		0.000000e+00		0.000000e+00
0.000000e+00		0.000000e+00		0.000000e+00
0.000000e+00		0.000000e+00		0.000000e+00
0.000000e+00		0.000000e+00		0.000000e+00
0.000000e+00		0.000000e+00		0.000000e+00
0.000000e+00		0.000000e+00		0.000000e+00
0.000000e+00		0.000000e+00		0.000000e+00
0.000000e+00		0.000000e+00		0.000000e+00
0.000000e+00		0.000000e+00		0.000000e+00
0.000000e+00		0.000000e+00		0.000000e+00
0.000000e+00		0.000000e+00		0.000000e+00
0.000000e+00		0.000000e+00		0.000000e+00
0.000000e+00		0.000000e+00		0.000000e+00
0.000000e+00		0.000000e+00		0.000000e+00
0.000000e+00		0.000000e+00		0.000000e+00
0.000000e+00		0.000000e+00		0.000000e+00
0.000000e+00		0.000000e+00		0.000000e+00
0.000000e+00		0.000000e+00		0.000000e+00
0.000000e+00		0.000000e+00		0.000000e+00
0.000000e+00		0.000000e+00		0.000000e+00
0.000000e+00		0.000000e+00		0.000000e+00
0.000000e+00		0.000000e+00		0.000000e+00
0.000000e+00		0.000000e+00		0.000000e+00
0.000000e+00		0.000000e+00		0.000000e+00
0.000000e+00		0.000000e+00		0.000000e+00
0.000000e+00		0.000000e+00		0.000000e+00
0.000000e+00		0.000000e+00		0.000000e+00
0.000000e+00		0.000000e+00		0.000000e+00
0.000000e+00		0.000000e+00		0.000000e+00
0.000000e+00		0.000000e+00		0.000000e+00
0.000000e+00		0.000000e+00		0.000000e+00
0.000000e+00		0.000000e+00		0.000000e+00
0.000000e+00		0.000000e+00		0.000000e+00
0.000000e+00		0.000000e+00		0.000000e+00
0.000000e+00		0.000000e+00		0.000000e+00
0.000000e+00		0.000000e+00		0.000000e+00
0.000000e+00		0.000000e+00		0.000000e+00
0.000000e+00		0.000000e+00		0.000000e+00
0.000000e+00		0.000000e+00		0.000000e+00
0.000000e+00		0.000000e+00		0.000000e+00
0.000000e+00		0.000000e+00		0.000000e+00
0.000000e+00		0.000000e+00		0.000000e+00
0.000000e+00		0.000000e+00		0.000000e+00
0.000000e+00		0.000000e+00		0.000000e+00
0.000000e+00		0.000000e+00		0.000000e+00
0.000000e+00		0.000000e+00		0.000000e+00
0.000000e+00		0.000000e+00		0.000000e+00
0.000000e+00		0.000000e+00		0.000000e+00
0.000000e+00		0.000000e+00		0.000000e+00
0.000000e+00		0.000000e+00		0.000000e+00
0.000000e+00		0.000000e+00		0.000000e+00
0.000000e+00		0.000000e+00		0.000000e+00
0.000000e+00		0.000000e+00		0.000000e+00
0.000000e+00		0.000000e+00		0.000000e+00
0.000000e+00		0.000000e+00		0.000000e+00
0.000000e+00		0.000000e+00		0.000000e+00
0.000000e+00		0.000000e+00		0.000000e+00
0.000000e+00		0.000000e+00		0.000000e+00
0.000000e+00		0.000000e+00		0.000000e+00
0.000000e+00		0.000000e+00		0.000000e+00
0.000000e+00		0.000000e+00		0.000000e+00
0.000000e+00		0.000000e+00		0.000000e+00
0.000000e+00		0.000000e+00		0.000000e+00
0.000000e+00		0.000000e+00		0.000000e+00
0.000000e+00		0.000000e+00		0.000000e+00
0.000000e+00		0.000000e+00		0.000000e+00
0.000000e+00		0.000000e+00		0.000000e+00
0.000000e+00		0.000000e+00		0.000000e+00
0.000000e+00		0.000000e+00		0.000000e+00
0.000000e+00		0.000000e+00		0.000000e+00
0.000000e+00		0.000000e+00		0.000000e+00
0.000000e+00		0.000000e+00		0.000000e+00
0.000000e+00		0.000000e+00		0.000000e+00
0.000000e+00		0.000000e+00		0.000000e+00
0.000000e+00		0.000000e+00		0.000000e+00
0.000000e+00		0.000000e+00		0.000000e+00
0.000000e+00		0.000000e+00		0.000000e+00
0.000000e+00		0.000000e+00		0.000000e+00
0.000000e+00		0.000000e+00		0.000000e+00
0.000000e+00		0.000000e+00		0.000000e+00
0.000000e+00		0.000000e+00		0.000000e+00
0.000000e+00		0.000000e+00		0.000000e+00
0.000000e+00		0.000000e+00		0.000000e+00
0.000000e+00		0.000000e+00		0.000000e+00
0.000000e+00		0.000000e+00		0.000000e+00
0.000000e+00		0.000000e+00		0.000000e+00
0.000000e+00		0.000000e+00		0.000000e+00
0.000000e+00		0.000000e+00		0.000000e+00
0.000000e+00		0.000000e+00		0.000000e+00
0.000000e+00		0.000000e+00		0.000000e+00
0.000000e+00		0.000000e+00		0.000000e+00
0.000000e+00		0.000000e+00		0.000000e+00
0.000000e+00		0.000000e+00		0.000000e+00
0.000000e+00		0.000000e+00		0.000000e+00
0.000000e+00		0.000000e+00		0.000000e+00
0.000000e+00		0.000000e+00		0.000000e+00
0.000000e+00		0.000000e+00		0.000000e+00
0.000000e+00		0.000000e+00		0.000000e+00
0.000000e+00		0.000000e+00		0.000000e+00
0.000000e+00		0.000000e+00		0.000000e+00
0.000000e+00		0.000000e+00		0.000000e+00
0.000000e+00		0.000000e+00		0.000000e+00
0.000000e+00		0.000000e+00		0.000000e+00
0.000000e+00		0.000000e+00		0.000000e+00
0.000000e+00		0.000000e+00		0.000000e+00
0.000000e+00		0.000000e+00		0.000000e+00
0.000000e+00		0.000000e+00		0.000000e+00
0.000000e+00		0.000000e+00		0.000000e+00
0.000000e+00		0.000000e+00		0.000000e+00
0.000000e+00		0.000000e+00		0.000000e+00
0.000000e+00		0.000000e+00		0.000000e+00
0.000000e+00		0.000000e+00		0.000000e+00
0.000000e+00		0.000000e+00		0.000000e+00
0.000000e+00		0.000000e+00		0.000000e+00
0.000000e+00		0.000000e+00		0.000000e+00
0.000000e+00		0.000000e+00		0.000000e+00
0.000000e+00		0.000000e+00		0.000000e+00
0.000000e+00		0.000000e+00		0.000000e+00
0.000000e+00		0.000000e+00		0.000000e+00
0.000000e+00		0.000000e+00		0.000000e+00
0.000000e+00		0.000000e+00		0.000000e+00
0.000000e+00		0.000000e+00		0.000000e+00
0.000000e+00		0.000000e+00		0.000000e+00
0.000000e+00		0.000000e+00		0.000000e+00
0.000000e+00		0.000000e+00		0.000000e+00
0.000000e+00		0.000000e+00		0.000000e+00
0.000000e+00		0.000000e+00		0.000000e+00
0.000000e+00		0.000000e+00		0.000000e+00
0.000000e+00		0.000000e+00		0.000000e+00
0.000000e+00		0.000000e+00		0.000000e+00
0.000000e+00		0.000000e+00		0.000000e+00
0.000000e+00		0.000000e+00		0.000000e+00
0.000000e+00		0.000000e+00		0.000000e+00
0.000000e+00		0.000000e+00		0.000000e+00
0.000000e+00		0.000000e+00		0.000000e+00
0.000000e+00		0.000000e+00		0.000000e+00
0.000000e+00		0.000000e+00		0.000000e+00
0.000000e+00		0.000000e+00		0.000000e+00
0.000000e+00		0.000000e+00		0.000000e+00
0.000000e+00		0.000000e+00		0.000000e+00
0.000000e+00		0.000000e+00		0.000000e+00
0.000000e+00		0.000000e+00		0.000000e+00
0.000000e+00		0.000000e+00		0.000000e+00
0.000000e+00		0.000000e+00		0.000000e+00
0.000000e+00		0.000000e+00		0.000000e+00
0.000000e+00		0.000000e+00		0.000000e+00
0.000000e+00		0.000000e+00		0.000000e+00
0.000000e+00		0.000000e+00		0.000000e+00
0.000000e+00		0.000000e+00		0.000000e+00
0.000000e+00		0.000000e+00		0.000000e+00
0.000000e+00		0.000000e+00		0.000000e+00
0.000000e+00		0.000000e+00		0.000000e+00
0.000000e+00		0.000000e+00		0.000000e+00
0.000000e+00		0.000000e+00		0.000000e+00
0.000000e+00		0.000000e+00		0.000000e+00
0.000000e+00		0.000000e+00		0.000000e+00
0.000000e+00		0.000000e+00		0.000000e+00
0.000000e+00		0.000000e+00		0.000000e+00
0.000000e+00		0.000000e+00		0.000000e+00
0.000000e+00		0.000000e+00		0.000000e+00
0.000000e+00		0.000000e+00		0.000000e+00
0.000000e+00		0.000000e+00		0.000000e+00
0.000000e+00		0.000000e+00		0.000000e+00
0.000000e+00		0.000000e+00		0.000000e+00
0.000000e+00		0.000000e+00		0.000000e+00
0.000000e+00		0.000000e+00		0.000000e+00
0.000000e+00		0.000000e+00		0.000000e+00
0.000000e+00		0.000000e+00		0.000000e+00
0.000000e+00		0.000000e+00		0.000000e+00
0.000000e+00		0.000000e+00		0.000000e+00
0.000000e+00		0.000000e+00		0.000000e+00
0.000000e+00		0.000000e+00		0.000000e+00
0.000000e+00		0.000000e+00		0.000000e+00
0.000000e+00		0.000000e+00		0.000000e+00
0.000000e+00		0.000000e+00		0.000000e+00
0.000000e+00		0.000000e+00		0.000000e+00
0.000000e+00		0.000000e+00		0.000000e+00
0.000000e+00		0.000000e+00		0.000000e+00
0.000000e+00		0.000000e+00		0.000000e+00
0.000000e+00		0.000000e+00		0.000000e+00
0.000000e+00		0.000000e+00		0.000000e+00
0.000000e+00		0.000000e+00		0.000000e+00
0.000000e+00		0.000000e+00		0.000000e+00
0.000000e+00		0.000000e+00		0.000000e+00
0.000000e+00		0.000000e+00		0.000000e+00
0.000000e+00		0.000000e+00		0.000000e+00
0.000000e+00		0.000000e+00		0.000000e+00
0.000000e+00		0.000000e+00		0.000000e+00
0.000000e+00		0.000000e+00		0.000000e+00
0.000000e+00		0.000000e+00		0.000000e+00
0.000000e+00		0.000000e+00		0.000000e+00
0.000000e+00		0.000000e+00		0.000000e+00
0.000000e+00		0.000000e+00		0.000000e+00
0.000000e+00		0.000000e+00		0.000000e+00
0.000000e+00		0.000000e+00		0.000000e+00
0.000000e+00		0.000000e+00		0.000000e+00
0.000000e+00		0.000000e+00		0.000000e+00
0.000000e+00		0.000000e+00		0.000000e+00
0.000000e+00		0.000000e+00		0.000000e+00
0.000000e+00		0.000000e+00		0.000000e+00
0.000000e+00		0.000000e+00		0.000000e+00
0.000000e+00		0.000000e+00		0.000000e+00
0.000000e+00		0.000000e+00		0.000000e+00
0.000000e+00		0.000000e+00		0.000000e+00
0.000000e+00		0.000000e+00		0.000000e+00
0.000000e+00		0.000000e+00		0.000000e+00
0.000000e+00		0.000000e+00		0.000000e+00
0.000000e+00		0.000000e+00		0.000000e+00
0.000000e+00		0.000000e+00		0.000000e+00
0.000000e+00		0.000000e+00		0.000000e+00
0.000000e+00		0.000000e+00		0.000000e+00
0.000000e+00		0.000000e+00		0.000000e+00
0.000000e+00		0.000000e+00		0.000000e+00
0.000000e+00		0.000000e+00		0.000000e+00
0.000000e+00		0.000000e+00		0.000000e+00
0.000000e+00		0.000000e+00		0.000000e+00
0.000000e+00		0.000000e+00		0.000000e+00
0.000000e+00		0.000000e+00		0.000000e+00
0.000000e+00		0.000000e+00		0.000000e+00
0.000000e+00		0.000000e+00		0.000000e+00
0.000000e+00		0.000000e+00		0.000000e+00
0.000000e+00		0.000000e+00		0.000000e+00
0.000000e+00		0.000000e+00		0.000000e+00
0.000000e+00		0.000000e+00		0.000000e+00
0.000000e+00		0.000000e+00		0.000000e+00
0.000000e+00		0.000000e+00		0.000000e+00
0.000000e+00		0.000000e+00		0.000000e+00
0.000000e+00		0.000000e+00		0.000000e+00
0.000000e+00		0.000000e+00		0.000000e+00
0.000000e+00		0.000000e+00		0.000000e+00
0.000000e+00		0.000000e+00		0.000000e+00
0.000000e+00		0.000000e+00		0.000000e+00
0.000000e+00		0.000000e+00		0.000000e+00
0.000000e+00		0.000000e+00		0.000000e+00
0.000000e+00		0.000000e+00		0.000000e+00
0.000000e+00		0.000000e+00		0.000000e+00
0.000000e+00		0.000000e+00		0.000000e+00
0.000000e+00		0.000000e+00		0.000000e+00
0.000000e+00		0.000000e+00		0.000000e+00
0.000000e+00		0.000000e+00		0.000000e+00
0.000000e+00		0.000000e+00		0.000000e+00
0.000000e+00		0.000000e+00		0.000000e+00
0.000000e+00		0.000000e+00		0.000000e+00
0.000000e+00		0.000000e+00		0.000000e+00
0.000000e+00		0.000000e+00		0.000000e+00
0.000000e+00		0.000000e+00		0.000000e+00
0.000000e+00		0.000000e+00		0.000000e+00
0.000000e+00		0.000000e+00		0.000000e+00
0.000000e+00		0.000000e+00		0.000000e+00
0.000000e+00		0.000000e+00		0.000000e+00
0.000000e+00		0.000000e+00		0.000000e+00
0.000000e+00		0.000000e+00		0.000000e+00
0.000000e+00		0.000000e+00		0.000000e+00
0.000000e+00		0.000000e+00		0.000000e+00
0.000000e+00		0.000000e+00		0.000000e+00
0.000000e+00		0.000000e+00		0.000000e+00
0.000000e+00		0.000000e+00		0.000000e+00
0.000000e+00		0.000000e+00		0.000000e+00
0.000000e+00		0.000000e+00		0.000000e+00
0.000000e+00		0.000000e+00		0.000000e+00
0.000000e+00		0.000000e+00		0.000000e+00
0.000000e+00		0.000000e+00		0.000000e+00
0.000000e+00		0.000000e+00		0.000000e+00
0.000000e+00		0.000000e+00		0.000000e+00
0.000000e+00		0.000000e+00		0.000000e+00
0.000000e+00		0.000000e+00		0.000000e+00
0.000000e+00		0.000000e+00		0.000000e+00
0.000000e+00		0.000000e+00		0.000000e+00
0.000000e+00		0.000000e+00		0.000000e+00
0.000000e+00		0.000000e+00		0.000000e+00
0.000000e+00		0.000000e+00		0.000000e+00
0.000000e+00		0.000000e+00		0.000000e+00
0.000000e+00		0.000000e+00		0.000000e+00
0.000000e+00		0.000000e+00		0.000000e+00
0.000000e+00		0.000000e+00		0.000000e+00
0.000000e+00		0.000000e+00		0.000000e+00
0.000000e+00		0.000000e+00		0.000000e+00
0.000000e+00		0.000000e+00		0.000000e+00
0.000000e+00		0.000000e+00		0.000000e+00
0.000000e+00		0.000000e+00		0.000000e+00
0.000000e+00		0.000000e+00		0.000000e+00
0.000000e+00		0.000000e+00		0.000000e+00
0.000000e+00		0.000000e+00		0.000000e+00
0.000000e+00		0.000000e+00		0.000000e+00
0.000000e+00		0.000000e+00		0.000000e+00
0.000000e+00		0.000000e+00		0.000000e+00
0.000000e+00		0.000000e+00		0.000000e+00
0.000000e+00		0.000000e+00		0.000000e+00
0.000000e+00		0.000000e+00		0.000000e+00
0.000000e+00		0.000000e+00		0.000000e+00
0.000000e+00		0.000000e+00		0.000000e+00
0.000000e+00		0.000000e+00		0.000000e+00
0.000000e+00		0.000000e+00		0.000000e+00
0.000000e+00		0.000000e+00		0.000000e+00
0.000000e+00		0.000000e+00		0.000000e+00
0.000000e+00		0.000000e+00		0.000000e+00
0.000000e+00		0.000000e+00		0.000000e+00
0.000000e+00		0.000000e+00		0.000000e+00
0.000000e+00		0.000000e+00		0.000000e+00
0.000000e+00		0.000000e+00		0.000000e+00
0.000000e+00		0.000000e+00		0.000000e+00
0.000000e+00		0.000000e+00		0.000000e+00
0.000000e+00		0.000000e+00		0.000000e+00
0.000000e+00		0.000000e+00		0.000000e+00
0.000000e+00		0.000000e+00		0.000000e+00
0.000000e+00		0.000000e+00		0.000000e+00
0.000000e+00		0.000000e+00		0.000000e+00
0.000000e+00		0.000000e+00		0.000000e+00
0.000000e+00		0.000000e+00		0.000000e+00
0.000000e+00		0.000000e+00		0.000000e+00
0.000000e+00		0.000000e+00		0.000000e+00
0.000000e+00		0.000000e+00		0.000000e+00
0.000000e+00		0.000000e+00		0.000000e+00
0.000000e+00		0.000000e+00		0.000000e+00
0.000000e+00		0.000000e+00		0.000000e+00
0.000000e+00		0.000000e+00		0.000000e+00
0.000000e+00		0.000000e+00		0.000000e+00
0.000000e+00		0.000000e+00		0.000000e+00
0.000000e+00		0.000000e+00		0.000000e+00
0.000000e+00		0.000000e+00		0.000000e+00
0.000000e+00		0.000000e+00		0.000000e+00
0.000000e+00		0.000000e+00		0.000000e+00
0.000000e+00		0.000000e+00		0.000000e+00
0.000000e+00		0.000000e+00		0.000000e+00
0.000000e+00		0.000000e+00		0.000000e+00
0.000000e+00		0.000000e+00		0.000000e+00
0.000000e+00		0.000000e+00		0.000000e+00
0.000000e+00		0.000000e+00		0.000000e+00
0.000000e+00		0.000000e+00		0.000000e+00
0.000000e+00		0.000000e+00		0.000000e+00
0.000000e+00		0.000000e+00		0.000000e+00
0.000000e+00		0.000000e+00		0.000000e+00
0.000000e+00		0.000000e+00		0.000000e+00
0.000000e+00		0.000000e+00		0.000000e+00
0.000000e+00		0.000000e+00		0.000000e+00
0.000000e+00		0.000000e+00		0.000000e+00
0.000000e+00		0.000000e+00		0.000000e+00
0.000000e+00		0.000000e+00		0.000000e+00
0.000000e+00		0.000000e+00		0.000000e+00
0.000000e+00		0.000000e+00		0.000000e+00
0.000000e+00		0.000000e+00		0.000000e+00
0.000000e+00		0.000000e+00		0.000000e+00
0.000000e+00		0.000000e+00		0.000000e+00
0.000000e+00		0.000000e+00		0.000000e+00
0.000000e+00		0.000000e+00		0.000000e+00
0.000000e+00		0.000000e+00		0.000000e+00
0.000000e+00		0.000000e+00		0.000000e+00
0.000000e+00		0.000000e+00		0.000000e+00
0.000000e+00		0.000000e+00		0.000000e+00
0.000000e+00		0.000000e+00		0.000000e+00
0.000000e+00		0.000000e+00		0.000000e+00
0.000000e+00		0.000000e+00		0.000000e+00
0.000000e+00		0.000000e+00		0.000000e+00
0.000000e+00		0.000000e+00		0.000000e+00
0.000000e+00		0.000000e+00		0.000000e+00
0.000000e+00		0.000000e+00		0.000000e+00
0.000000e+00		0.000000e+00		0.000000e+00
0.000000e+00		0.000000e+00		0.000000e+00
0.000000e+00		0.000000e+00		0.000000e+00
0.000000e+00		0.000000e+00		0.000000e+00
0.000000e+00		0.000000e+00		0.000000e+00
0.000000e+00		0.000000e+00		0.000000e+00
0.000000e+00		0.000000e+00		0.000000e+00
0.000000e+00		0.000000e+00		0.000000e+00
0.000000e+00		0.000000e+00		0.000000e+00
0.000000e+00		0.000000e+00		0.000000e+00
0.000000e+00		0.000000e+00		0.000000e+00
0.000000e+00		0.000000e+00		0.000000e+00
0.000000e+00		0.000000e+00		0.000000e+00
0.000000e+00		0.000000e+00		0.000000e+00
0.000000e+00		0.000000e+00		0.000000e+00
0.000000e+00		0.000000e+00		0.000000e+00
0.000000e+00		0.000000e+00		0.000000e+00
0.000000e+00		0.000000e+00		0.000000e+00
0.000000e+00		0.000000e+00		0.000000e+00
0.000000e+00		0.000000e+00		0.000000e+00
0.000000e+00		0.000000e+00		0.000000e+00
0.000000e+00		0.000000e+00		0.000000e+00
0.000000e+00		0.000000e+00		0.000000e+00
0.000000e+00		0.000000e+00		0.000000e+00
0.000000e+00		0.000000e+00		0.000000e+00
0.000000e+00		0.000000e+00		0.000000e+00
0.000000e+00		0.000000e+00		0.000000e+00
0.000000e+00		0.000000e+00		0.000000e+00
0.000000e+00		0.000000e+00		0.000000e+00
0.000000e+00		0.000000e+00		0.000000e+00
0.000000e+00		0.000000e+00		0.000000e+00
0.000000e+00		0.000000e+00		0.000000e+00
0.000000e+00		0.000000e+00		0.000000e+00
0.000000e+00		0.000000e+00		0.000000e+00
0.000000e+00		0.000000e+00		0.000000e+00
0.000000e+00		0.000000e+00		0.000000e+00
0.000000e+00		0.000000e+00		0.000000e+00
0.000000e+00		0.000000e+00		0.000000e+00
0.000000e+00		0.000000e+00		0.000000e+00
0.000000e+00		0.000000e+00		0.000000e+00
0.000000e+00		0.000000e+00		0.000000e+00
0.000000e+00		0.000000e+00		0.000000e+00
0.000000e+00		0.000000e+00		0.000000e+00
0.000000e+00		0.000000e+00		0.000000e+00
0.000000e+00		0.000000e+00		0.000000e+00
0.000000e+00		0.000000e+00		0.000000e+00
0.000000e+00		0.000000e+00		0.000000e+00
0.000000e+00		0.000000e+00		0.000000e+00
0.000000e+00		0.000000e+00		0.000000e+00
0.000000e+00		0.000000e+00		0.000000e+00
0.000000e+00		0.000000e+00		0.000000e+00
0.000000e+00		0.000000e+00		0.000000e+00
0.000000e+00		0.000000e+00		0.000000e+00
0.000000e+00		0.000000e+00		0.000000e+00
0.000000e+00		0.000000e+00		0.000000e+00
0.000000e+00		0.000000e+00		0.000000e+00
0.000000e+00		0.000000e+00		0.000000e+00
0.000000e+00		0.000000e+00		0.000000e+00
0.000000e+00		0.000000e+00		0.000000e+00
0.000000e+00		0.000000e+00		0.000000e+00
0.000000e+00		0.000000e+00		0.000000e+00
0.000000e+00		0.000000e+00		0.000000e+00
0.000000e+00		0.000000e+00		0.000000e+00
0.000000e+00		0.000000e+00		0.000000e+00
0.000000e+00		0.000000e+00		0.000000e+00
0.000000e+00		0.000000e+00		0.000000e+00
0.000000e+00		0.000000e+00		0.000000e+00
0.000000e+00		0.000000e+00		0.000000e+00
0.000000e+00		0.000000e+00		0.000000e+00
0.000000e+00		0.000000e+00		0.000000e+00
0.000000e+00		0.000000e+00		0.000000e+00
0.000000e+00		0.000000e+00		0.000000e+00
0.000000e+00		0.000000e+00		0.000000e+00
0.000000e+00		0.000000e+00		0.000000e+00
0.000000e+00		0.000000e+00		0.000000e+00
0.000000e+00		0.000000e+00		0.000000e+00
0.000000e+00		0.000000e+00		0.000000e+00
0.000000e+00		0.000000e+00		0.000000e+00
0.000000e+00		0.000000e+00		0.000000e+00
0.000000e+00		0.000000e+00		0.000000e+00
0.000000e+00		0.000000e+00		0.000000e+00
0.000000e+00		0.000000e+00		0.000000e+00
0.000000e+00		0.000000e+00		0.000000e+00
0.000000e+00		0.000000e+00		0.000000e+00
0.000000e+00		0.000000e+00		0.000000e+00
0.000000e+00		0.000000e+00		0.000000e+00
0.000000e+00		0.000000e+00		0.000000e+00
0.000000e+00		0.000000e+00		0.000000e+00
0.000000e+00		0.000000e+00		0.000000e+00
0.000000e+00		0.000000e+00		0.000000e+00
0.000000e+00		0.000000e+00		0.000000e+00
0.000000e+00		0.000000e+00		0.000000e+00
0.000000e+00		0.000000e+00		0.000000e+00
0.000000e+00		0.000000e+00		0.000000e+00
0.000000e+00		0.000000e+00		0.000000e+00
0.000000e+00		0.000000e+00		0.000000e+00
0.000000e+00		0.000000e+00		0.000000e+00
0.000000e+00		0.000000e+00		0.000000e+00
0.000000e+00		0.000000e+00		0.000000e+00
0.000000e+00		0.000000e+00		0.000000e+00
0.000000e+00		0.000000e+00		0.000000e+00
0.000000e+00		0.000000e+00		0.000000e+00
0.000000e+00		0.000000e+00		0.000000e+00
0.000000e+00		0.000000e+00		0.000000e+00
0.000000e+00		0.000000e+00		0.000000e+00
0.000000e+00		0.000000e+00		0.000000e+00
0.000000e+00		0.000000e+00		0.000000e+00
0.000000e+00		0.000000e+00		0.000000e+00
0.000000e+00		0.000000e+00		0.000000e+00
0.000000e+00		0.000000e+00		0.000000e+00
0.000000e+00		0.000000e+00		0.000000e+00
0.000000e+00		0.000000e+00		0.000000e+00
0.000000e+00		0.000000e+00		0.000000e+00
0.000000e+00		0.000000e+00		0.000000e+00
0.000000e+00		0.000000e+00		0.000000e+00
0.000000e+00		0.000000e+00		0.000000e+00
0.000000e+00		0.000000e+00		0.000000e+00
0.000000e+00		0.000000e+00		0.000000e+00
0.000000e+00		0.000000e+00		0.000000e+00
0.000000e+00		0.000000e+00		0.000000e+00
0.000000e+00		0.000000e+00		0.000000e+00
0.000000e+00		0.000000e+00		0.000000e+00
0.000000e+00		0.000000e+00		0.000000e+00
0.000000e+00		0.000000e+00		0.000000e+00
0.000000e+00		0.000000e+00		0.000000e+00
0.000000e+00		0.000000e+00		0.000000e+00
0.000000e+00		0.000000e+00		0.000000e+00
0.000000e+00		0.000000e+00		0.000000e+00
0.000000e+00		0.000000e+00		0.000000e+00
0.000000e+00		0.000000e+00		0.000000e+00
0.000000e+00		0.000000e+00		0.000000e+00
0.000000e+00		0.000000e+00		0.000000e+00
0.000000e+00		0.000000e+00		0.000000e+00
0.000000e+00		0.000000e+00		0.000000e+00
0.000000e+00		0.000000e+00		0.000000e+00
0.000000e+00		0.000000e+00		0.000000e+00
0.000000e+00		0.000000e+00		0.000000e+00
0.000000e+00		0.000000e+00		0.000000e+00
0.000000e+00		0.000000e+00		0.000000e+00
0.000000e+00		0.000000e+00		0.000000e+00
0.000000e+00		0.000000e+00		0.000000e+00
0.000000e+00		0.000000e+00		0.000000e+00
0.000000e+00		0.000000e+00		0.000000e+00
0.000000e+00		0.000000e+00		0.000000e+00
0.000000e+00		0.000000e+00		0.000000e+00
0.000000e+00		0.000000e+00		0.000000e+00
0.000000e+00		0.000000e+00		0.000000e+00
0.000000e+00		0.000000e+00		0.000000e+00
0.000000e+00		0.000000e+00		0.000000e+00
0.000000e+00		0.000000e+00		0.000000e+00
0.000000e+00		0.000000e+00		0.000000e+00
0.000000e+00		0.000000e+00		0.000000e+00
0.000000e+00		0.000000e+00		0.000000e+00
0.000000e+00		0.000000e+00		0.000000e+00
0.000000e+00		0.000000e+00		0.000000e+00
0.000000e+00		0.000000e+00		0.000000e+00
0.000000e+00		0.000000e+00		0.000000e+00
0.000000e+00		0.000000e+00		0.000000e+00
0.000000e+00		0.000000e+00		0.000000e+00
0.000000e+00		0.000000e+00		0.000000e+00
0.000000e+00		0.000000e+00		0.000000e+00
0.000000e+00		0.000000e+00		0.000000e+00
0.000000e+00		0.000000e+00		0.000000e+00
0.000000e+00		0.000000e+00		0.000000e+00
0.000000e+00		0.000000e+00		0.000000e+00
0.000000e+00		0.000000e+00		0.000000e+00
0.000000e+00		0.000000e+00		0.000000e+00
0.000000e+00		0.000000e+00		0.000000e+00
0.000000e+00		0.000000e+00		0.000000e+00
0.000000e+00		0.000000e+00		0.000000e+00
0.000000e+00		0.000000e+00		0.000000e+00
0.000000e+00		0.000000e+00		0.000000e+00
0.000000e+00		0.000000e+00		0.000000e+00
0.000000e+00		0.000000e+00		0.000000e+00
0.000000e+00		0.000000e+00		0.000000e+00
0.000000e+00		0.000000e+00		0.000000e+00
0.000000e+00		0.000000e+00		0.000000e+00
0.000000e+00		0.000000e+00		0.000000e+00
0.000000e+00		0.000000e+00		0.000000e+00
0.000000e+00		0.000000e+00		0.000000e+00
0.000000e+00		0.000000e+00		0.000000e+00
0.000000e+00		0.000000e+00		0.000000e+00
0.000000e+00		0.000000e+00		0.000000e+00
0.000000e+00		0.000000e+00		0.000000e+00
0.000000e+00		0.000000e+00		0.000000e+00
0.000000e+00		0.000000e+00		0.000000e+00
0.000000e+00		0.000000e+00		0.000000e+00
0.000000e+00		0.000000e+00		0.000000e+00
0.000000e+00		0.000000e+00		0.000000e+00
0.000000e+00		0.000000e+00		0.000000e+00
0.000000e+00		0.000000e+00		0.000000e+00
0.000000e+00		0.000000e+00		0.000000e+00
0.000000e+00		0.000000e+00		0.000000e+00
0.000000e+00		0.000000e+00		0.000000e+00
0.000000e+00		0.000000e+00		0.000000e+00
0.000000e+00		0.000000e+00		0.000000e+00
0.000000e+00		0.000000e+00		0.000000e+00
0.000000e+00		0.000000e+00		0.000000e+00
0.000000e+00		0.000000e+00		0.000000e+00
0.000000e+00		0.000000e+00		0.000000e+00
0.000000e+00		0.000000e+00		0.000000e+00
0.000000e+00		0.000000e+00		0.000000e+00
0.000000e+00		0.000000e+00		0.000000e+00
0.000000e+00		0.000000e+00		0.000000e+00
0.000000e+00		0.000000e+00		0.000000e+00
0.000000e+00		0.000000e+00		0.000000e+00
0.000000e+00		0.000000e+00		0.000000e+00
0.000000e+00		0.000000e+00		0.000000e+00
0.000000e+00		0.000000e+00		0.000000e+00
0.000000e+00		0.000000e+00		0.000000e+00
0.000000e+00		0.000000e+00		0.000000e+00
0.000000e+00		0.000000e+00		0.000000e+00
0.000000e+00		0.000000e+00		0.000000e+00
0.000000e+00		0.000000e+00		0.000000e+00
0.000000e+00		0.000000e+00		0.000000e+00
0.000000e+00		0.000000e+00		0.000000e+00
0.000000e+00		0.000000e+00		0.000000e+00
0.000000e+00		0.000000e+00		0.000000e+00
0.000000e+00		0.000000e+00		0.000000e+00
0.000000e+00		0.000000e+00		0.000000e+00
0.000000e+00		0.000000e+00		0.000000e+00
0.000000e+00		0.000000e+00		0.000000e+00
0.000000e+00		0.000000e+00		0.000000e+00
0.000000e+00		0.000000e+00		0.000000e+00
0.000000e+00		0.000000e+00		0.000000e+00
0.000000e+00		0.000000e+00		0.000000e+00
0.000000e+00		0.000000e+00		0.000000e+00
0.000000e+00		0.000000e+00		0.000000e+00
0.000000e+00		0.000000e+00		0.000000e+00
0.000000e+00		0.000000e+00		0.000000e+00
0.000000e+00		0.000000e+00		0.000000e+00
0.000000e+00		0.000000e+00		0.000000e+00
0.000000e+00		0.000000e+00		0.000000e+00
0.000000e+00		0.000000e+00		0.000000e+00
0.000000e+00		0.000000e+00		0.000000e+00
0.000000e+00		0.000000e+00		0.000000e+00
0.000000e+00		0.000000e+00		0.000000e+00
0.000000e+00		0.000000e+00		0.000000e+00
0.000000e+00		0.000000e+00		0.000000e+00
0.000000e+00		0.000000e+00		0.000000e+00
0.000000e+00		0.000000e+00		0.000000e+00
0.000000e+00		0.000000e+00		0.000000e+00
0.000000e+00		0.000000e+00		0.000000e+00
0.000000e+00		0.000000e+00		0.000000e+00
0.000000e+00		0.000000e+00		0.000000e+00
0.000000e+00		0.000000e+00		0.000000e+00
0.000000e+00		0.000000e+00		0.000000e+00
0.000000e+00		0.000000e+00		0.000000e+00
0.000000e+00		0.000000e+00		0.000000e+00
0.000000e+00		0.000000e+00		0.000000e+00
0.000000e+00		0.000000e+00		0.000000e+00
0.000000e+00		0.000000e+00		0.000000e+00
0.000000e+00		0.000000e+00		0.000000e+00
0.000000e+00		0.000000e+00		0.000000e+00
0.000000e+00		0.000000e+00		0.000000e+00
0.000000e+00		0.000000e+00		0.000000e+00
0.000000e+00		0.000000e+00		0.000000e+00
0.000000e+00		0.000000e+00		0.000000e+00
0.000000e+00		0.000000e+00		0.000000e+00
0.000000e+00		0.000000e+00		0.000000e+00
0.000000e+00		0.000000e+00		0.000000e+00
0.000000e+00		0.000000e+00		0.000000e+00
0.000000e+00		0.000000e+00		0.000000e+00
0.000000e+00		0.000000e+00		0.000000e+00
0.000000e+00		0.000000e+00		0.000000e+00
0.000000e+00		0.000000e+00		0.000000e+00
0.000000e+00		0.000000e+00		0.000000e+00
0.000000e+00		0.000000e+00		0.000000e+00
0.000000e+00		0.000000e+00		0.000000e+00
0.000000e+00		0.000000e+00		0.000000e+00
0.000000e+00		0.000000e+00		0.000000e+00
0.000000e+00		0.000000e+00		0.000000e+00
0.000000e+00		0.000000e+00		0.000000e+00
0.000000e+00		0.000000e+00		0.000000e+00
0.000000e+00		0.000000e+00		0.000000e+00
0.000000e+00		0.000000e+00		0.000000e+00
0.000000e+00		0.000000e+00		0.000000e+00
0.000000e+00		0.000000e+00		0.000000e+00
0.000000e+00		0.000000e+00		0.000000e+00
0.000000e+00		0.000000e+00		0.000000e+00
0.000000e+00		0.000000e+00		0.000000e+00
0.000000e+00		0.000000e+00		0.000000e+00
0.000000e+00		0.000000e+00		0.000000e+00
0.000000e+00		0.000000e+00		0.000000e+00
0.000000e+00		0.000000e+00		0.000000e+00
0.000000e+00		0.000000e+00		0.000000e+00
0.000000e+00		0.000000e+00		0.000000e+00
0.000000e+00		0.000000e+00		0.000000e+00
0.000000e+00		0.000000e+00		0.000000e+00
0.000000e+00		0.000000e+00		0.000000e+00
0.000000e+00		0.000000e+00		0.000000e+00
0.000000e+00		0.000000e+00		0.000000e+00
0.000000e+00		0.000000e+00		0.000000e+00
0.000000e+00		0.000000e+00		0.000000e+00
0.000000e+00		0.000000e+00		0.000000e+00
0.000000e+00		0.000000e+00		0.000000e+00
0.000000e+00		0.000000e+00		0.000000e+00
0.000000e+00		0.000000e+00		0.000000e+00
0.000000e+00		0.000000e+00		0.000000e+00
0.000000e+00		0.000000e+00		0.000000e+00
0.000000e+00		0.000000e+00		0.000000e+00
0.000000e+00		0.000000e+00		0.000000e+00
0.000000e+00		0.000000e+00		0.000000e+00
0.000000e+00		0.000000e+00		0.000000e+00
0.000000e+00		0.000000e+00		0.000000e+00
0.000000e+00		0.000000e+00		0.000000e+00
0.000000e+00		0.000000e+00		0.000000e+00
0.000000e+00		0.000000e+00		0.000000e+00
0.000000e+00		0.000000e+00		0.000000e+00
0.000000e+00		0.000000e+00		0.000000e+00
0.000000e+00		0.000000e+00		0.000000e+00
0.000000e+00		0.000000e+00		0.000000e+00
0.000000e+00		0.000000e+00		0.000000e+00
0.000000e+00		0.000000e+00		0.000000e+00
0.000000e+00		0.000000e+00		0.000000e+00
0.000000e+00		0.000000e+00		0.000000e+00
0.000000e+00		0.000000e+00		0.000000e+00
0.000000e+00		0.000000e+00		0.000000e+00
0.000000e+00		0.000000e+00		0.000000e+00
0.000000e+00		0.000000e+00		0.000000e+00
0.000000e+00		0.000000e+00		0.000000e+00
0.000000e+00		0.000000e+00		0.000000e+00
0.000000e+00		0.000000e+00		0.000000e+00
0.000000e+00		0.000000e+00		0.000000e+00
0.000000e+00		0.000000e+00		0.000000e+00
0.000000e+00		0.000000e+00		0.000000e+00
0.000000e+00		0.000000e+00		0.000000e+00
0.000000e+00		0.000000e+00		0.000000e+00
0.000000e+00		0.000000e+00		0.000000e+00
0.000000e+00		0.000000e+00		0.000000e+00
0.000000e+00		0.000000e+00		0.000000e+00
0.000000e+00		0.000000e+00		0.000000e+00
0.000000e+00		0.000000e+00		0.000000e+00
0.000000e+00		0.000000e+00		0.000000e+00
0.000000e+00		0.000000e+00		0.000000e+00
0.000000e+00		0.000000e+00		0.000000e+00
0.000000e+00		0.000000e+00		0.000000e+00
0.000000e+00		0.000000e+00		0.000000e+00
0.000000e+00		0.000000e+00		0.000000e+00
0.000000e+00		0.000000e+00		0.000000e+00
0.000000e+00		0.000000e+00		0.000000e+00
0.000000e+00		0.000000e+00		0.000000e+00
0.000000e+00		0.000000e+00		0.000000e+00
0.000000e+00		0.000000e+00		0.000000e+00
0.000000e+00		0.000000e+00		0.000000e+00
0.000000e+00		0.000000e+00		0.000000e+00
0.000000e+00		0.000000e+00		0.000000e+00
0.000000e+00		0.000000e+00		0.000000e+00
0.000000e+00		0.000000e+00		0.000000e+00
0.000000e+00		0.000000e+00		0.000000e+00
0.000000e+00		0.000000e+00		0.000000e+00
0.000000e+00		0.000000e+00		0.000000e+00
0.000000e+00		0.000000e+00		0.000000e+00
0.000000e+00		0.000000e+00		0.000000e+00
0.000000e+00		0.000000e+00		0.000000e+00
0.000000e+00		0.000000e+00		0.000000e+00
0.000000e+00		0.000000e+00		0.000000e+00
0.000000e+00		0.000000e+00		0.000000e+00
0.000000e+00		0.000000e+00		0.000000e+00
0.000000e+00		0.000000e+00		0.000000e+00
0.000000e+00		0.000000e+00		0.000000e+00
0.000000e+00		0.000000e+00		0.000000e+00
0.000000e+00		0.000000e+00		0.000000e+00
0.000000e+00		0.000000e+00		0.000000e+00
0.000000e+00		0.000000e+00		0.000000e+00
0.000000e+00		0.000000e+00		0.000000e+00
0.000000e+00		0.000000e+00		0.000000e+00
0.000000e+00		0.000000e+00		0.000000e+00
0.000000e+00		0.000000e+00		0.000000e+00
0.000000e+00		0.000000e+00		0.000000e+00
0.000000e+00		0.000000e+00		0.000000e+00
0.000000e+00		0.000000e+00		0.000000e+00
0.000000e+00		0.000000e+00		0.000000e+00
0.000000e+00		0.000000e+00		0.000000e+00
0.000000e+00		0.000000e+00		0.000000e+00
0.000000e+00		0.000000e+00		0.000000e+00
0.000000e+00		0.000000e+00		0.000000e+00
0.000000e+00		0.000000e+00		0.000000e+00
0.000000e+00		0.000000e+00		0.000000e+00
0.000000e+00		0.000000e+00		0.000000e+00
0.000000e+00		0.000000e+00		0.000000e+00
0.000000e+00		0.000000e+00		0.000000e+00
0.000000e+00		0.000000e+00		0.000000e+00
0.000000e+00		0.000000e+00		0.000000e+00
0.000000e+00		0.000000e+00		0.000000e+00
0.000000e+00		0.000000e+00		0.000000e+00
0.000000e+00		0.000000e+00		0.000000e+00
0.000000e+00		0.000000e+00		0.000000e+00
0.000000e+00		0.000000e+00		0.000000e+00
0.000000e+00		0.000000e+00		0.000000e+00
0.000000e+00		0.000000e+00		0.000000e+00
0.000000e+00		0.000000e+00		0.000000e+00
0.000000e+00		0.000000e+00		0.000000e+00
0.000000e+00		0.000000e+00		0.000000e+00
0.000000e+00		0.000000e+00		0.000000e+00
0.000000e+00		0.000000e+00		0.000000e+00
0.000000e+00		0.000000e+00		0.000000e+00
0.000000e+00		0.000000e+00		0.000000e+00
0.000000e+00		0.000000e+00		0.000000e+00
0.000000e+00		0.000000e+00		0.000000e+00
0.000000e+00		0.000000e+00		0.000000e+00
0.000000e+00		0.000000e+00		0.000000e+00
0.000000e+00		0.000000e+00		0.000000e+00
0.000000e+00		0.000000e+00		0.000000e+00
0.000000e+00		0.000000e+00		0.000000e+00
0.000000e+00		0.000000e+00		0.000000e+00
0.000000e+00		0.000000e+00		0.000000e+00
0.000000e+00		0.000000e+00		0.000000e+00
0.000000e+00		0.000000e+00		0.000000e+00
0.000000e+00		0.000000e+00		0.000000e+00
0.000000e+00		0.000000e+00		0.000000e+00
0.000000e+00		0.000000e+00		0.000000e+00
0.000000e+00		0.000000e+00		0.000000e+00
0.000000e+00		0.000000e+00		0.000000e+00
0.000000e+00		0.000000e+00		0.000000e+00
0.000000e+00		0.000000e+00		0.000000e+00
0.000000e+00		0.000000e+00		0.000000e+00
0.000000e+00		0.000000e+00		0.000000e+00
0.000000e+00		0.000000e+00		0.000000e+00
0.000000e+00		0.000000e+00		0.000000e+00
0.000000e+00		0.000000e+00		0.000000e+00
0.000000e+00		0.000000e+00		0.000000e+00
0.000000e+00		0.000000e+00		0.000000e+00
0.000000e+00		0.000000e+00		0.000000e+00
0.000000e+00		0.000000e+00		0.000000e+00
0.000000e+00		0.000000e+00		0.000000e+00
0.000000e+00		0.000000e+00		0.000000e+00
0.000000e+00		0.000000e+00		0.000000e+00
0.000000e+00		0.000000e+00		0.000000e+00
0.000000e+00		0.000000e+00		0.000000e+00
0.000000e+00		0.000000e+00		0.000000e+00
0.000000e+00		0.000000e+00		0.000000e+00
0.000000e+00		0.000000e+00		0.000000e+00
0.000000e+00		0.000000e+00		0.000000e+00
0.000000e+00		0.000000e+00		0.000000e+00
0.000000e+00		0.000000e+00		0.000000e+00
0.000000e+00		0.000000e+00		0.000000e+00
0.000000e+00		0.000000e+00		0.000000e+00
0.000000e+00		0.000000e+00		0.000000e+00
0.000000e+00		0.000000e+00		0.000000e+00
0.000000e+00		0.000000e+00		0.000000e+00
0.000000e+00		0.000000e+00		0.000000e+00
0.000000e+00		0.000000e+00		0.000000e+00
0.000000e+00		0.000000e+00		0.000000e+00
0.000000e+00		0.000000e+00		0.000000e+00
0.000000e+00		0.000000e+00		0.000000e+00
0.000000e+00		0.000000e+00		0.000000e+00
0.000000e+00		0.000000e+00		0.000000e+00
0.000000e+00		0.000000e+00		0.000000e+00
0.000000e+00		0.000000e+00		0.000000e+00
0.000000e+00		0.000000e+00		0.000000e+00
0.000000e+00		0.000000e+00		0.000000e+00
0.000000e+00		0.000000e+00		0.000000e+00
TENSORS stress double
1.982855e+10		-5.760789e-05		9.507704e+09
-5.760789e-05		1.982855e+10		1.425327e+10
9.507704e+09		1.425327e+10		4.413451e+10
1.737529e+10		-1.387298e-05		1.132476e+10
-1.387298e-05		1.737529e+10		8.005119e+09
1.132476e+10		8.005119e+09		3.867402e+10
1.609538e+10		-2.237223e-05		1.244870e+10
-2.237223e-05		1.609538e+10		2.882994e+09
1.244870e+10		2.882994e+09		3.582521e+10
1.666608e+10		-1.895241e-05		1.299724e+10
-1.895241e-05		1.666608e+10		1.233976e+09
1.299724e+10		1.233976e+09		3.709548e+10
1.736116e+10		-1.181848e-05		1.317664e+10
-1.181848e-05		1.736116e+10		1.505390e-04
1.317664e+10		1.505390e-04		3.864259e+10
1.666608e+10		-1.558661e-05		1.299724e+10
-1.558661e-05		1.666608e+10		-1.233976e+09
1.299724e+10		-1.233976e+09		3.709548e+10
1.609538e+10		-1.171604e-06		1.244870e+10
-1.171604e-06		1.609538e+10		-2.882994e+09
1.244870e+10		-2.882994e+09		3.582521e+10
1.737529e+10		-1.243129e-05		1.132476e+10
-1.243129e-05		1.737529e+10		-8.005119e+09
1.132476e+10		-8.005119e+09		3.867402e+10
1.982855e+10		9.437650e-05		9.507704e+09
9.437650e-05		1.982855e+10		-1.425327e+10
9.507704e+09		-1.425327e+10		4.413451e+10
1.323881e+10		8.545816e-06		3.187260e+09
8.545816e-06		1.323881e+10		1.060566e+10
3.187260e+09		1.060566e+10		2.946703e+10
9.480577e+09		-1.022127e-05		6.109113e+09
-1.022127e-05		9.480577e+09		2.132042e+09
6.109113e+09		2.132042e+09		2.110193e+10
1.020607e+10		-1.359312e-05		6.538319e+09
-1.359312e-05		1.020607e+10		1.200289e-04
6.538319e+09		1.200289e-04		2.271674e+10
9.480577e+09		-1.847465e-05		6.109113e+09
-1.847465e-05		9.480577e+09		-2.132042e+09
6.109113e+09		-2.132042e+09		2.110193e+10
1.323881e+10		-1.329742e-05		3.187260e+09
-1.329742e-05		1.323881e+10		-1.060566e+10
3.187260e+09		-1.060566e+10		2.946703e+10
7.617683e+09		3.680587e-06		-1.590617e+09
3.680587e-06		7.617683e+09		7.003988e+09
-1.590617e+09		7.003988e+09		1.695549e+10
5.807516e+09		-7.674098e-06		4.989458e+08
-7.674098e-06		5.807516e+09		3.910174e+09
4.989458e+08		3.910174e+09		1.292641e+10
4.614208e+09		1.715962e-06		1.738279e+09
1.715962e-06		4.614208e+09		1.414637e+09
1.738279e+09		1.414637e+09		1.027033e+10
4.735005e+09		-2.084300e-06		1.960218e+09
-2.084300e-06		4.735005e+09		5.819406e+08
1.960218e+09		5.819406e+08		1.053920e+10
5.001333e+09		-2.746470e-06		1.920593e+09
-2.746470e-06		5.001333e+09		1.004315e-04
1.920593e+09		1.004315e-04		1.113200e+10
4.735005e+09		1.044944e-06		1.960218e+09
1.044944e-06		4.735005e+09		-5.819406e+08
1.960218e+09		-5.819406e+08		1.053920e+10
4.614208e+09		-3.282912e-06		1.738279e+09
-3.282912e-06		4.614208e+09		-1.414637e+09
1.738279e+09		-1.414637e+09		1.027033e+10
5.807516e+09		5.295500e-06		4.989458e+08
5.295500e-06		5.807516e+09		-3.910174e+09
4.989458e+08		-3.910174e+09		1.292641e+10
7.617683e+09		-1.076609e-06		-1.590617e+09
-1.076609e-06		7.617683e+09		-7.003988e+09
-1.590617e+09		-7.003988e+09		1.695549e+10
3.611583e+09		2.339482e-06		-2.029634e+09
2.339482e-06		3.611583e+09		3.551231e+09
-2.029634e+09		3.551231e+09		8.038684e+09
2.085509e+09		-4.583038e-06		1.300214e+09
-4.583038e-06		2.085509e+09		7.240979e+08
1.300214e+09		7.240979e+08		4.641940e+09
2.267537e+09		-5.504116e-06		1.503179e+09
-5.504116e-06		2.267537e+09		5.786726e-05
1.503179e+09		5.786726e-05		5.047099e+09
2.085509e+09		-6.224960e-06		1.300214e+09
-6.224960e-06		2.085509e+09		-7.240979e+08
1.300214e+09		-7.240979e+08		4.641940e+09
3.611583e+09		3.375113e-06		-2.029634e+09
3.375113e-06		3.611583e+09		-3.551231e+09
-2.029634e+09		-3.551231e+09		8.038684e+09
2.482310e-04		-3.926456e-06		-1.769455e+09
-3.926456e-06		2.510250e-04		1.991410e-04
-1.769455e+09		1.991410e-04		5.621463e-04
1.462437e-04		-2.443790e-06		4.235521e+08
-2.443790e-06		1.529232e-04		1.140125e-04
4.235521e+08		1.140125e-04		3.345609e-04
1.121983e-04		9.182841e-07		1.594838e+09
9.182841e-07		1.087505e-04		5.229830e-05
1.594838e+09		5.229830e-05		2.496094e-04
5.932897e-05		-3.553461e-06		1.854442e+09
-3.553461e-06		6.676465e-05		3.275904e-05
1.854442e+09		3.275904e-05		1.508147e-04
7.745996e-05		-7.036142e-07		1.882492e+09
-7.036142e-07		7.655285e-05		2.867309e-05
1.882492e+09		2.867309e-05		1.771599e-04
3.479421e-05		-3.732741e-06		1.854442e+09
-3.732741e-06		4.190579e-05		1.853984e-05
1.854442e+09		1.853984e-05		9.609759e-05
5.633011e-05		-2.320856e-06		1.594838e+09
-2.320856e-06		5.300273e-05		5.230075e-06
1.594838e+09		5.230075e-06		1.267791e-04
1.921505e-05		-4.768372e-06		4.235521e+08
-4.768372e-06		2.515968e-05		-4.965346e-06
4.235521e+08		-4.965346e-06		5.142391e-05
3.448501e-05		-6.791204e-06		-1.769455e+09
-6.791204e-06		2.790894e-05		-2.204487e-05
-1.769455e+09		-2.204487e-05		7.887185e-05
-3.611583e+09		-5.997717e-06		-2.029634e+09
-5.997717e-06		-3.611583e+09		-3.551231e+09
-2.029634e+09		-3.551231e+09		-8.038684e+09
-2.085509e+09		-7.207971e-06		1.300214e+09
-7.207971e-06		-2.085509e+09		-7.240979e+08
1.300214e+09		-7.240979e+08		-4.641940e+09
-2.267537e+09		-5.325768e-06		1.503179e+09
-5.325768e-06		-2.267537e+09		-8.229166e-06
1.503179e+09		-8.229166e-06		-5.047099e+09
-2.085509e+09		-1.735985e-06		1.300214e+09
-1.735985e-06		-2.085509e+09		7.240979e+08
1.300214e+09		7.240979e+08		-4.641940e+09
-3.611583e+09		6.757677e-06		-2.029634e+09
6.757677e-06		-3.611583e+09		3.551231e+09
-2.029634e+09		3.551231e+09		-8.038684e+09
-7.617683e+09		-2.315920e-05		-1.590617e+09
-2.315920e-05		-7.617683e+09		-7.003988e+09
-1.590617e+09		-7.003988e+09		-1.695549e+10
-5.807516e+09		5.390961e-06		4.989458e+08
5.390961e-06		-5.807516e+09		-3.910174e+09
4.989458e+08		-3.910174e+09		-1.292641e+10
-4.614208e+09		-2.675690e-06		1.738279e+09
-2.675690e-06		-4.614208e+09		-1.414637e+09
1.738279e+09		-1.414637e+09		-1.027033e+10
-4.735005e+09		-1.074979e-06		1.960218e+09
-1.074979e-06		-4.735005e+09		-5.819406e+08
1.960218e+09		-5.819406e+08		-1.053920e+10
-5.001333e+09		-5.646609e-06		1.920593e+09
-5.646609e-06		-5.001333e+09		-4.613772e-05
1.920593e+09		-4.613772e-05		-1.113200e+10
-4.735005e+09		-3.618188e-06		1.960218e+09
-3.618188e-06		-4.735005e+09		5.819406e+08
1.960218e+09		5.819406e+08		-1.053920e+10
-4.614208e+09		-1.726308e-06		1.738279e+09
-1.726308e-06		-4.614208e+09		1.414637e+09
1.738279e+09		1.414637e+09		-1.027033e+10
-5.807516e+09		-1.026667e-05		4.989458e+08
-1.026667e-05		-5.807516e+09		3.910174e+09
4.989458e+08		3.910174e+09		-1.292641e+10
-7.617683e+09		-7.512455e-06		-1.590617e+09
-7.512455e-06		-7.617683e+09		7.003988e+09
-1.590617e+09		7.003988e+09		-1.695549e+10
-1.323881e+10		-1.032650e-05		3.187260e+09
-1.032650e-05		-1.323881e+10		-1.060566e+10
3.187260e+09		-1.060566e+10		-2.946703e+10
-9.480577e+09		-1.523364e-05		6.109113e+09
-1.523364e-05		-9.480577e+09		-2.132042e+09
6.109113e+09		-2.132042e+09		-2.110193e+10
-1.020607e+10		-5.377457e-06		6.538319e+09
-5.377457e-06		-1.020607e+10		-8.869544e-05
6.538319e+09		-8.869544e-05		-2.271674e+10
-9.480577e+09		-2.897694e-06		6.109113e+09
-2.897694e-06		-9.480577e+09		2.132042e+09
6.109113e+09		2.132042e+09		-2.110193e+10
-1.323881e+10		-3.309629e-06		3.187260e+09
-3.309629e-06		-1.323881e+10		1.060566e+10
3.187260e+09		1.060566e+10		-2.946703e+10
-1.982855e+10		-6.567873e-05		9.507704e+09
-6.567873e-05		-1.982855e+10		-1.425327e+10
9.507704e+09		-1.425327e+10		-4.413451e+10
-1.737529e+10		2.389122e-05		1.132476e+10
2.389122e-05		-1.737529e+10		-8.005119e+09
1.132476e+10		-8.005119e+09		-3.867402e+10
-1.609538e+10		-3.081979e-06		1.244870e+10
-3.081979e-06		-1.609538e+10		-2.882994e+09
1.244870e+10		-2.882994e+09		-3.582521e+10
-1.666608e+10		3.434252e-06		1.299724e+10
3.434252e-06		-1.666608e+10		-1.233976e+09
1.299724e+10		-1.233976e+09		-3.709548e+10
-1.736116e+10		1.971610e-05		1.317664e+10
1.971610e-05		-1.736116e+10		-1.858622e-04
1.317664e+10		-1.858622e-04		-3.864259e+10
-1.666608e+10		-9.199604e-06		1.299724e+10
-9.199604e-06		-1.666608e+10		1.233976e+09
1.299724e+10		1.233976e+09		-3.709548e+10
-1.609538e+10		3.728934e-05		1.244870e+10
3.728934e-05		-1.609538e+10		2.882994e+09
1.244870e+10		2.882994e+09		-3.582521e+10
-1.737529e+10		-2.932025e-05		1.132476e+10
-2.932025e-05		-1.737529e+10		8.005119e+09
1.132476e+10		8.005119e+09		-3.867402e+10
-1.982855e+10		8.644420e-05		9.507704e+09
8.644420e-05		-1.982855e+10		1.425327e+10
9.507704e+09		1.425327e+10		-4.413451e+10
5.522716e+09		-5.637649e+08		3.015738e+09
-5.637649e+08		5.671664e+09		5.865282e+09
3.015738e+09		5.865282e+09		3.187625e+10
5.516959e+09		-2.141117e+07		5.393952e+09
-2.141117e+07		8.516471e+09		3.219753e+09
5.393952e+09		3.219753e+09		3.091540e+10
5.998012e+09		-3.770925e-06		5.627118e+09
-3.770925e-06		1.038314e+10		1.687407e-04
5.627118e+09		1.687407e-04		3.146299e+10
5.516959e+09		2.141117e+07		5.393952e+09
2.141117e+07		8.516471e+09		-3.219753e+09
5.393952e+09		-3.219753e+09		3.091540e+10
5.522716e+09		5.637649e+08		3.015738e+09
5.637649e+08		5.671664e+09		-5.865282e+09
3.015738e+09		-5.865282e+09		3.187625e+10
3.205159e+09		-4.524591e+08		6.905992e+08
-4.524591e+08		2.367328e+09		2.795110e+09
6.905992e+08		2.795110e+09		1.424930e+10
3.446112e+09		-2.065728e+08		3.902018e+09
-2.065728e+08		3.715200e+09		1.382144e+09
3.902018e+09		1.382144e+09		1.311672e+10
3.612888e+09		-1.672655e-06		4.346080e+09
-1.672655e-06		4.609487e+09		1.216680e-04
4.346080e+09		1.216680e-04		1.311269e+10
3.446112e+09		2.065728e+08		3.902018e+09
2.065728e+08		3.715200e+09		-1.382144e+09
3.902018e+09		-1.382144e+09		1.311672e+10
3.205159e+09		4.524591e+08		6.905992e+08
4.524591e+08		2.367328e+09		-2.795110e+09
6.905992e+08		-2.795110e+09		1.424930e+10
1.562536e-04		-4.772170e+08		2.435753e+08
-4.772170e+08		8.997321e-05		7.167086e-05
2.435753e+08		7.167086e-05		4.014224e-04
9.071827e-05		-3.485559e+08		3.567178e+09
-3.485559e+08		7.022917e-05		6.444287e-05
3.567178e+09		6.444287e-05		2.476275e-04
5.894899e-05		1.721084e-06		3.956382e+09
1.721084e-06		6.181002e-05		4.185666e-05
3.956382e+09		4.185666e-05		1.676679e-04
3.498793e-05		3.485559e+08		3.567178e+09
3.485559e+08		2.767146e-05		1.715403e-05
3.567178e+09		1.715403e-05		1.013130e-04
5.751848e-06		4.772170e+08		2.435753e+08
4.772170e+08		5.856156e-06		-3.175810e-07
2.435753e+08		-3.175810e-07		3.537536e-05
-3.205159e+09		-4.524591e+08		6.905992e+08
-4.524591e+08		-2.367328e+09		-2.795110e+09
6.905992e+08		-2.795110e+09		-1.424930e+10
-3.446112e+09		-2.065728e+08		3.902018e+09
-2.065728e+08		-3.715200e+09		-1.382144e+09
3.902018e+09		-1.382144e+09		-1.311672e+10
-3.612888e+09		-2.101064e-06		4.346080e+09
-2.101064e-06		-4.609487e+09		-4.969537e-05
4.346080e+09		-4.969537e-05		-1.311269e+10
-3.446112e+09		2.065728e+08		3.902018e+09
2.065728e+08		-3.715200e+09		1.382144e+09
3.902018e+09		1.382144e+09		-1.311672e+10
-3.205159e+09		4.524591e+08		6.905992e+08
4.524591e+08		-2.367328e+09		2.795110e+09
6.905992e+08		2.795110e+09		-1.424930e+10
-5.522716e+09		-5.637649e+08		3.015738e+09
-5.637649e+08		-5.671664e+09		-5.865282e+09
3.015738e+09		-5.865282e+09		-3.187625e+10
-5.516959e+09		-2.141117e+07		5.393952e+09
-2.141117e+07		-8.516471e+09		-3.219753e+09
5.393952e+09		-3.219753e+09		-3.091540e+10
-5.998012e+09		1.533795e-05		5.627118e+09
1.533795e-05		-1.038314e+10		-1.766980e-04
5.627118e+09		-1.766980e-04		-3.146299e+10
-5.516959e+09		2.141117e+07		5.393952e+09
2.141117e+07		-8.516471e+09		3.219753e+09
5.393952e+09		3.219753e+09		-3.091540e+10
-5.522716e+09		5.637649e+08		3.015738e+09
5.637649e+08		-5.671664e+09		5.865282e+09
3.015738e+09		5.865282e+09		-3.187625e+10
-2.085232e+09		3.283319e+08		-1.627790e+09
3.283319e+08		-1.970407e+09		-7.156574e+08
-1.627790e+09		-7.156574e+08		2.280041e+10
-1.136261e+09		3.892859e+08		-7.820599e+08
3.892859e+08		1.542932e+09		1.662213e+09
-7.820599e+08		1.662213e+09		2.502757e+10
-8.924265e+08		-6.424945e+07		-8.542000e+08
-6.424945e+07		4.049369e+09		3.178250e+09
-8.542000e+08		3.178250e+09		2.655609e+10
-1.374029e+09		-8.713675e+06		-6.357199e+08
-8.713675e+06		4.018863e+09		1.215325e+09
-6.357199e+08		1.215325e+09		2.577692e+10
-1.318299e+09		-1.503341e-05		-6.759185e+08
-1.503341e-05		4.869918e+09		1.391023e-04
-6.759185e+08		1.391023e-04		2.545986e+10
-1.374029e+09		8.713675e+06		-6.357199e+08
8.713675e+06		4.018863e+09		-1.215325e+09
-6.357199e+08		-1.215325e+09		2.577692e+10
-8.924265e+08		6.424945e+07		-8.542000e+08
6.424945e+07		4.049369e+09		-3.178250e+09
-8.542000e+08		-3.178250e+09		2.655609e+10
-1.136261e+09		-3.892859e+08		-7.820599e+08
-3.892859e+08		1.542932e+09		-1.662213e+09
-7.820599e+08		-1.662213e+09		2.502757e+10
-2.085232e+09		-3.283319e+08		-1.627790e+09
-3.283319e+08		-1.970407e+09		7.156574e+08
-1.627790e+09		7.156574e+08		2.280041e+10
-1.936224e+07		2.305315e+07		6.755187e+08
2.305315e+07		-1.078930e+09		-1.032249e+09
6.755187e+08		-1.032249e+09		1.739828e+10
1.786964e+09		-4.333925e+08		2.491742e+09
-4.333925e+08		4.039650e+09		1.998005e+09
2.491742e+09		1.998005e+09		2.094685e+10
1.545680e+09		2.909452e-06		3.016379e+09
2.909452e-06		4.794902e+09		1.375731e-04
3.016379e+09		1.375731e-04		2.013586e+10
1.786964e+09		4.333925e+08		2.491742e+09
4.333925e+08		4.039650e+09		-1.998005e+09
2.491742e+09		-1.998005e+09		2.094685e+10
-1.936224e+07		-2.305315e+07		6.755187e+08
-2.305315e+07		-1.078930e+09		1.032249e+09
6.755187e+08		1.032249e+09		1.739828e+10
1.235417e+09		-1.359549e+08		2.845057e+09
-1.359549e+08		-4.095906e+08		-5.314500e+08
2.845057e+09		-5.314500e+08		1.213558e+10
2.656169e+09		-2.663709e+08		4.602690e+09
-2.663709e+08		1.959401e+09		6.173662e+08
4.602690e+09		6.173662e+08		1.402266e+10
3.551043e+09		-6.484759e+08		5.364906e+09
-6.484759e+08		3.739057e+09		1.335458e+09
5.364906e+09		1.335458e+09		1.539782e+10
3.335583e+09		-1.290746e+08		5.896836e+09
-1.290746e+08		3.845801e+09		5.007594e+08
5.896836e+09		5.007594e+08		1.500437e+10
3.417034e+09		-1.532072e-05		6.162150e+09
-1.532072e-05		4.394779e+09		1.287721e-04
6.162150e+09		1.287721e-04		1.487728e+10
3.335583e+09		1.290746e+08		5.896836e+09
1.290746e+08		3.845801e+09		-5.007594e+08
5.896836e+09		-5.007594e+08		1.500437e+10
3.551043e+09		6.484759e+08		5.364906e+09
6.484759e+08		3.739057e+09		-1.335458e+09
5.364906e+09		-1.335458e+09		1.539782e+10
2.656169e+09		2.663709e+08		4.602690e+09
2.663709e+08		1.959401e+09		-6.173662e+08
4.602690e+09		-6.173662e+08		1.402266e+10
1.235417e+09		1.359549e+08		2.845057e+09
1.359549e+08		-4.095906e+08		5.314500e+08
2.845057e+09		5.314500e+08		1.213558e+10
-4.394308e+07		-3.777661e+08		2.343404e+09
-3.777661e+08		-5.774200e+08		-2.616135e+08
2.343404e+09		-2.616135e+08		5.644993e+09
1.152091e+09		-8.765319e+08		4.564812e+09
-8.765319e+08		1.522014e+09		6.613558e+08
4.564812e+09		6.613558e+08		7.290501e+09
1.067293e+09		1.184642e-06		5.227407e+09
1.184642e-06		1.848307e+09		8.234847e-05
5.227407e+09		8.234847e-05		7.014566e+09
1.152091e+09		8.765319e+08		4.564812e+09
8.765319e+08		1.522014e+09		-6.613558e+08
4.564812e+09		-6.613558e+08		7.290501e+09
-4.394308e+07		3.777661e+08		2.343404e+09
3.777661e+08		-5.774200e+08		2.616135e+08
2.343404e+09		2.616135e+08		5.644993e+09
1.122020e-04		-3.718356e+08		2.555082e+09
-3.718356e+08		6.068498e-06		-1.776428e-05
2.555082e+09		-1.776428e-05		2.840534e-04
8.142740e-05		-5.857259e+08		4.287394e+09
-5.857259e+08		3.253669e-05		4.854577e-05
4.287394e+09		4.854577e-05		2.750531e-04
8.836016e-05		-1.011982e+09		4.907442e+09
-1.011982e+09		6.205030e-05		8.754694e-05
4.907442e+09		8.754694e-05		2.867430e-04
7.002428e-05		-2.701249e+08		5.394696e+09
-2.701249e+08		5.045719e-05		6.147398e-05
5.394696e+09		6.147398e-05		2.281517e-04
6.193668e-05		-1.080986e-05		5.553131e+09
-1.080986e-05		5.600788e-05		5.120610e-05
5.553131e+09		5.120610e-05		2.053082e-04
3.943220e-05		2.701249e+08		5.394696e+09
2.701249e+08		2.934039e-05		3.501526e-05
5.394696e+09		3.501526e-05		1.500323e-04
1.973286e-05		1.011982e+09		4.907442e+09
1.011982e+09		7.347204e-06		3.059531e-05
4.907442e+09		3.059531e-05		1.060031e-04
2.518296e-05		5.857259e+08		4.287394e+09
5.857259e+08		1.306273e-05		1.069834e-05
4.287394e+09		1.069834e-05		7.549673e-05
-1.980923e-05		3.718356e+08		2.555082e+09
3.718356e+08		-4.378147e-06		1.406018e-05
2.555082e+09		1.406018e-05		3.888458e-05
4.394308e+07		-3.777661e+08		2.343404e+09
-3.777661e+08		5.774200e+08		2.616135e+08
2.343404e+09		2.616135e+08		-5.644993e+09
-1.152091e+09		-8.765319e+08		4.564812e+09
-8.765319e+08		-1.522014e+09		-6.613558e+08
4.564812e+09		-6.613558e+08		-7.290501e+09
-1.067293e+09		-6.385148e-06		5.227407e+09
-6.385148e-06		-1.848307e+09		5.317852e-06
5.227407e+09		5.317852e-06		-7.014566e+09
-1.152091e+09		8.765319e+08		4.564812e+09
8.765319e+08		-1.522014e+09		6.613558e+08
4.564812e+09		6.613558e+08		-7.290501e+09
4.394308e+07		3.777661e+08		2.343404e+09
3.777661e+08		5.774200e+08		-2.616135e+08
2.343404e+09		-2.616135e+08		-5.644993e+09
-1.235417e+09		-1.359549e+08		2.845057e+09
-1.359549e+08		4.095906e+08		5.314500e+08
2.845057e+09		5.314500e+08		-1.213558e+10
-2.656169e+09		-2.663709e+08		4.602690e+09
-2.663709e+08		-1.959401e+09		-6.173662e+08
4.602690e+09		-6.173662e+08		-1.402266e+10
-3.551043e+09		-6.484759e+08		5.364906e+09
-6.484759e+08		-3.739057e+09		-1.335458e+09
5.364906e+09		-1.335458e+09		-1.539782e+10
-3.335583e+09		-1.290746e+08		5.896836e+09
-1.290746e+08		-3.845801e+09		-5.007594e+08
5.896836e+09		-5.007594e+08		-1.500437e+10
-3.417034e+09		-1.459615e-05		6.162150e+09
-1.459615e-05		-4.394779e+09		-3.090687e-05
6.162150e+09		-3.090687e-05		-1.487728e+10
-3.335583e+09		1.290746e+08		5.896836e+09
1.290746e+08		-3.845801e+09		5.007594e+08
5.896836e+09		5.007594e+08		-1.500437e+10
-3.551043e+09		6.484759e+08		5.364906e+09
6.484759e+08		-3.739057e+09		1.335458e+09
5.364906e+09		1.335458e+09		-1.539782e+10
-2.656169e+09		2.663709e+08		4.602690e+09
2.663709e+08		-1.959401e+09		6.173662e+08
4.602690e+09		6.173662e+08		-1.402266e+10
-1.235417e+09		1.359549e+08		2.845057e+09
1.359549e+08		4.095906e+08		-5.314500e+08
2.845057e+09		-5.314500e+08		-1.213558e+10
1.936224e+07		2.305315e+07		6.755187e+08
2.305315e+07		1.078930e+09		1.032249e+09
6.755187e+08		1.032249e+09		-1.739828e+10
-1.786964e+09		-4.333925e+08		2.491742e+09
-4.333925e+08		-4.039650e+09		-1.998005e+09
2.491742e+09		-1.998005e+09		-2.094685e+10
-1.545680e+09		-5.641952e-06		3.016379e+09
-5.641952e-06		-4.794902e+09		-7.143850e-05
3.016379e+09		-7.143850e-05		-2.013586e+10
-1.786964e+09		4.333925e+08		2.491742e+09
4.333925e+08		-4.039650e+09		1.998005e+09
2.491742e+09		1.998005e+09		-2.094685e+10
1.936224e+07		-2.305315e+07		6.755187e+08
-2.305315e+07		1.078930e+09		-1.032249e+09
6.755187e+08		-1.032249e+09		-1.739828e+10
2.085232e+09		3.283319e+08		-1.627790e+09
3.283319e+08		1.970407e+09		7.156574e+08
-1.627790e+09		7.156574e+08		-2.280041e+10
1.136261e+09		3.892859e+08		-7.820599e+08
3.892859e+08		-1.542932e+09		-1.662213e+09
-7.820599e+08		-1.662213e+09		-2.502757e+10
8.924265e+08		-6.424945e+07		-8.542000e+08
-6.424945e+07		-4.049369e+09		-3.178250e+09
-8.542000e+08		-3.178250e+09		-2.655609e+10
1.374029e+09		-8.713675e+06		-6.357199e+08
-8.713675e+06		-4.018863e+09		-1.215325e+09
-6.357199e+08		-1.215325e+09		-2.577692e+10
1.318299e+09		1.698732e-05		-6.759185e+08
1.698732e-05		-4.869918e+09		-1.631454e-04
-6.759185e+08		-1.631454e-04		-2.545986e+10
1.374029e+09		8.713675e+06		-6.357199e+08
8.713675e+06		-4.018863e+09		1.215325e+09
-6.357199e+08		1.215325e+09		-2.577692e+10
8.924265e+08		6.424945e+07		-8.542000e+08
6.424945e+07		-4.049369e+09		3.178250e+09
-8.542000e+08		3.178250e+09		-2.655609e+10
1.136261e+09		-3.892859e+08		-7.820599e+08
-3.892859e+08		-1.542932e+09		1.662213e+09
-7.820599e+08		1.662213e+09		-2.502757e+10
2.085232e+09		-3.283319e+08		-1.627790e+09
-3.283319e+08		1.970407e+09		-7.156574e+08
-1.627790e+09		-7.156574e+08		-2.280041e+10
-1.999905e+09		2.482249e+08		-9.177045e+08
2.482249e+08		-2.073002e+09		-5.841934e+08
-9.177045e+08		-5.841934e+08		1.932860e+10
-1.779114e+09		7.467092e+07		-9.802942e+08
7.467092e+07		1.112523e+09		1.118811e+09
-9.802942e+08		1.118811e+09		2.178673e+10
-1.624911e+09		-2.573803e-05		-9.537944e+08
-2.573803e-05		2.577118e+09		2.292003e-04
-9.537944e+08		2.292003e-04		2.228076e+10
-1.779114e+09		-7.467092e+07		-9.802942e+08
-7.467092e+07		1.112523e+09		-1.118811e+09
-9.802942e+08		-1.118811e+09		2.178673e+10
-1.999905e+09		-2.482249e+08		-9.177045e+08
-2.482249e+08		-2.073002e+09		5.841934e+08
-9.177045e+08		5.841934e+08		1.932860e+10
-5.347785e+08		-2.890368e+08		2.642202e+09
-2.890368e+08		-1.036381e+09		-6.617677e+08
2.642202e+09		-6.617677e+08		9.706473e+09
8.083521e+08		-6.231438e+08		4.233930e+09
-6.231438e+08		1.291485e+09		2.812321e+08
4.233930e+09		2.812321e+08		1.218347e+10
9.737548e+08		-2.197083e-05		4.648769e+09
-2.197083e-05		2.292794e+09		1.123764e-04
4.648769e+09		1.123764e-04		1.268558e+10
8.083521e+08		6.231438e+08		4.233930e+09
6.231438e+08		1.291485e+09		-2.812321e+08
4.233930e+09		-2.812321e+08		1.218347e+10
-5.347785e+08		2.890368e+08		2.642202e+09
2.890368e+08		-1.036381e+09		6.617677e+08
2.642202e+09		6.617677e+08		9.706473e+09
3.944337e-05		-4.757915e+08		3.911697e+09
-4.757915e+08		-7.711351e-06		-3.226474e-05
3.911697e+09		-3.226474e-05		2.385676e-04
5.175360e-05		-1.028700e+09		5.456756e+09
-1.028700e+09		2.813712e-05		4.843337e-05
5.456756e+09		4.843337e-05		2.554581e-04
3.551412e-05		-3.443100e-05		5.949007e+09
-3.443100e-05		1.686020e-05		5.902928e-05
5.949007e+09		5.902928e-05		1.822188e-04
-3.317371e-06		1.028700e+09		5.456756e+09
1.028700e+09		-8.167699e-07		2.803127e-05
5.456756e+09		2.803127e-05		1.259521e-04
1.186132e-05		4.757915e+08		3.911697e+09
4.757915e+08		3.151596e-06		1.892075e-05
3.911697e+09		1.892075e-05		6.935000e-05
5.347785e+08		-2.890368e+08		2.642202e+09
-2.890368e+08		1.036381e+09		6.617677e+08
2.642202e+09		6.617677e+08		-9.706473e+09
-8.083521e+08		-6.231438e+08		4.233930e+09
-6.231438e+08		-1.291485e+09		-2.812321e+08
4.233930e+09		-2.812321e+08		-1.218347e+10
-9.737548e+08		-1.951214e-05		4.648769e+09
-1.951214e-05		-2.292794e+09		-3.082980e-05
4.648769e+09		-3.082980e-05		-1.268558e+10
-8.083521e+08		6.231438e+08		4.233930e+09
6.231438e+08		-1.291485e+09		2.812321e+08
4.233930e+09		2.812321e+08		-1.218347e+10
5.347785e+08		2.890368e+08		2.642202e+09
2.890368e+08		1.036381e+09		-6.617677e+08
2.642202e+09		-6.617677e+08		-9.706473e+09
1.999905e+09		2.482249e+08		-9.177045e+08
2.482249e+08		2.073002e+09		5.841934e+08
-9.177045e+08		5.841934e+08		-1.932860e+10
1.779114e+09		7.467092e+07		-9.802942e+08
7.467092e+07		-1.112523e+09		-1.118811e+09
-9.802942e+08		-1.118811e+09		-2.178673e+10
1.624911e+09		-1.637638e-05		-9.537944e+08
-1.637638e-05		-2.577118e+09		-1.423657e-04
-9.537944e+08		-1.423657e-04		-2.228076e+10
1.779114e+09		-7.467092e+07		-9.802942e+08
-7.467092e+07		-1.112523e+09		1.118811e+09
-9.802942e+08		1.118811e+09		-2.178673e+10
1.999905e+09		-2.482249e+08		-9.177045e+08
-2.482249e+08		2.073002e+09		-5.841934e+08
-9.177045e+08		-5.841934e+08		-1.932860e+10
1.612847e+08		1.367985e+08		-9.114824e+05
1.367985e+08		8.105996e+07		-3.876623e+08
-9.114824e+05		-3.876623e+08		1.877953e+10
4.517309e+08		1.201650e+08		-8.715549e+07
1.201650e+08		5.407797e+08		-9.323592e+07
-8.715549e+07		-9.323592e+07		2.057525e+10
1.430915e+08		8.575279e+07		-1.207919e+08
8.575279e+07		8.507407e+08		-5.612568e+07
-1.207919e+08		-5.612568e+07		2.092026e+10
2.627521e+08		4.486688e+07		-1.321868e+08
4.486688e+07		1.798882e+09		1.641878e+08
-1.321868e+08		1.641878e+08		2.126575e+10
2.728707e+08		-2.285652e-05		-1.920299e+08
-2.285652e-05		2.130230e+09		2.754647e-04
-1.920299e+08		2.754647e-04		2.129782e+10
2.627521e+08		-4.486688e+07		-1.321868e+08
-4.486688e+07		1.798882e+09		-1.641878e+08
-1.321868e+08		-1.641878e+08		2.126575e+10
1.430915e+08		-8.575279e+07		-1.207919e+08
-8.575279e+07		8.507407e+08		5.612568e+07
-1.207919e+08		5.612568e+07		2.092026e+10
4.517309e+08		-1.201650e+08		-8.715549e+07
-1.201650e+08		5.407797e+08		9.323592e+07
-8.715549e+07		9.323592e+07		2.057525e+10
1.612847e+08		-1.367985e+08		-9.114824e+05
-1.367985e+08		8.105996e+07		3.876623e+08
-9.114824e+05		3.876623e+08		1.877953e+10
-4.016887e+08		-8.227762e+07		1.890140e+09
-8.227762e+07		-2.411492e+07		-3.125805e+08
1.890140e+09		-3.125805e+08		1.419337e+10
3.781173e+07		-2.322520e+08		2.112960e+09
-2.322520e+08		8.457556e+08		-1.374832e+08
2.112960e+09		-1.374832e+08		1.668974e+10
2.033138e+08		8.789822e-06		2.238446e+09
8.789822e-06		1.975636e+09		2.070181e-04
2.238446e+09		2.070181e-04		1.727805e+10
3.781173e+07		2.322520e+08		2.112960e+09
2.322520e+08		8.457556e+08		1.374832e+08
2.112960e+09		1.374832e+08		1.668974e+10
-4.016887e+08		8.227762e+07		1.890140e+09
8.227762e+07		-2.411492e+07		3.125805e+08
1.890140e+09		3.125805e+08		1.419337e+10
-7.755313e+08		-1.819389e+08		3.590780e+09
-1.819389e+08		-8.374514e+07		-2.886555e+08
3.590780e+09		-2.886555e+08		9.536697e+09
-2.774518e+08		-3.845868e+08		3.709503e+09
-3.845868e+08		2.465095e+08		-2.117867e+08
3.709503e+09		-2.117867e+08		1.086341e+10
-2.063737e+08		-5.183453e+08		4.037175e+09
-5.183453e+08		4.697430e+08		-2.386532e+08
4.037175e+09		-2.386532e+08		1.139415e+10
-1.046569e+08		-2.375689e+08		4.237513e+09
-2.375689e+08		1.096077e+09		2.164836e+07
4.237513e+09		2.164836e+07		1.180365e+10
-8.883963e+07		1.310837e-05		4.331969e+09
1.310837e-05		1.338805e+09		1.215502e-04
4.331969e+09		1.215502e-04		1.193936e+10
-1.046569e+08		2.375689e+08		4.237513e+09
2.375689e+08		1.096077e+09		-2.164836e+07
4.237513e+09		-2.164836e+07		1.180365e+10
-2.063737e+08		5.183453e+08		4.037175e+09
5.183453e+08		4.697430e+08		2.386532e+08
4.037175e+09		2.386532e+08		1.139415e+10
-2.774518e+08		3.845868e+08		3.709503e+09
3.845868e+08		2.465095e+08		2.117867e+08
3.709503e+09		2.117867e+08		1.086341e+10
-7.755313e+08		1.819389e+08		3.590780e+09
1.819389e+08		-8.374514e+07		2.886555e+08
3.590780e+09		2.886555e+08		9.536697e+09
-3.024817e+08		-2.500331e+08		4.528083e+09
-2.500331e+08		-2.854274e+07		-1.689791e+08
4.528083e+09		-1.689791e+08		4.850736e+09
1.545795e+08		-7.731942e+08		5.022521e+09
-7.731942e+08		3.408848e+08		-1.303858e+08
5.022521e+09		-1.303858e+08		5.888796e+09
2.914734e+08		-4.224479e-06		5.377781e+09
-4.224479e-06		8.195324e+08		1.099864e-04
5.377781e+09		1.099864e-04		6.208420e+09
1.545795e+08		7.731942e+08		5.022521e+09
7.731942e+08		3.408848e+08		1.303858e+08
5.022521e+09		1.303858e+08		5.888796e+09
-3.024817e+08		2.500331e+08		4.528083e+09
2.500331e+08		-2.854274e+07		1.689791e+08
4.528083e+09		1.689791e+08		4.850736e+09
7.098168e-05		-2.825988e+08		5.130487e+09
-2.825988e+08		4.911050e-05		-4.718849e-05
5.130487e+09		-4.718849e-05		2.463087e-04
5.523860e-05		-7.013943e+08		5.179598e+09
-7.013943e+08		2.081320e-05		3.088196e-05
5.179598e+09		3.088196e-05		2.379157e-04
3.950298e-05		-9.447715e+08		5.607562e+09
-9.447715e+08		1.735101e-05		3.759209e-05
5.607562e+09		3.759209e-05		2.272092e-04
5.983189e-05		-4.163372e+08		5.886251e+09
-4.163372e+08		3.285706e-05		4.418877e-05
5.886251e+09		4.418877e-05		2.253242e-04
9.257719e-05		-2.052356e-05		6.022986e+09
-2.052356e-05		2.475735e-05		7.010974e-05
6.022986e+09		7.010974e-05		2.204888e-04
3.116950e-05		4.163372e+08		5.886251e+09
4.163372e+08		6.407499e-06		5.851664e-05
5.886251e+09		5.851664e-05		1.870841e-04
1.616683e-05		9.447715e+08		5.607562e+09
9.447715e+08		1.376751e-05		4.229547e-05
5.607562e+09		4.229547e-05		1.770128e-04
5.561858e-06		7.013943e+08		5.179598e+09
7.013943e+08		5.291775e-06		2.804666e-05
5.179598e+09		2.804666e-05		1.215637e-04
3.981218e-05		2.825988e+08		5.130487e+09
2.825988e+08		6.407499e-06		4.250009e-05
5.130487e+09		4.250009e-05		8.732826e-05
3.024817e+08		-2.500331e+08		4.528083e+09
-2.500331e+08		2.854274e+07		1.689791e+08
4.528083e+09		1.689791e+08		-4.850736e+09
-1.545795e+08		-7.731942e+08		5.022521e+09
-7.731942e+08		-3.408848e+08		1.303858e+08
5.022521e+09		1.303858e+08		-5.888796e+09
-2.914734e+08		-5.353242e-06		5.377781e+09
-5.353242e-06		-8.195324e+08		2.310518e-05
5.377781e+09		2.310518e-05		-6.208420e+09
-1.545795e+08		7.731942e+08		5.022521e+09
7.731942e+08		-3.408848e+08		-1.303858e+08
5.022521e+09		-1.303858e+08		-5.888796e+09
3.024817e+08		2.500331e+08		4.528083e+09
2.500331e+08		2.854274e+07		-1.689791e+08
4.528083e+09		-1.689791e+08		-4.850736e+09
7.755313e+08		-1.819389e+08		3.590780e+09
-1.819389e+08		8.374514e+07		2.886555e+08
3.590780e+09		2.886555e+08		-9.536697e+09
2.774518e+08		-3.845868e+08		3.709503e+09
-3.845868e+08		-2.465095e+08		2.117867e+08
3.709503e+09		2.117867e+08		-1.086341e+10
2.063737e+08		-5.183453e+08		4.037175e+09
-5.183453e+08		-4.697430e+08		2.386532e+08
4.037175e+09		2.386532e+08		-1.139415e+10
1.046569e+08		-2.375689e+08		4.237513e+09
-2.375689e+08		-1.096077e+09		-2.164836e+07
4.237513e+09		-2.164836e+07		-1.180365e+10
8.883963e+07		1.909211e-05		4.331969e+09
1.909211e-05		-1.338805e+09		-3.121234e-05
4.331969e+09		-3.121234e-05		-1.193936e+10
1.046569e+08		2.375689e+08		4.237513e+09
2.375689e+08		-1.096077e+09		2.164836e+07
4.237513e+09		2.164836e+07		-1.180365e+10
2.063737e+08		5.183453e+08		4.037175e+09
5.183453e+08		-4.697430e+08		-2.386532e+08
4.037175e+09		-2.386532e+08		-1.139415e+10
2.774518e+08		3.845868e+08		3.709503e+09
3.845868e+08		-2.465095e+08		-2.117867e+08
3.709503e+09		-2.117867e+08		-1.086341e+10
7.755313e+08		1.819389e+08		3.590780e+09
1.819389e+08		8.374514e+07		-2.886555e+08
3.590780e+09		-2.886555e+08		-9.536697e+09
4.016887e+08		-8.227762e+07		1.890140e+09
-8.227762e+07		2.411492e+07		3.125805e+08
1.890140e+09		3.125805e+08		-1.419337e+10
-3.781173e+07		-2.322520e+08		2.112960e+09
-2.322520e+08		-8.457556e+08		1.374832e+08
2.112960e+09		1.374832e+08		-1.668974e+10
-2.033138e+08		1.085922e-06		2.238446e+09
1.085922e-06		-1.975636e+09		-7.384270e-05
2.238446e+09		-7.384270e-05		-1.727805e+10
-3.781173e+07		2.322520e+08		2.112960e+09
2.322520e+08		-8.457556e+08		-1.374832e+08
2.112960e+09		-1.374832e+08		-1.668974e+10
4.016887e+08		8.227762e+07		1.890140e+09
8.227762e+07		2.411492e+07		-3.125805e+08
1.890140e+09		-3.125805e+08		-1.419337e+10
-1.612847e+08		1.367985e+08		-9.114824e+05
1.367985e+08		-8.105996e+07		3.876623e+08
-9.114824e+05		3.876623e+08		-1.877953e+10
-4.517309e+08		1.201650e+08		-8.715549e+07
1.201650e+08		-5.407797e+08		9.323592e+07
-8.715549e+07		9.323592e+07		-2.057525e+10
-1.430915e+08		8.575279e+07		-1.207919e+08
8.575279e+07		-8.507407e+08		5.612568e+07
-1.207919e+08		5.612568e+07		-2.092026e+10
-2.627521e+08		4.486688e+07		-1.321868e+08
4.486688e+07		-1.798882e+09		-1.641878e+08
-1.321868e+08		-1.641878e+08		-2.126575e+10
-2.728707e+08		1.063570e-05		-1.920299e+08
1.063570e-05		-2.130230e+09		-1.110099e-04
-1.920299e+08		-1.110099e-04		-2.129782e+10
-2.627521e+08		-4.486688e+07		-1.321868e+08
-4.486688e+07		-1.798882e+09		1.641878e+08
-1.321868e+08		1.641878e+08		-2.126575e+10
-1.430915e+08		-8.575279e+07		-1.207919e+08
-8.575279e+07		-8.507407e+08		-5.612568e+07
-1.207919e+08		-5.612568e+07		-2.092026e+10
-4.517309e+08		-1.201650e+08		-8.715549e+07
-1.201650e+08		-5.407797e+08		-9.323592e+07
-8.715549e+07		-9.323592e+07		-2.057525e+10
-1.612847e+08		-1.367985e+08		-9.114824e+05
-1.367985e+08		-8.105996e+07		-3.876623e+08
-9.114824e+05		-3.876623e+08		-1.877953e+10
1.868641e+08		1.669816e+07		3.292490e+08
1.669816e+07		1.369169e+08		-1.318305e+08
3.292490e+08		-1.318305e+08		1.810529e+10
1.892729e+08		2.345663e+07		1.796809e+08
2.345663e+07		7.131587e+08		-3.935542e+08
1.796809e+08		-3.935542e+08		1.949176e+10
2.146788e+08		8.754432e-06		1.659539e+08
8.754432e-06		1.470240e+09		2.490431e-04
1.659539e+08		2.490431e-04		1.983977e+10
1.892729e+08		-2.345663e+07		1.796809e+08
-2.345663e+07		7.131587e+08		3.935542e+08
1.796809e+08		3.935542e+08		1.949176e+10
1.868641e+08		-1.669816e+07		3.292490e+08
-1.669816e+07		1.369169e+08		1.318305e+08
3.292490e+08		1.318305e+08		1.810529e+10
-4.285207e+08		-1.131019e+08		4.026956e+09
-1.131019e+08		6.691499e+07		4.632365e+06
4.026956e+09		4.632365e+06		9.084319e+09
-1.605416e+08		-4.485842e+08		3.798016e+09
-4.485842e+08		2.989303e+08		-2.459444e+08
3.798016e+09		-2.459444e+08		1.011630e+10
-1.482765e+08		2.691522e-06		3.948672e+09
2.691522e-06		7.540951e+08		1.678057e-04
3.948672e+09		1.678057e-04		1.046823e+10
-1.605416e+08		4.485842e+08		3.798016e+09
4.485842e+08		2.989303e+08		2.459444e+08
3.798016e+09		2.459444e+08		1.011630e+10
-4.285207e+08		1.131019e+08		4.026956e+09
1.131019e+08		6.691499e+07		-4.632365e+06
4.026956e+09		-4.632365e+06		9.084319e+09
5.915761e-06		-1.721267e+08		5.512647e+09
-1.721267e+08		1.189113e-05		-1.414027e-05
5.512647e+09		-1.414027e-05		1.903102e-04
1.183897e-05		-7.754554e+08		5.278348e+09
-7.754554e+08		1.516193e-06		5.540298e-05
5.278348e+09		5.540298e-05		1.773499e-04
2.141949e-05		5.623326e-06		5.504772e+09
5.623326e-06		-5.422626e-06		7.325655e-05
5.504772e+09		7.325655e-05		2.007745e-04
-7.811934e-06		7.754554e+08		5.278348e+09
7.754554e+08		-1.455285e-05		5.403161e-05
5.278348e+09		5.403161e-05		1.127198e-04
-4.385412e-05		1.721267e+08		5.512647e+09
1.721267e+08		-3.925711e-05		2.296502e-05
5.512647e+09		2.296502e-05		4.851818e-05
4.285207e+08		-1.131019e+08		4.026956e+09
-1.131019e+08		-6.691499e+07		-4.632365e+06
4.026956e+09		-4.632365e+06		-9.084319e+09
1.605416e+08		-4.485842e+08		3.798016e+09
-4.485842e+08		-2.989303e+08		2.459444e+08
3.798016e+09		2.459444e+08		-1.011630e+10
1.482765e+08		2.056081e-05		3.948672e+09
2.056081e-05		-7.540951e+08		-2.294220e-05
3.948672e+09		-2.294220e-05		-1.046823e+10
1.605416e+08		4.485842e+08		3.798016e+09
4.485842e+08		-2.989303e+08		-2.459444e+08
3.798016e+09		-2.459444e+08		-1.011630e+10
4.285207e+08		1.131019e+08		4.026956e+09
1.131019e+08		-6.691499e+07		4.632365e+06
4.026956e+09		4.632365e+06		-9.084319e+09
-1.868641e+08		1.669816e+07		3.292490e+08
1.669816e+07		-1.369169e+08		1.318305e+08
3.292490e+08		1.318305e+08		-1.810529e+10
-1.892729e+08		2.345663e+07		1.796809e+08
2.345663e+07		-7.131587e+08		3.935542e+08
1.796809e+08		3.935542e+08		-1.949176e+10
-2.146788e+08		2.592802e-05		1.659539e+08
2.592802e-05		-1.470240e+09		-1.288056e-04
1.659539e+08		-1.288056e-04		-1.983977e+10
-1.892729e+08		-2.345663e+07		1.796809e+08
-2.345663e+07		-7.131587e+08		-3.935542e+08
1.796809e+08		-3.935542e+08		-1.949176e+10
-1.868641e+08		-1.669816e+07		3.292490e+08
-1.669816e+07		-1.369169e+08		-1.318305e+08
3.292490e+08		-1.318305e+08		-1.810529e+10
-1.299588e+08		-2.953066e+05		5.243998e+08
-2.953066e+05		-1.519886e+08		-3.644875e+08
5.243998e+08		-3.644875e+08		1.652177e+10
-1.084428e+07		3.306335e+07		2.362236e+08
3.306335e+07		2.062597e+08		-6.503122e+08
2.362236e+08		-6.503122e+08		1.707940e+10
-7.007781e+07		9.481833e+06		2.373224e+08
9.481833e+06		4.562827e+08		-8.238482e+08
2.373224e+08		-8.238482e+08		1.738614e+10
-6.733336e+07		2.324574e+07		1.981420e+08
2.324574e+07		7.040391e+08		-3.578718e+08
1.981420e+08		-3.578718e+08		1.765465e+10
-3.332249e+07		4.493282e-05		2.055715e+08
4.493282e-05		9.118011e+08		2.954667e-04
2.055715e+08		2.954667e-04		1.784299e+10
-6.733336e+07		-2.324574e+07		1.981420e+08
-2.324574e+07		7.040391e+08		3.578718e+08
1.981420e+08		3.578718e+08		1.765465e+10
-7.007781e+07		-9.481833e+06		2.373224e+08
-9.481833e+06		4.562827e+08		8.238482e+08
2.373224e+08		8.238482e+08		1.738614e+10
-1.084428e+07		-3.306335e+07		2.362236e+08
-3.306335e+07		2.062597e+08		6.503122e+08
2.362236e+08		6.503122e+08		1.707940e+10
-1.299588e+08		2.953066e+05		5.243998e+08
2.953066e+05		-1.519886e+08		3.644875e+08
5.243998e+08		3.644875e+08		1.652177e+10
-1.981173e+08		-5.615565e+07		2.609987e+09
-5.615565e+07		-1.252521e+08		-1.283731e+08
2.609987e+09		-1.283731e+08		1.217355e+10
-6.008556e+07		-1.891695e+08		2.065896e+09
-1.891695e+08		3.091969e+08		-5.217731e+08
2.065896e+09		-5.217731e+08		1.302108e+10
3.821895e+06		1.735892e-05		2.033200e+09
1.735892e-05		6.757521e+08		2.499605e-04
2.033200e+09		2.499605e-04		1.349012e+10
-6.008556e+07		1.891695e+08		2.065896e+09
1.891695e+08		3.091969e+08		5.217731e+08
2.065896e+09		5.217731e+08		1.302108e+10
-1.981173e+08		5.615565e+07		2.609987e+09
5.615565e+07		-1.252521e+08		1.283731e+08
2.609987e+09		1.283731e+08		1.217355e+10
-2.497061e+08		-6.421114e+07		4.643478e+09
-6.421114e+07		-4.598720e+07		-7.080836e+07
4.643478e+09		-7.080836e+07		8.105816e+09
-1.443122e+08		-2.121218e+08		4.085282e+09
-2.121218e+08		6.213465e+07		-2.304035e+08
4.085282e+09		-2.304035e+08		8.406966e+09
-1.053563e+08		-3.584184e+08		3.849656e+09
-3.584184e+08		1.537252e+08		-3.413845e+08
3.849656e+09		-3.413845e+08		8.703440e+09
-8.449422e+07		-1.721913e+08		3.833448e+09
-1.721913e+08		3.036420e+08		-1.575189e+08
3.833448e+09		-1.575189e+08		8.941485e+09
-6.215025e+07		-2.345722e-05		3.820223e+09
-2.345722e-05		4.134628e+08		1.961882e-04
3.820223e+09		1.961882e-04		9.066494e+09
-8.449422e+07		1.721913e+08		3.833448e+09
1.721913e+08		3.036420e+08		1.575189e+08
3.833448e+09		1.575189e+08		8.941485e+09
-1.053563e+08		3.584184e+08		3.849656e+09
3.584184e+08		1.537252e+08		3.413845e+08
3.849656e+09		3.413845e+08		8.703440e+09
-1.443122e+08		2.121218e+08		4.085282e+09
2.121218e+08		6.213465e+07		2.304035e+08
4.085282e+09		2.304035e+08		8.406966e+09
-2.497061e+08		6.421114e+07		4.643478e+09
6.421114e+07		-4.598720e+07		7.080836e+07
4.643478e+09		7.080836e+07		8.105816e+09
-2.013711e+08		-9.466943e+07		5.443372e+09
-9.466943e+07		-5.535566e+07		-5.252146e+07
5.443372e+09		-5.252146e+07		4.023230e+09
-7.583295e+07		-4.760621e+08		4.694088e+09
-4.760621e+08		6.550981e+07		-1.752888e+08
4.694088e+09		-1.752888e+08		4.363013e+09
-4.224689e+07		-3.144704e-05		4.712181e+09
-3.144704e-05		1.979161e+08		1.437613e-04
4.712181e+09		1.437613e-04		4.567305e+09
-7.583295e+07		4.760621e+08		4.694088e+09
4.760621e+08		6.550981e+07		1.752888e+08
4.694088e+09		1.752888e+08		4.363013e+09
-2.013711e+08		9.466943e+07		5.443372e+09
9.466943e+07		-5.535566e+07		5.252146e+07
5.443372e+09		5.252146e+07		4.023230e+09
-6.224401e-05		-9.525650e+07		6.149458e+09
-9.525650e+07		-2.809893e-05		-2.155849e-05
6.149458e+09		-2.155849e-05		1.399256e-04
-5.900767e-05		-3.438860e+08		5.559482e+09
-3.438860e+08		-2.885284e-05		2.609380e-05
5.559482e+09		2.609380e-05		1.389310e-04
3.145682e-05		-5.583700e+08		5.364221e+09
-5.583700e+08		1.318310e-05		6.157886e-05
5.364221e+09		6.157886e-05		1.729261e-04
2.543442e-06		-2.790739e+08		5.375926e+09
-2.790739e+08		-6.508082e-06		7.581057e-05
5.375926e+09		7.581057e-05		1.637265e-04
-4.529767e-05		8.398667e-06		5.391722e+09
8.398667e-06		-3.810041e-05		8.849989e-05
5.391722e+09		8.849989e-05		1.426116e-04
6.978400e-06		2.790739e+08		5.375926e+09
2.790739e+08		-4.953239e-06		5.464302e-05
5.375926e+09		5.464302e-05		1.467243e-04
-2.196990e-06		5.583700e+08		5.364221e+09
5.583700e+08		-3.902707e-06		5.042946e-05
5.364221e+09		5.042946e-05		1.302790e-04
4.897825e-06		3.438860e+08		5.559482e+09
3.438860e+08		-9.489711e-06		4.260353e-05
5.559482e+09		4.260353e-05		1.260005e-04
-4.830025e-05		9.525650e+07		6.149458e+09
9.525650e+07		-3.681891e-05		1.151761e-05
6.149458e+09		1.151761e-05		1.110956e-04
2.013711e+08		-9.466943e+07		5.443372e+09
-9.466943e+07		5.535566e+07		5.252146e+07
5.443372e+09		5.252146e+07		-4.023230e+09
7.583295e+07		-4.760621e+08		4.694088e+09
-4.760621e+08		-6.550981e+07		1.752888e+08
4.694088e+09		1.752888e+08		-4.363013e+09
4.224689e+07		-8.851290e-06		4.712181e+09
-8.851290e-06		-1.979161e+08		4.022708e-05
4.712181e+09		4.022708e-05		-4.567305e+09
7.583295e+07		4.760621e+08		4.694088e+09
4.760621e+08		-6.550981e+07		-1.752888e+08
4.694088e+09		-1.752888e+08		-4.363013e+09
2.013711e+08		9.466943e+07		5.443372e+09
9.466943e+07		5.535566e+07		-5.252146e+07
5.443372e+09		-5.252146e+07		-4.023230e+09
2.497061e+08		-6.421114e+07		4.643478e+09
-6.421114e+07		4.598720e+07		7.080836e+07
4.643478e+09		7.080836e+07		-8.105816e+09
1.443122e+08		-2.121218e+08		4.085282e+09
-2.121218e+08		-6.213465e+07		2.304035e+08
4.085282e+09		2.304035e+08		-8.406966e+09
1.053563e+08		-3.584184e+08		3.849656e+09
-3.584184e+08		-1.537252e+08		3.413845e+08
3.849656e+09		3.413845e+08		-8.703440e+09
8.449422e+07		-1.721913e+08		3.833448e+09
-1.721913e+08		-3.036420e+08		1.575189e+08
3.833448e+09		1.575189e+08		-8.941485e+09
6.215025e+07		-2.358295e-05		3.820223e+09
-2.358295e-05		-4.134628e+08		1.182035e-05
3.820223e+09		1.182035e-05		-9.066494e+09
8.449422e+07		1.721913e+08		3.833448e+09
1.721913e+08		-3.036420e+08		-1.575189e+08
3.833448e+09		-1.575189e+08		-8.941485e+09
1.053563e+08		3.584184e+08		3.849656e+09
3.584184e+08		-1.537252e+08		-3.413845e+08
3.849656e+09		-3.413845e+08		-8.703440e+09
1.443122e+08		2.121218e+08		4.085282e+09
2.121218e+08		-6.213465e+07		-2.304035e+08
4.085282e+09		-2.304035e+08		-8.406966e+09
2.497061e+08		6.421114e+07		4.643478e+09
6.421114e+07		4.598720e+07		-7.080836e+07
4.643478e+09		-7.080836e+07		-8.105816e+09
1.981173e+08		-5.615565e+07		2.609987e+09
-5.615565e+07		1.252521e+08		1.283731e+08
2.609987e+09		1.283731e+08		-1.217355e+10
6.008556e+07		-1.891695e+08		2.065896e+09
-1.891695e+08		-3.091969e+08		5.217731e+08
2.065896e+09		5.217731e+08		-1.302108e+10
-3.821895e+06		-2.958626e-05		2.033200e+09
-2.958626e-05		-6.757521e+08		-6.093737e-05
2.033200e+09		-6.093737e-05		-1.349012e+10
6.008556e+07		1.891695e+08		2.065896e+09
1.891695e+08		-3.091969e+08		-5.217731e+08
2.065896e+09		-5.217731e+08		-1.302108e+10
1.981173e+08		5.615565e+07		2.609987e+09
5.615565e+07		1.252521e+08		-1.283731e+08
2.609987e+09		-1.283731e+08		-1.217355e+10
1.299588e+08		-2.953066e+05		5.243998e+08
-2.953066e+05		1.519886e+08		3.644875e+08
5.243998e+08		3.644875e+08		-1.652177e+10
1.084428e+07		3.306335e+07		2.362236e+08
3.306335e+07		-2.062597e+08		6.503122e+08
2.362236e+08		6.503122e+08		-1.707940e+10
7.007781e+07		9.481833e+06		2.373224e+08
9.481833e+06		-4.562827e+08		8.238482e+08
2.373224e+08		8.238482e+08		-1.738614e+10
6.733336e+07		2.324574e+07		1.981420e+08
2.324574e+07		-7.040391e+08		3.578718e+08
1.981420e+08		3.578718e+08		-1.765465e+10
3.332249e+07		-3.616017e-05		2.055715e+08
-3.616017e-05		-9.118011e+08		-1.689279e-04
2.055715e+08		-1.689279e-04		-1.784299e+10
6.733336e+07		-2.324574e+07		1.981420e+08
-2.324574e+07		-7.040391e+08		-3.578718e+08
1.981420e+08		-3.578718e+08		-1.765465e+10
7.007781e+07		-9.481833e+06		2.373224e+08
-9.481833e+06		-4.562827e+08		-8.238482e+08
2.373224e+08		-8.238482e+08		-1.738614e+10
1.084428e+07		-3.306335e+07		2.362236e+08
-3.306335e+07		-2.062597e+08		-6.503122e+08
2.362236e+08		-6.503122e+08		-1.707940e+10
1.299588e+08		2.953066e+05		5.243998e+08
2.953066e+05		1.519886e+08		-3.644875e+08
5.243998e+08		-3.644875e+08		-1.652177e+10
-5.404257e+07		1.790192e+06		4.259753e+08
1.790192e+06		-8.683877e+07		-4.020942e+08
4.259753e+08		-4.020942e+08		1.462554e+10
-4.024182e+07		-2.812574e+06		7.724432e+07
-2.812574e+06		2.651888e+08		-8.665215e+08
7.724432e+07		-8.665215e+08		1.518562e+10
-3.299822e+07		6.204471e-06		5.133763e+07
6.204471e-06		5.318526e+08		3.092811e-04
5.133763e+07		3.092811e-04		1.543701e+10
-4.024182e+07		2.812574e+06		7.724432e+07
2.812574e+06		2.651888e+08		8.665215e+08
7.724432e+07		8.665215e+08		1.518562e+10
-5.404257e+07		-1.790192e+06		4.259753e+08
-1.790192e+06		-8.683877e+07		4.020942e+08
4.259753e+08		4.020942e+08		1.462554e+10
-1.618984e+08		-4.408686e+07		4.763146e+09
-4.408686e+07		-3.737053e+07		-5.640491e+07
4.763146e+09		-5.640491e+07		7.139639e+09
-6.062607e+07		-2.603229e+08		3.693070e+09
-2.603229e+08		7.594223e+07		-2.830470e+08
3.693070e+09		-2.830470e+08		7.558148e+09
-4.742991e+07		-1.110043e-05		3.540867e+09
-1.110043e-05		2.104338e+08		2.192650e-04
3.540867e+09		2.192650e-04		7.765210e+09
-6.062607e+07		2.603229e+08		3.693070e+09
2.603229e+08		7.594223e+07		2.830470e+08
3.693070e+09		2.830470e+08		7.558148e+09
-1.618984e+08		4.408686e+07		4.763146e+09
4.408686e+07		-3.737053e+07		5.640491e+07
4.763146e+09		5.640491e+07		7.139639e+09
-3.877096e-05		-5.999416e+07		6.131573e+09
-5.999416e+07		1.948792e-05		-4.582247e-05
6.131573e+09		-4.582247e-05		1.258329e-04
-2.586748e-06		-3.952239e+08		5.033740e+09
-3.952239e+08		2.125697e-05		5.395683e-05
5.033740e+09		5.395683e-05		1.951903e-04
6.148126e-05		1.415610e-07		4.877707e+09
1.415610e-07		3.476813e-05		8.417899e-05
4.877707e+09		8.417899e-05		2.185144e-04
3.027963e-05		3.952239e+08		5.033740e+09
3.952239e+08		1.910795e-05		5.838647e-05
5.033740e+09		5.838647e-05		2.105720e-04
6.819330e-05		5.999416e+07		6.131573e+09
5.999416e+07		1.284759e-05		2.819463e-05
6.131573e+09		2.819463e-05		1.296550e-04
1.618984e+08		-4.408686e+07		4.763146e+09
-4.408686e+07		3.737053e+07		5.640491e+07
4.763146e+09		5.640491e+07		-7.139639e+09
6.062607e+07		-2.603229e+08		3.693070e+09
-2.603229e+08		-7.594223e+07		2.830470e+08
3.693070e+09		2.830470e+08		-7.558148e+09
4.742991e+07		6.593298e-06		3.540867e+09
6.593298e-06		-2.104338e+08		6.994233e-06
3.540867e+09		6.994233e-06		-7.765210e+09
6.062607e+07		2.603229e+08		3.693070e+09
2.603229e+08		-7.594223e+07		-2.830470e+08
3.693070e+09		-2.830470e+08		-7.558148e+09
1.618984e+08		4.408686e+07		4.763146e+09
4.408686e+07		3.737053e+07		-5.640491e+07
4.763146e+09		-5.640491e+07		-7.139639e+09
5.404257e+07		1.790192e+06		4.259753e+08
1.790192e+06		8.683877e+07		4.020942e+08
4.259753e+08		4.020942e+08		-1.462554e+10
4.024182e+07		-2.812574e+06		7.724432e+07
-2.812574e+06		-2.651888e+08		8.665215e+08
7.724432e+07		8.665215e+08		-1.518562e+10
3.299822e+07		2.517272e-05		5.133763e+07
2.517272e-05		-5.318526e+08		-1.545064e-04
5.133763e+07		-1.545064e-04		-1.543701e+10
4.024182e+07		2.812574e+06		7.724432e+07
2.812574e+06		-2.651888e+08		-8.665215e+08
7.724432e+07		-8.665215e+08		-1.518562e+10
5.404257e+07		-1.790192e+06		4.259753e+08
-1.790192e+06		8.683877e+07		-4.020942e+08
4.259753e+08		-4.020942e+08		-1.462554e+10
2.265687e+07		1.405785e+07		6.501872e+08
1.405785e+07		1.395941e+07		-4.623071e+08
6.501872e+08		-4.623071e+08		1.272879e+10
3.777566e+07		1.251129e+07		2.657729e+08
1.251129e+07		9.276125e+07		-7.613302e+08
2.657729e+08		-7.613302e+08		1.293244e+10
7.809988e+06		-1.480137e+06		2.683638e+08
-1.480137e+06		1.736397e+08		-9.572017e+08
2.683638e+08		-9.572017e+08		1.305026e+10
2.315109e+07		3.631381e+06		2.083739e+08
3.631381e+06		2.935084e+08		-4.428737e+08
2.083739e+08		-4.428737e+08		1.317763e+10
6.171128e+06		-6.991508e-05		2.491373e+08
-6.991508e-05		3.253551e+08		4.251674e-04
2.491373e+08		4.251674e-04		1.319098e+10
2.315109e+07		-3.631381e+06		2.083739e+08
-3.631381e+06		2.935084e+08		4.428737e+08
2.083739e+08		4.428737e+08		1.317763e+10
7.809988e+06		1.480137e+06		2.683638e+08
1.480137e+06		1.736397e+08		9.572017e+08
2.683638e+08		9.572017e+08		1.305026e+10
3.777566e+07		-1.251129e+07		2.657729e+08
-1.251129e+07		9.276125e+07		7.613302e+08
2.657729e+08		7.613302e+08		1.293244e+10
2.265687e+07		-1.405785e+07		6.501872e+08
-1.405785e+07		1.395941e+07		4.623071e+08
6.501872e+08		4.623071e+08		1.272879e+10
-4.742948e+07		-2.434041e+07		3.023631e+09
-2.434041e+07		-1.189703e+07		-1.179506e+08
3.023631e+09		-1.179506e+08		9.404602e+09
-1.083390e+07		-9.367072e+07		2.133979e+09
-9.367072e+07		1.043049e+08		-5.287645e+08
2.133979e+09		-5.287645e+08		9.746434e+09
-1.134408e+07		-7.773889e-05		1.996597e+09
-7.773889e-05		2.015176e+08		3.154930e-04
1.996597e+09		3.154930e-04		9.890016e+09
-1.083390e+07		9.367072e+07		2.133979e+09
9.367072e+07		1.043049e+08		5.287645e+08
2.133979e+09		5.287645e+08		9.746434e+09
-4.742948e+07		2.434041e+07		3.023631e+09
2.434041e+07		-1.189703e+07		1.179506e+08
3.023631e+09		1.179506e+08		9.404602e+09
-6.162111e+07		-3.805490e+07		5.192188e+09
-3.805490e+07		5.247540e+06		-6.437548e+07
5.192188e+09		-6.437548e+07		6.226738e+09
-2.504917e+07		-1.079118e+08		4.336604e+09
-1.079118e+08		2.447572e+07		-1.809006e+08
4.336604e+09		-1.809006e+08		6.353718e+09
-1.371459e+07		-1.731034e+08		3.867171e+09
-1.731034e+08		4.589493e+07		-2.729179e+08
3.867171e+09		-2.729179e+08		6.460410e+09
-6.673600e+06		-8.927634e+07		3.679419e+09
-8.927634e+07		9.467686e+07		-1.443189e+08
3.679419e+09		-1.443189e+08		6.556492e+09
-2.252295e+07		-5.822862e-05		3.613112e+09
-5.822862e-05		9.315347e+07		2.349969e-04
3.613112e+09		2.349969e-04		6.565783e+09
-6.673600e+06		8.927634e+07		3.679419e+09
8.927634e+07		9.467686e+07		1.443189e+08
3.679419e+09		1.443189e+08		6.556492e+09
-1.371459e+07		1.731034e+08		3.867171e+09
1.731034e+08		4.589493e+07		2.729179e+08
3.867171e+09		2.729179e+08		6.460410e+09
-2.504917e+07		1.079118e+08		4.336604e+09
1.079118e+08		2.447572e+07		1.809006e+08
4.336604e+09		1.809006e+08		6.353718e+09
-6.162111e+07		3.805490e+07		5.192188e+09
3.805490e+07		5.247540e+06		6.437548e+07
5.192188e+09		6.437548e+07		6.226738e+09
-5.684393e+07		-4.534732e+07		5.885712e+09
-4.534732e+07		-7.318386e+06		-2.141160e+07
5.885712e+09		-2.141160e+07		3.104669e+09
-1.736685e+07		-2.175621e+08		4.602330e+09
-2.175621e+08		1.830985e+07		-1.282987e+08
4.602330e+09		-1.282987e+08		3.235273e+09
-1.472705e+07		-6.363168e-05		4.335179e+09
-6.363168e-05		4.457150e+07		1.487117e-04
4.335179e+09		1.487117e-04		3.301588e+09
-1.736685e+07		2.175621e+08		4.602330e+09
2.175621e+08		1.830985e+07		1.282987e+08
4.602330e+09		1.282987e+08		3.235273e+09
-5.684393e+07		4.534732e+07		5.885712e+09
4.534732e+07		-7.318386e+06		2.141160e+07
5.885712e+09		2.141160e+07		3.104669e+09
4.444458e-05		-4.788226e+07		6.485195e+09
-4.788226e+07		7.841457e-05		1.292187e-05
6.485195e+09		1.292187e-05		9.522960e-05
-1.231488e-05		-1.600535e+08		5.618381e+09
-1.600535e+08		5.345512e-05		3.216160e-05
5.618381e+09		3.216160e-05		1.706984e-04
-1.179101e-04		-2.514122e+08		5.131806e+09
-2.514122e+08		-7.217750e-06		5.233252e-05
5.131806e+09		5.233252e-05		1.944927e-04
-3.799237e-05		-1.336057e+08		4.899288e+09
-1.336057e+08		3.680121e-05		7.169104e-05
4.899288e+09		7.169104e-05		2.405997e-04
1.854450e-05		-7.403223e-05		4.824017e+09
-7.403223e-05		6.527500e-05		7.042638e-05
4.824017e+09		7.042638e-05		2.766168e-04
2.087653e-05		1.336057e+08		4.899288e+09
1.336057e+08		2.152193e-05		7.437490e-05
4.899288e+09		7.437490e-05		2.134796e-04
-3.999565e-05		2.514122e+08		5.131806e+09
2.514122e+08		-2.049515e-05		7.973215e-05
5.131806e+09		7.973215e-05		1.316015e-04
4.707370e-05		1.600535e+08		5.618381e+09
1.600535e+08		4.116679e-05		4.435387e-05
5.618381e+09		4.435387e-05		1.763552e-04
6.205216e-05		4.788226e+07		6.485195e+09
4.788226e+07		5.565304e-05		4.921527e-05
6.485195e+09		4.921527e-05		2.141204e-04
5.684393e+07		-4.534732e+07		5.885712e+09
-4.534732e+07		7.318386e+06		2.141160e+07
5.885712e+09		2.141160e+07		-3.104669e+09
1.736685e+07		-2.175621e+08		4.602330e+09
-2.175621e+08		-1.830985e+07		1.282987e+08
4.602330e+09		1.282987e+08		-3.235273e+09
1.472705e+07		5.416572e-06		4.335179e+09
5.416572e-06		-4.457150e+07		4.211860e-05
4.335179e+09		4.211860e-05		-3.301588e+09
1.736685e+07		2.175621e+08		4.602330e+09
2.175621e+08		-1.830985e+07		-1.282987e+08
4.602330e+09		-1.282987e+08		-3.235273e+09
5.684393e+07		4.534732e+07		5.885712e+09
4.534732e+07		7.318386e+06		-2.141160e+07
5.885712e+09		-2.141160e+07		-3.104669e+09
6.162111e+07		-3.805490e+07		5.192188e+09
-3.805490e+07		-5.247540e+06		6.437548e+07
5.192188e+09		6.437548e+07		-6.226738e+09
2.504917e+07		-1.079118e+08		4.336604e+09
-1.079118e+08		-2.447572e+07		1.809006e+08
4.336604e+09		1.809006e+08		-6.353718e+09
1.371459e+07		-1.731034e+08		3.867171e+09
-1.731034e+08		-4.589493e+07		2.729179e+08
3.867171e+09		2.729179e+08		-6.460410e+09
6.673600e+06		-8.927634e+07		3.679419e+09
-8.927634e+07		-9.467686e+07		1.443189e+08
3.679419e+09		1.443189e+08		-6.556492e+09
2.252295e+07		5.213870e-05		3.613112e+09
5.213870e-05		-9.315347e+07		-2.526958e-05
3.613112e+09		-2.526958e-05		-6.565783e+09
6.673600e+06		8.927634e+07		3.679419e+09
8.927634e+07		-9.467686e+07		-1.443189e+08
3.679419e+09		-1.443189e+08		-6.556492e+09
1.371459e+07		1.731034e+08		3.867171e+09
1.731034e+08		-4.589493e+07		-2.729179e+08
3.867171e+09		-2.729179e+08		-6.460410e+09
2.504917e+07		1.079118e+08		4.336604e+09
1.079118e+08		-2.447572e+07		-1.809006e+08
4.336604e+09		-1.809006e+08		-6.353718e+09
6.162111e+07		3.805490e+07		5.192188e+09
3.805490e+07		-5.247540e+06		-6.437548e+07
5.192188e+09		-6.437548e+07		-6.226738e+09
4.742948e+07		-2.434041e+07		3.023631e+09
-2.434041e+07		1.189703e+07		1.179506e+08
3.023631e+09		1.179506e+08		-9.404602e+09
1.083390e+07		-9.367072e+07		2.133979e+09
-9.367072e+07		-1.043049e+08		5.287645e+08
2.133979e+09		5.287645e+08		-9.746434e+09
1.134408e+07		1.135794e-05		1.996597e+09
1.135794e-05		-2.015176e+08		-4.743598e-05
1.996597e+09		-4.743598e-05		-9.890016e+09
1.083390e+07		9.367072e+07		2.133979e+09
9.367072e+07		-1.043049e+08		-5.287645e+08
2.133979e+09		-5.287645e+08		-9.746434e+09
4.742948e+07		2.434041e+07		3.023631e+09
2.434041e+07		1.189703e+07		-1.179506e+08
3.023631e+09		-1.179506e+08		-9.404602e+09
-2.265687e+07		1.405785e+07		6.501872e+08
1.405785e+07		-1.395941e+07		4.623071e+08
6.501872e+08		4.623071e+08		-1.272879e+10
-3.777566e+07		1.251129e+07		2.657729e+08
1.251129e+07		-9.276125e+07		7.613302e+08
2.657729e+08		7.613302e+08		-1.293244e+10
-7.809988e+06		-1.480137e+06		2.683638e+08
-1.480137e+06		-1.736397e+08		9.572017e+08
2.683638e+08		9.572017e+08		-1.305026e+10
-2.315109e+07		3.631381e+06		2.083739e+08
3.631381e+06		-2.935084e+08		4.428737e+08
2.083739e+08		4.428737e+08		-1.317763e+10
-6.171128e+06		5.365489e-05		2.491373e+08
5.365489e-05		-3.253551e+08		-1.189746e-04
2.491373e+08		-1.189746e-04		-1.319098e+10
-2.315109e+07		-3.631381e+06		2.083739e+08
-3.631381e+06		-2.935084e+08		-4.428737e+08
2.083739e+08		-4.428737e+08		-1.317763e+10
-7.809988e+06		1.480137e+06		2.683638e+08
1.480137e+06		-1.736397e+08		-9.572017e+08
2.683638e+08		-9.572017e+08		-1.305026e+10
-3.777566e+07		-1.251129e+07		2.657729e+08
-1.251129e+07		-9.276125e+07		-7.613302e+08
2.657729e+08		-7.613302e+08		-1.293244e+10
-2.265687e+07		-1.405785e+07		6.501872e+08
-1.405785e+07		-1.395941e+07		-4.623071e+08
6.501872e+08		-4.623071e+08		-1.272879e+10
-4.699445e+06		6.099987e+06		5.002998e+08
6.099987e+06		-1.571229e+07		-4.395176e+08
5.002998e+08		-4.395176e+08		1.063145e+10
2.982974e+06		-3.106127e+06		1.016132e+08
-3.106127e+06		1.016139e+08		-9.535026e+08
1.016132e+08		-9.535026e+08		1.086140e+10
9.814925e+06		-1.836219e-05		8.238596e+07
-1.836219e-05		2.083076e+08		4.024506e-04
8.238596e+07		4.024506e-04		1.096248e+10
2.982974e+06		3.106127e+06		1.016132e+08
3.106127e+06		1.016139e+08		9.535026e+08
1.016132e+08		9.535026e+08		1.086140e+10
-4.699445e+06		-6.099987e+06		5.002998e+08
-6.099987e+06		-1.571229e+07		4.395176e+08
5.002998e+08		4.395176e+08		1.063145e+10
-3.610082e+07		-2.039799e+07		5.135998e+09
-2.039799e+07		-1.114052e+06		-4.225264e+07
5.135998e+09		-4.225264e+07		5.233955e+09
8.380727e+06		-1.167580e+08		3.692380e+09
-1.167580e+08		3.326914e+07		-2.410050e+08
3.692380e+09		-2.410050e+08		5.403314e+09
1.251495e+07		-5.901838e-05		3.385918e+09
-5.901838e-05		7.063447e+07		1.796335e-04
3.385918e+09		1.796335e-04		5.483201e+09
8.380727e+06		1.167580e+08		3.692380e+09
1.167580e+08		3.326914e+07		2.410050e+08
3.692380e+09		2.410050e+08		5.403314e+09
-3.610082e+07		2.039799e+07		5.135998e+09
2.039799e+07		-1.114052e+06		4.225264e+07
5.135998e+09		4.225264e+07		5.233955e+09
-1.859674e-04		-2.640703e+07		6.434858e+09
-2.640703e+07		-7.966626e-05		5.633826e-05
6.434858e+09		5.633826e-05		2.253801e-05
-8.888752e-05		-1.685118e+08		4.952514e+09
-1.685118e+08		4.019192e-05		3.078872e-05
4.952514e+09		3.078872e-05		1.537576e-04
-8.194253e-05		-6.061746e-06		4.569150e+09
-6.061746e-06		-2.991874e-06		5.029078e-05
4.569150e+09		5.029078e-05		1.004878e-04
-7.950398e-05		1.685118e+08		4.952514e+09
1.685118e+08		6.054062e-06		5.043559e-05
4.952514e+09		5.043559e-05		1.842491e-04
-7.153582e-05		2.640703e+07		6.434858e+09
2.640703e+07		-3.154576e-05		5.494675e-05
6.434858e+09		5.494675e-05		1.168251e-04
3.610082e+07		-2.039799e+07		5.135998e+09
-2.039799e+07		1.114052e+06		4.225264e+07
5.135998e+09		4.225264e+07		-5.233955e+09
-8.380727e+06		-1.167580e+08		3.692380e+09
-1.167580e+08		-3.326914e+07		2.410050e+08
3.692380e+09		2.410050e+08		-5.403314e+09
-1.251495e+07		4.481268e-05		3.385918e+09
4.481268e-05		-7.063447e+07		-4.201755e-05
3.385918e+09		-4.201755e-05		-5.483201e+09
-8.380727e+06		1.167580e+08		3.692380e+09
1.167580e+08		-3.326914e+07		-2.410050e+08
3.692380e+09		-2.410050e+08		-5.403314e+09
3.610082e+07		2.039799e+07		5.135998e+09
2.039799e+07		1.114052e+06		-4.225264e+07
5.135998e+09		-4.225264e+07		-5.233955e+09
4.699445e+06		6.099987e+06		5.002998e+08
6.099987e+06		1.571229e+07		4.395176e+08
5.002998e+08		4.395176e+08		-1.063145e+10
-2.982974e+06		-3.106127e+06		1.016132e+08
-3.106127e+06		-1.016139e+08		9.535026e+08
1.016132e+08		9.535026e+08		-1.086140e+10
-9.814925e+06		-5.181570e-05		8.238596e+07
-5.181570e-05		-2.083076e+08		-1.430064e-04
8.238596e+07		-1.430064e-04		-1.096248e+10
-2.982974e+06		3.106127e+06		1.016132e+08
3.106127e+06		-1.016139e+08		-9.535026e+08
1.016132e+08		-9.535026e+08		-1.086140e+10
4.699445e+06		-6.099987e+06		5.002998e+08
-6.099987e+06		1.571229e+07		-4.395176e+08
5.002998e+08		-4.395176e+08		-1.063145e+10
-2.807688e+06		2.254927e+06		6.837434e+08
2.254927e+06		-7.950323e+06		-4.649818e+08
6.837434e+08		-4.649818e+08		8.565626e+09
8.331557e+06		4.335719e+06		2.691587e+08
4.335719e+06		2.762083e+07		-7.927343e+08
2.691587e+08		-7.927343e+08		8.637240e+09
-2.856361e+06		-1.530589e+06		2.708663e+08
-1.530589e+06		5.834440e+07		-9.915974e+08
2.708663e+08		-9.915974e+08		8.676152e+09
-7.071274e+05		5.966398e+05		2.012979e+08
5.966398e+05		9.993403e+07		-4.636149e+08
2.012979e+08		-4.636149e+08		8.712275e+09
-4.362259e+06		7.349346e-05		2.506344e+08
7.349346e-05		1.199218e+08		4.461072e-04
2.506344e+08		4.461072e-04		8.723913e+09
-7.071274e+05		-5.966398e+05		2.012979e+08
-5.966398e+05		9.993403e+07		4.636149e+08
2.012979e+08		4.636149e+08		8.712275e+09
-2.856361e+06		1.530589e+06		2.708663e+08
1.530589e+06		5.834440e+07		9.915974e+08
2.708663e+08		9.915974e+08		8.676152e+09
8.331557e+06		-4.335719e+06		2.691587e+08
-4.335719e+06		2.762083e+07		7.927343e+08
2.691587e+08		7.927343e+08		8.637240e+09
-2.807688e+06		-2.254927e+06		6.837434e+08
-2.254927e+06		-7.950323e+06		4.649818e+08
6.837434e+08		4.649818e+08		8.565626e+09
-1.533734e+07		-9.428091e+06		3.156047e+09
-9.428091e+06		-9.473332e+06		-9.817141e+07
3.156047e+09		-9.817141e+07		6.374786e+09
2.030898e+06		-3.910475e+07		2.127159e+09
-3.910475e+07		3.667845e+07		-5.149230e+08
2.127159e+09		-5.149230e+08		6.494106e+09
3.174883e+06		1.392770e-05		1.934434e+09
1.392770e-05		7.546438e+07		2.727634e-04
1.934434e+09		2.727634e-04		6.545117e+09
2.030898e+06		3.910475e+07		2.127159e+09
3.910475e+07		3.667845e+07		5.149230e+08
2.127159e+09		5.149230e+08		6.494106e+09
-1.533734e+07		9.428091e+06		3.156047e+09
9.428091e+06		-9.473332e+06		9.817141e+07
3.156047e+09		9.817141e+07		6.374786e+09
-1.329030e+07		-1.424290e+07		5.407813e+09
-1.424290e+07		4.463937e+05		-5.050655e+07
5.407813e+09		-5.050655e+07		4.233676e+09
4.277746e+06		-4.392829e+07		4.438263e+09
-4.392829e+07		1.150498e+07		-1.548955e+08
4.438263e+09		-1.548955e+08		4.281111e+09
8.608188e+06		-7.175440e+07		3.857632e+09
-7.175440e+07		1.874704e+07		-2.365384e+08
3.857632e+09		-2.365384e+08		4.319358e+09
1.009136e+07		-3.726707e+07		3.597113e+09
-3.726707e+07		3.336266e+07		-1.294340e+08
3.597113e+09		-1.294340e+08		4.347969e+09
7.005691e+06		-1.870561e-06		3.499541e+09
-1.870561e-06		3.651969e+07		1.226040e-04
3.499541e+09		1.226040e-04		4.354299e+09
1.009136e+07		3.726707e+07		3.597113e+09
3.726707e+07		3.336266e+07		1.294340e+08
3.597113e+09		1.294340e+08		4.347969e+09
8.608188e+06		7.175440e+07		3.857632e+09
7.175440e+07		1.874704e+07		2.365384e+08
3.857632e+09		2.365384e+08		4.319358e+09
4.277746e+06		4.392829e+07		4.438263e+09
4.392829e+07		1.150498e+07		1.548955e+08
4.438263e+09		1.548955e+08		4.281111e+09
-1.329030e+07		1.424290e+07		5.407813e+09
1.424290e+07		4.463937e+05		5.050655e+07
5.407813e+09		5.050655e+07		4.233676e+09
-1.416987e+07		-1.824370e+07		6.092072e+09
-1.824370e+07		-5.250759e+06		-7.832969e+06
6.092072e+09		-7.832969e+06		2.104597e+09
3.170766e+06		-8.910002e+07		4.574203e+09
-8.910002e+07		5.773230e+06		-1.041519e+08
4.574203e+09		-1.041519e+08		2.152953e+09
4.269311e+06		-1.377659e-05		4.177493e+09
-1.377659e-05		1.440759e+07		1.102847e-04
4.177493e+09		1.102847e-04		2.173572e+09
3.170766e+06		8.910002e+07		4.574203e+09
8.910002e+07		5.773230e+06		1.041519e+08
4.574203e+09		1.041519e+08		2.152953e+09
-1.416987e+07		1.824370e+07		6.092072e+09
1.824370e+07		-5.250759e+06		7.832969e+06
6.092072e+09		7.832969e+06		2.104597e+09
-3.958496e-04		-1.859820e+07		6.711205e+09
-1.859820e+07		-2.243935e-04		-1.608755e-05
6.711205e+09		-1.608755e-05		-7.594749e-05
-1.465939e-04		-6.456088e+07		5.732251e+09
-6.456088e+07		-2.989173e-05		3.463239e-06
5.732251e+09		3.463239e-06		7.172674e-05
-1.815937e-04		-1.025557e+08		5.115464e+09
-1.025557e+08		2.346933e-05		-2.499744e-06
5.115464e+09		-2.499744e-06		2.017710e-05
-8.227630e-05		-5.408013e+07		4.782030e+09
-5.408013e+07		2.954411e-05		8.223768e-06
4.782030e+09		8.223768e-06		5.401764e-05
-2.119376e-04		1.443904e-04		4.664137e+09
1.443904e-04		-6.470934e-05		6.835734e-05
4.664137e+09		6.835734e-05		-4.204828e-05
-1.046383e-04		5.408013e+07		4.782030e+09
5.408013e+07		1.315097e-05		1.116234e-04
4.782030e+09		1.116234e-04		1.135692e-04
2.220517e-05		1.025557e+08		5.115464e+09
1.025557e+08		9.162293e-05		5.349340e-05
5.115464e+09		5.349340e-05		2.739001e-04
-6.800238e-05		6.456088e+07		5.732251e+09
6.456088e+07		-1.192745e-05		4.223240e-06
5.732251e+09		4.223240e-06		1.386404e-04
-7.512531e-05		1.859820e+07		6.711205e+09
1.859820e+07		-9.187780e-05		1.133258e-05
6.711205e+09		1.133258e-05		3.242027e-05
1.416987e+07		-1.824370e+07		6.092072e+09
-1.824370e+07		5.250759e+06		7.832969e+06
6.092072e+09		7.832969e+06		-2.104597e+09
-3.170766e+06		-8.910002e+07		4.574203e+09
-8.910002e+07		-5.773230e+06		1.041519e+08
4.574203e+09		1.041519e+08		-2.152953e+09
-4.269311e+06		2.705725e-05		4.177493e+09
2.705725e-05		-1.440759e+07		1.174863e-05
4.177493e+09		1.174863e-05		-2.173572e+09
-3.170766e+06		8.910002e+07		4.574203e+09
8.910002e+07		-5.773230e+06		-1.041519e+08
4.574203e+09		-1.041519e+08		-2.152953e+09
1.416987e+07		1.824370e+07		6.092072e+09
1.824370e+07		5.250759e+06		-7.832969e+06
6.092072e+09		-7.832969e+06		-2.104597e+09
1.329030e+07		-1.424290e+07		5.407813e+09
-1.424290e+07		-4.463937e+05		5.050655e+07
5.407813e+09		5.050655e+07		-4.233676e+09
-4.277746e+06		-4.392829e+07		4.438263e+09
-4.392829e+07		-1.150498e+07		1.548955e+08
4.438263e+09		1.548955e+08		-4.281111e+09
-8.608188e+06		-7.175440e+07		3.857632e+09
-7.175440e+07		-1.874704e+07		2.365384e+08
3.857632e+09		2.365384e+08		-4.319358e+09
-1.009136e+07		-3.726707e+07		3.597113e+09
-3.726707e+07		-3.336266e+07		1.294340e+08
3.597113e+09		1.294340e+08		-4.347969e+09
-7.005691e+06		1.677801e-05		3.499541e+09
1.677801e-05		-3.651969e+07		-4.464295e-05
3.499541e+09		-4.464295e-05		-4.354299e+09
-1.009136e+07		3.726707e+07		3.597113e+09
3.726707e+07		-3.336266e+07		-1.294340e+08
3.597113e+09		-1.294340e+08		-4.347969e+09
-8.608188e+06		7.175440e+07		3.857632e+09
7.175440e+07		-1.874704e+07		-2.365384e+08
3.857632e+09		-2.365384e+08		-4.319358e+09
-4.277746e+06		4.392829e+07		4.438263e+09
4.392829e+07		-1.150498e+07		-1.548955e+08
4.438263e+09		-1.548955e+08		-4.281111e+09
1.329030e+07		1.424290e+07		5.407813e+09
1.424290e+07		-4.463937e+05		-5.050655e+07
5.407813e+09		-5.050655e+07		-4.233676e+09
1.533734e+07		-9.428091e+06		3.156047e+09
-9.428091e+06		9.473332e+06		9.817141e+07
3.156047e+09		9.817141e+07		-6.374786e+09
-2.030898e+06		-3.910475e+07		2.127159e+09
-3.910475e+07		-3.667845e+07		5.149230e+08
2.127159e+09		5.149230e+08		-6.494106e+09
-3.174883e+06		5.624956e-05		1.934434e+09
5.624956e-05		-7.546438e+07		-9.071594e-05
1.934434e+09		-9.071594e-05		-6.545117e+09
-2.030898e+06		3.910475e+07		2.127159e+09
3.910475e+07		-3.667845e+07		-5.149230e+08
2.127159e+09		-5.149230e+08		-6.494106e+09
1.533734e+07		9.428091e+06		3.156047e+09
9.428091e+06		9.473332e+06		-9.817141e+07
3.156047e+09		-9.817141e+07		-6.374786e+09
2.807688e+06		2.254927e+06		6.837434e+08
2.254927e+06		7.950323e+06		4.649818e+08
6.837434e+08		4.649818e+08		-8.565626e+09
-8.331557e+06		4.335719e+06		2.691587e+08
4.335719e+06		-2.762083e+07		7.927343e+08
2.691587e+08		7.927343e+08		-8.637240e+09
2.856361e+06		-1.530589e+06		2.708663e+08
-1.530589e+06		-5.834440e+07		9.915974e+08
2.708663e+08		9.915974e+08		-8.676152e+09
7.071274e+05		5.966398e+05		2.012979e+08
5.966398e+05		-9.993403e+07		4.636149e+08
2.012979e+08		4.636149e+08		-8.712275e+09
4.362259e+06		-8.844584e-05		2.506344e+08
-8.844584e-05		-1.199218e+08		-1.563877e-04
2.506344e+08		-1.563877e-04		-8.723913e+09
7.071274e+05		-5.966398e+05		2.012979e+08
-5.966398e+05		-9.993403e+07		-4.636149e+08
2.012979e+08		-4.636149e+08		-8.712275e+09
2.856361e+06		1.530589e+06		2.708663e+08
1.530589e+06		-5.834440e+07		-9.915974e+08
2.708663e+08		-9.915974e+08		-8.676152e+09
-8.331557e+06		-4.335719e+06		2.691587e+08
-4.335719e+06		-2.762083e+07		-7.927343e+08
2.691587e+08		-7.927343e+08		-8.637240e+09
2.807688e+06		-2.254927e+06		6.837434e+08
-2.254927e+06		7.950323e+06		-4.649818e+08
6.837434e+08		-4.649818e+08		-8.565626e+09
-5.942070e+06		2.272094e+06		5.118928e+08
2.272094e+06		-9.505995e+06		-4.578715e+08
5.118928e+08		-4.578715e+08		6.427334e+09
-2.779981e+06		-1.030805e+06		9.475390e+07
-1.030805e+06		3.233193e+07		-9.916275e+08
9.475390e+07		-9.916275e+08		6.498632e+09
-1.736485e+06		1.778128e-05		7.466839e+07
1.778128e-05		7.235177e+07		4.623234e-04
7.466839e+07		4.623234e-04		6.529151e+09
-2.779981e+06		1.030805e+06		9.475390e+07
1.030805e+06		3.233193e+07		9.916275e+08
9.475390e+07		9.916275e+08		6.498632e+09
-5.942070e+06		-2.272094e+06		5.118928e+08
-2.272094e+06		-9.505995e+06		4.578715e+08
5.118928e+08		4.578715e+08		6.427334e+09
-1.058666e+07		-6.396750e+06		5.267778e+09
-6.396750e+06		-2.471304e+06		-4.352936e+07
5.267778e+09		-4.352936e+07		3.183246e+09
7.594083e+06		-4.505702e+07		3.676959e+09
-4.505702e+07		1.088382e+07		-2.246382e+08
3.676959e+09		-2.246382e+08		3.240548e+09
9.623397e+06		1.969864e-06		3.298032e+09
1.969864e-06		2.428178e+07		1.511797e-04
3.298032e+09		1.511797e-04		3.266027e+09
7.594083e+06		4.505702e+07		3.676959e+09
4.505702e+07		1.088382e+07		2.246382e+08
3.676959e+09		2.246382e+08		3.240548e+09
-1.058666e+07		6.396750e+06		5.267778e+09
6.396750e+06		-2.471304e+06		4.352936e+07
5.267778e+09		4.352936e+07		3.183246e+09
-2.390749e-04		-9.151669e+06		6.585293e+09
-9.151669e+06		-1.646911e-04		1.347461e-05
6.585293e+09		1.347461e-05		-1.385007e-04
-2.560788e-04		-6.463734e+07		4.942038e+09
-6.463734e+07		3.419828e-05		-3.680279e-05
4.942038e+09		-3.680279e-05		-4.893821e-05
-2.158880e-04		-2.825691e-05		4.464218e+09
-2.825691e-05		-1.805858e-05		5.364834e-05
4.464218e+09		5.364834e-05		1.764391e-05
-1.081459e-04		6.463734e+07		4.942038e+09
6.463734e+07		3.766490e-05		7.233148e-05
4.942038e+09		7.233148e-05		8.590519e-05
-1.311391e-04		9.151669e+06		6.585293e+09
9.151669e+06		-7.481989e-05		3.801819e-06
6.585293e+09		3.801819e-06		1.300126e-04
1.058666e+07		-6.396750e+06		5.267778e+09
-6.396750e+06		2.471304e+06		4.352936e+07
5.267778e+09		4.352936e+07		-3.183246e+09
-7.594083e+06		-4.505702e+07		3.676959e+09
-4.505702e+07		-1.088382e+07		2.246382e+08
3.676959e+09		2.246382e+08		-3.240548e+09
-9.623397e+06		1.101545e-04		3.298032e+09
1.101545e-04		-2.428178e+07		-3.367290e-05
3.298032e+09		-3.367290e-05		-3.266027e+09
-7.594083e+06		4.505702e+07		3.676959e+09
4.505702e+07		-1.088382e+07		-2.246382e+08
3.676959e+09		-2.246382e+08		-3.240548e+09
1.058666e+07		6.396750e+06		5.267778e+09
6.396750e+06		2.471304e+06		-4.352936e+07
5.267778e+09		-4.352936e+07		-3.183246e+09
5.942070e+06		2.272094e+06		5.118928e+08
2.272094e+06		9.505995e+06		4.578715e+08
5.118928e+08		4.578715e+08		-6.427334e+09
2.779981e+06		-1.030805e+06		9.475390e+07
-1.030805e+06		-3.233193e+07		9.916275e+08
9.475390e+07		9.916275e+08		-6.498632e+09
1.736485e+06		1.550242e-04		7.466839e+07
1.550242e-04		-7.235177e+07		-9.488314e-05
7.466839e+07		-9.488314e-05		-6.529151e+09
2.779981e+06		1.030805e+06		9.475390e+07
1.030805e+06		-3.233193e+07		-9.916275e+08
9.475390e+07		-9.916275e+08		-6.498632e+09
5.942070e+06		-2.272094e+06		5.118928e+08
-2.272094e+06		9.505995e+06		-4.578715e+08
5.118928e+08		-4.578715e+08		-6.427334e+09
9.719567e+05		1.238761e+06		6.878989e+08
1.238761e+06		-5.326810e+05		-4.656826e+08
6.878989e+08		-4.656826e+08		4.299144e+09
3.481093e+06		1.494980e+06		2.675279e+08
1.494980e+06		8.491619e+06		-7.996895e+08
2.675279e+08		-7.996895e+08		4.317858e+09
-3.768485e+05		-4.223123e+05		2.666801e+08
-4.223123e+05		1.733417e+07		-1.003151e+09
2.666801e+08		-1.003151e+09		4.328019e+09
7.101279e+05		8.415794e+04		1.923505e+08
8.415794e+04		3.197978e+07		-4.715776e+08
1.923505e+08		-4.715776e+08		4.339426e+09
-1.061631e+06		1.211674e-04		2.455327e+08
1.211674e-04		3.807402e+07		4.621595e-04
2.455327e+08		4.621595e-04		4.340440e+09
7.101279e+05		-8.415794e+04		1.923505e+08
-8.415794e+04		3.197978e+07		4.715776e+08
1.923505e+08		4.715776e+08		4.339426e+09
-3.768485e+05		4.223123e+05		2.666801e+08
4.223123e+05		1.733417e+07		1.003151e+09
2.666801e+08		1.003151e+09		4.328019e+09
3.481093e+06		-1.494980e+06		2.675279e+08
-1.494980e+06		8.491619e+06		7.996895e+08
2.675279e+08		7.996895e+08		4.317858e+09
9.719567e+05		-1.238761e+06		6.878989e+08
-1.238761e+06		-5.326810e+05		4.656826e+08
6.878989e+08		4.656826e+08		4.299144e+09
-4.135624e+06		-3.014104e+06		3.196230e+09
-3.014104e+06		-1.841482e+06		-9.027185e+07
3.196230e+09		-9.027185e+07		3.210361e+09
1.326015e+06		-1.292245e+07		2.119025e+09
-1.292245e+07		1.104840e+07		-5.064867e+08
2.119025e+09		-5.064867e+08		3.244205e+09
1.706813e+06		6.936409e-05		1.903731e+09
6.936409e-05		2.409487e+07		3.231857e-04
1.903731e+09		3.231857e-04		3.259261e+09
1.326015e+06		1.292245e+07		2.119025e+09
1.292245e+07		1.104840e+07		5.064867e+08
2.119025e+09		5.064867e+08		3.244205e+09
-4.135624e+06		3.014104e+06		3.196230e+09
3.014104e+06		-1.841482e+06		9.027185e+07
3.196230e+09		9.027185e+07		3.210361e+09
-2.564557e+06		-4.949024e+06		5.476551e+09
-4.949024e+06		1.591256e+06		-4.582433e+07
5.476551e+09		-4.582433e+07		2.137460e+09
3.791532e+06		-1.463355e+07		4.468174e+09
-1.463355e+07		4.737139e+06		-1.424316e+08
4.468174e+09		-1.424316e+08		2.151040e+09
5.546558e+06		-2.410893e+07		3.847357e+09
-2.410893e+07		6.804224e+06		-2.209690e+08
3.847357e+09		-2.209690e+08		2.162028e+09
6.424309e+06		-1.274149e+07		3.555783e+09
-1.274149e+07		1.183463e+07		-1.222131e+08
3.555783e+09		-1.222131e+08		2.171608e+09
5.088039e+06		9.189517e-05		3.447560e+09
9.189517e-05		1.231022e+07		2.013417e-04
3.447560e+09		2.013417e-04		2.172421e+09
6.424309e+06		1.274149e+07		3.555783e+09
1.274149e+07		1.183463e+07		1.222131e+08
3.555783e+09		1.222131e+08		2.171608e+09
5.546558e+06		2.410893e+07		3.847357e+09
2.410893e+07		6.804224e+06		2.209690e+08
3.847357e+09		2.209690e+08		2.162028e+09
3.791532e+06		1.463355e+07		4.468174e+09
1.463355e+07		4.737139e+06		1.424316e+08
4.468174e+09		1.424316e+08		2.151040e+09
-2.564557e+06		4.949024e+06		5.476551e+09
4.949024e+06		1.591256e+06		4.582433e+07
5.476551e+09		4.582433e+07		2.137460e+09
-3.887376e+06		-6.315954e+06		6.175263e+09
-6.315954e+06		-1.374188e+06		-3.509904e+06
6.175263e+09		-3.509904e+06		1.064693e+09
2.387780e+06		-3.017344e+07		4.573542e+09
-3.017344e+07		1.998160e+06		-9.423663e+07
4.573542e+09		-9.423663e+07		1.078843e+09
3.026481e+06		5.101867e-05		4.128730e+09
5.101867e-05		4.893115e+06		8.246908e-05
4.128730e+09		8.246908e-05		1.085244e+09
2.387780e+06		3.017344e+07		4.573542e+09
3.017344e+07		1.998160e+06		9.423663e+07
4.573542e+09		9.423663e+07		1.078843e+09
-3.887376e+06		6.315954e+06		6.175263e+09
6.315954e+06		-1.374188e+06		3.509904e+06
6.175263e+09		3.509904e+06		1.064693e+09
7.914472e-05		-7.067373e+06		6.805332e+09
-7.067373e+06		-4.196860e-05		7.252966e-05
6.805332e+09		7.252966e-05		-1.043519e-04
-1.308820e-04		-2.231742e+07		5.786004e+09
-2.231742e+07		1.439068e-05		-5.955924e-06
5.786004e+09		-5.955924e-06		-4.794495e-05
-1.948663e-04		-3.504139e+07		5.120955e+09
-3.504139e+07		1.175390e-04		-4.507343e-05
5.120955e+09		-4.507343e-05		3.369735e-05
-1.924187e-04		-1.857610e+07		4.748396e+09
-1.857610e+07		8.389535e-05		-1.767776e-05
4.748396e+09		-1.767776e-05		9.313063e-05
-8.426851e-05		2.248143e-05		4.617334e+09
2.248143e-05		1.075255e-04		1.835550e-05
4.617334e+09		1.835550e-05		2.146512e-04
-1.108005e-04		1.857610e+07		4.748396e+09
1.857610e+07		8.246682e-05		8.983555e-05
4.748396e+09		8.983555e-05		8.718506e-05
-9.585347e-07		3.504139e+07		5.120955e+09
3.504139e+07		1.203675e-04		9.668766e-05
5.120955e+09		9.668766e-05		1.785479e-05
-5.222403e-05		2.231742e+07		5.786004e+09
2.231742e+07		8.800408e-05		4.300123e-05
5.786004e+09		4.300123e-05		1.940841e-04
-1.112388e-04		7.067373e+06		6.805332e+09
7.067373e+06		4.817834e-05		-1.847592e-05
6.805332e+09		-1.847592e-05		3.462667e-04
3.887376e+06		-6.315954e+06		6.175263e+09
-6.315954e+06		1.374188e+06		3.509904e+06
6.175263e+09		3.509904e+06		-1.064693e+09
-2.387780e+06		-3.017344e+07		4.573542e+09
-3.017344e+07		-1.998160e+06		9.423663e+07
4.573542e+09		9.423663e+07		-1.078843e+09
-3.026481e+06		1.080770e-04		4.128730e+09
1.080770e-04		-4.893115e+06		-1.113606e-05
4.128730e+09		-1.113606e-05		-1.085244e+09
-2.387780e+06		3.017344e+07		4.573542e+09
3.017344e+07		-1.998160e+06		-9.423663e+07
4.573542e+09		-9.423663e+07		-1.078843e+09
3.887376e+06		6.315954e+06		6.175263e+09
6.315954e+06		1.374188e+06		-3.509904e+06
6.175263e+09		-3.509904e+06		-1.064693e+09
2.564557e+06		-4.949024e+06		5.476551e+09
-4.949024e+06		-1.591256e+06		4.582433e+07
5.476551e+09		4.582433e+07		-2.137460e+09
-3.791532e+06		-1.463355e+07		4.468174e+09
-1.463355e+07		-4.737139e+06		1.424316e+08
4.468174e+09		1.424316e+08		-2.151040e+09
-5.546558e+06		-2.410893e+07		3.847357e+09
-2.410893e+07		-6.804224e+06		2.209690e+08
3.847357e+09		2.209690e+08		-2.162028e+09
-6.424309e+06		-1.274149e+07		3.555783e+09
-1.274149e+07		-1.183463e+07		1.222131e+08
3.555783e+09		1.222131e+08		-2.171608e+09
-5.088039e+06		1.463881e-04		3.447560e+09
1.463881e-04		-1.231022e+07		-3.275461e-05
3.447560e+09		-3.275461e-05		-2.172421e+09
-6.424309e+06		1.274149e+07		3.555783e+09
1.274149e+07		-1.183463e+07		-1.222131e+08
3.555783e+09		-1.222131e+08		-2.171608e+09
-5.546558e+06		2.410893e+07		3.847357e+09
2.410893e+07		-6.804224e+06		-2.209690e+08
3.847357e+09		-2.209690e+08		-2.162028e+09
-3.791532e+06		1.463355e+07		4.468174e+09
1.463355e+07		-4.737139e+06		-1.424316e+08
4.468174e+09		-1.424316e+08		-2.151040e+09
2.564557e+06		4.949024e+06		5.476551e+09
4.949024e+06		-1.591256e+06		-4.582433e+07
5.476551e+09		-4.582433e+07		-2.137460e+09
4.135624e+06		-3.014104e+06		3.196230e+09
-3.014104e+06		1.841482e+06		9.027185e+07
3.196230e+09		9.027185e+07		-3.210361e+09
-1.326015e+06		-1.292245e+07		2.119025e+09
-1.292245e+07		-1.104840e+07		5.064867e+08
2.119025e+09		5.064867e+08		-3.244205e+09
-1.706813e+06		1.914903e-04		1.903731e+09
1.914903e-04		-2.409487e+07		-9.498000e-05
1.903731e+09		-9.498000e-05		-3.259261e+09
-1.326015e+06		1.292245e+07		2.119025e+09
1.292245e+07		-1.104840e+07		-5.064867e+08
2.119025e+09		-5.064867e+08		-3.244205e+09
4.135624e+06		3.014104e+06		3.196230e+09
3.014104e+06		1.841482e+06		-9.027185e+07
3.196230e+09		-9.027185e+07		-3.210361e+09
-9.719567e+05		1.238761e+06		6.878989e+08
1.238761e+06		5.326810e+05		4.656826e+08
6.878989e+08		4.656826e+08		-4.299144e+09
-3.481093e+06		1.494980e+06		2.675279e+08
1.494980e+06		-8.491619e+06		7.996895e+08
2.675279e+08		7.996895e+08		-4.317858e+09
3.768485e+05		-4.223123e+05		2.666801e+08
-4.223123e+05		-1.733417e+07		1.003151e+09
2.666801e+08		1.003151e+09		-4.328019e+09
-7.101279e+05		8.415794e+04		1.923505e+08
8.415794e+04		-3.197978e+07		4.715776e+08
1.923505e+08		4.715776e+08		-4.339426e+09
1.061631e+06		7.784390e-05		2.455327e+08
7.784390e-05		-3.807402e+07		-1.155399e-04
2.455327e+08		-1.155399e-04		-4.340440e+09
-7.101279e+05		-8.415794e+04		1.923505e+08
-8.415794e+04		-3.197978e+07		-4.715776e+08
1.923505e+08		-4.715776e+08		-4.339426e+09
3.768485e+05		4.223123e+05		2.666801e+08
4.223123e+05		-1.733417e+07		-1.003151e+09
2.666801e+08		-1.003151e+09		-4.328019e+09
-3.481093e+06		-1.494980e+06		2.675279e+08
-1.494980e+06		-8.491619e+06		-7.996895e+08
2.675279e+08		-7.996895e+08		-4.317858e+09
-9.719567e+05		-1.238761e+06		6.878989e+08
-1.238761e+06		5.326810e+05		-4.656826e+08
6.878989e+08		-4.656826e+08		-4.299144e+09
-1.266734e+06		7.826440e+05		5.158873e+08
7.826440e+05		-1.912895e+06		-4.621455e+08
5.158873e+08		-4.621455e+08		2.147672e+09
-2.994333e+05		-1.573975e+05		9.438658e+07
-1.573975e+05		7.651338e+06		-1.002405e+09
9.438658e+07		-1.002405e+09		2.163842e+09
2.718478e+05		-5.590256e-06		7.407673e+07
-5.590256e-06		1.817627e+07		3.469363e-04
7.407673e+07		3.469363e-04		2.170978e+09
-2.994333e+05		1.573975e+05		9.438658e+07
1.573975e+05		7.651338e+06		1.002405e+09
9.438658e+07		1.002405e+09		2.163842e+09
-1.266734e+06		-7.826440e+05		5.158873e+08
-7.826440e+05		-1.912895e+06		4.621455e+08
5.158873e+08		4.621455e+08		2.147672e+09
-2.619165e+06		-1.572183e+06		5.310177e+09
-1.572183e+06		-5.390905e+05		-4.280814e+07
5.310177e+09		-4.280814e+07		1.067296e+09
2.531184e+06		-1.122087e+07		3.671708e+09
-1.122087e+07		2.801417e+06		-2.172467e+08
3.671708e+09		-2.172467e+08		1.080722e+09
3.206891e+06		1.162201e-04		3.267221e+09
1.162201e-04		6.185733e+06		1.050588e-04
3.267221e+09		1.050588e-04		1.086920e+09
2.531184e+06		1.122087e+07		3.671708e+09
1.122087e+07		2.801417e+06		2.172467e+08
3.671708e+09		2.172467e+08		1.080722e+09
-2.619165e+06		1.572183e+06		5.310177e+09
1.572183e+06		-5.390905e+05		4.280814e+07
5.310177e+09		4.280814e+07		1.067296e+09
5.381543e-05		-2.496917e+06		6.641030e+09
-2.496917e+06		1.513428e-05		3.537256e-05
6.641030e+09		3.537256e-05		-1.159240e-04
-2.464444e-04		-1.634678e+07		4.945315e+09
-1.634678e+07		7.890681e-05		-5.543814e-05
4.945315e+09		-5.543814e-05		-3.182516e-05
-1.950298e-04		1.190907e-04		4.435443e+09
1.190907e-04		1.904589e-04		4.537396e-06
4.435443e+09		4.537396e-06		1.654616e-04
-1.914136e-04		1.634678e+07		4.945315e+09
1.634678e+07		2.963513e-05		3.111588e-05
4.945315e+09		3.111588e-05		6.603950e-05
1.967209e-05		2.496917e+06		6.641030e+09
2.496917e+06		1.333418e-04		4.695143e-05
6.641030e+09		4.695143e-05		3.884956e-04
2.619165e+06		-1.572183e+06		5.310177e+09
-1.572183e+06		5.390905e+05		4.280814e+07
5.310177e+09		4.280814e+07		-1.067296e+09
-2.531184e+06		-1.122087e+07		3.671708e+09
-1.122087e+07		-2.801417e+06		2.172467e+08
3.671708e+09		2.172467e+08		-1.080722e+09
-3.206891e+06		1.927949e-04		3.267221e+09
1.927949e-04		-6.185733e+06		-5.197339e-05
3.267221e+09		-5.197339e-05		-1.086920e+09
-2.531184e+06		1.122087e+07		3.671708e+09
1.122087e+07		-2.801417e+06		-2.172467e+08
3.671708e+09		-2.172467e+08		-1.080722e+09
2.619165e+06		1.572183e+06		5.310177e+09
1.572183e+06		5.390905e+05		-4.280814e+07
5.310177e+09		-4.280814e+07		-1.067296e+09
1.266734e+06		7.826440e+05		5.158873e+08
7.826440e+05		1.912895e+06		4.621455e+08
5.158873e+08		4.621455e+08		-2.147672e+09
2.994333e+05		-1.573975e+05		9.438658e+07
-1.573975e+05		-7.651338e+06		1.002405e+09
9.438658e+07		1.002405e+09		-2.163842e+09
-2.718478e+05		-1.049738e-04		7.407673e+07
-1.049738e-04		-1.817627e+07		-1.620427e-04
7.407673e+07		-1.620427e-04		-2.170978e+09
2.994333e+05		1.573975e+05		9.438658e+07
1.573975e+05		-7.651338e+06		-1.002405e+09
9.438658e+07		-1.002405e+09		-2.163842e+09
1.266734e+06		-7.826440e+05		5.158873e+08
-7.826440e+05		1.912895e+06		-4.621455e+08
5.158873e+08		-4.621455e+08		-2.147672e+09
3.842134e-04		3.214231e-04		6.893685e+08
3.214231e-04		1.946846e-04		-4.654792e+08
6.893685e+08		-4.654792e+08		-6.577373e-04
1.755524e-04		-3.242075e-05		2.677521e+08
-3.242075e-05		2.544466e-05		-8.016162e+08
2.677521e+08		-8.016162e+08		-6.884187e-04
2.273377e-04		6.453174e-05		2.663214e+08
6.453174e-05		3.856327e-05		-1.006499e+09
2.663214e+08		-1.006499e+09		-5.821232e-04
-3.167847e-04		1.029291e-04		1.907148e+08
1.029291e-04		-4.245695e-04		-4.737877e+08
1.907148e+08		-4.737877e+08		-1.018474e-03
-2.326262e-04		1.337232e-04		2.451085e+08
1.337232e-04		-5.222205e-04		3.163815e-04
2.451085e+08		3.163815e-04		-1.053708e-03
-2.565235e-04		-1.435362e-04		1.907148e+08
-1.435362e-04		-1.619672e-04		4.737877e+08
1.907148e+08		4.737877e+08		-1.011472e-03
2.765688e-04		-2.137093e-04		2.663214e+08
-2.137093e-04		3.344826e-04		1.006499e+09
2.663214e+08		1.006499e+09		-8.475818e-04
-1.232149e-04		-4.078218e-05		2.677521e+08
-4.078218e-05		8.285604e-05		8.016162e+08
2.677521e+08		8.016162e+08		-7.894412e-04
-3.231363e-04		-1.688525e-04		6.893685e+08
-1.688525e-04		-1.223646e-04		4.654792e+08
6.893685e+08		4.654792e+08		-6.046146e-04
-2.558669e-05		1.720675e-04		3.204872e+09
1.720675e-04		1.349673e-05		-8.821076e+07
3.204872e+09		-8.821076e+07		-6.184317e-04
-9.969482e-05		1.876169e-04		2.116155e+09
1.876169e-04		-4.836801e-05		-5.043506e+08
2.116155e+09		-5.043506e+08		-6.759493e-04
2.965310e-04		1.614009e-04		1.895027e+09
1.614009e-04		2.267398e-05		1.541376e-04
1.895027e+09		1.541376e-04		-5.145594e-04
3.745756e-05		-1.209277e-04		2.116155e+09
-1.209277e-04		1.313905e-04		5.043506e+08
2.116155e+09		5.043506e+08		-4.064580e-04
-3.069388e-04		7.062367e-05		3.204872e+09
7.062367e-05		2.221623e-05		8.821076e+07
3.204872e+09		8.821076e+07		-3.474280e-04
1.819427e-04		2.277424e-04		5.493093e+09
2.277424e-04		2.199456e-04		-4.439345e+07
5.493093e+09		-4.439345e+07		-3.046906e-04
-9.799504e-05		1.388376e-04		4.476078e+09
1.388376e-04		1.255961e-04		-1.391625e+08
4.476078e+09		-1.391625e+08		-4.678667e-04
-1.774347e-04		1.334310e-04		3.845065e+09
1.334310e-04		3.356423e-05		-2.170465e+08
3.845065e+09		-2.170465e+08		-5.252422e-04
-3.834288e-04		5.307568e-04		3.545974e+09
5.307568e-04		-1.186520e-04		-1.203115e+08
3.545974e+09		-1.203115e+08		-5.463306e-04
-2.655030e-04		1.003666e-04		3.434636e+09
1.003666e-04		7.482769e-05		8.895900e-05
3.434636e+09		8.895900e-05		-3.711162e-04
-3.069977e-04		-3.541015e-04		3.545974e+09
-3.541015e-04		2.693094e-05		1.203115e+08
3.545974e+09		1.203115e+08		-2.837749e-04
-3.009719e-04		1.997861e-05		3.845065e+09
1.997861e-05		-9.623659e-05		2.170465e+08
3.845065e+09		2.170465e+08		-6.153202e-05
-4.347177e-04		-4.763824e-06		4.476078e+09
-4.763824e-06		-3.214797e-05		1.391625e+08
4.476078e+09		1.391625e+08		-1.774728e-04
-1.845899e-04		-1.170165e-05		5.493093e+09
-1.170165e-05		2.711648e-04		4.439345e+07
5.493093e+09		4.439345e+07		-5.131308e-05
3.634802e-04		1.981031e-05		6.195305e+09
1.981031e-05		1.866687e-04		-2.551693e+06
6.195305e+09		-2.551693e+06		-8.286419e-05
7.944676e-05		1.857773e-04		4.573343e+09
1.857773e-04		1.609238e-04		-9.169743e+07
4.573343e+09		-9.169743e+07		-2.121557e-04
-1.030385e-03		2.182532e-04		4.116347e+09
2.182532e-04		-1.099410e-04		5.357969e-05
4.116347e+09		5.357969e-05		-4.434776e-04
-1.729158e-04		-3.195611e-05		4.573343e+09
-3.195611e-05		-1.456140e-05		9.169743e+07
4.573343e+09		9.169743e+07		1.225644e-04
-2.743133e-04		-1.136618e-04		6.195305e+09
-1.136618e-04		7.683644e-05		2.551693e+06
6.195305e+09		2.551693e+06		8.389913e-05
-7.050058e-05		-8.140164e-05		6.828817e+09
-8.140164e-05		6.398130e-05		8.987531e-05
6.828817e+09		8.987531e-05		-3.026333e-05
-4.085141e-05		3.055878e-04		5.800243e+09
3.055878e-04		1.328525e-04		7.025141e-06
5.800243e+09		7.025141e-06		-8.202391e-05
-4.092059e-04		3.368162e-04		5.123141e+09
3.368162e-04		-4.140007e-05		-6.812699e-05
5.123141e+09		-6.812699e-05		-2.765275e-04
-2.506993e-04		-1.389173e-05		4.741103e+09
-1.389173e-05		1.028005e-04		-3.325757e-06
4.741103e+09		-3.325757e-06		-1.439652e-04
-6.272445e-04		2.632582e-04		4.606529e+09
2.632582e-04		7.889421e-05		-2.296811e-05
4.606529e+09		-2.296811e-05		-2.056748e-04
-2.412116e-04		8.990774e-05		4.741103e+09
8.990774e-05		6.918907e-05		-6.310293e-05
4.741103e+09		-6.310293e-05		8.758157e-05
-1.703557e-04		-8.847480e-05		5.123141e+09
-8.847480e-05		2.378873e-05		-3.165018e-05
5.123141e+09		-3.165018e-05		2.267475e-04
-1.693480e-05		-9.616029e-05		5.800243e+09
-9.616029e-05		1.407906e-04		1.198625e-05
5.800243e+09		1.198625e-05		2.890085e-04
-2.305118e-04		-2.962690e-04		6.828817e+09
-2.962690e-04		8.233277e-06		7.071432e-05
6.828817e+09		7.071432e-05		1.902645e-04
7.314724e-05		1.423543e-05		6.195305e+09
1.423543e-05		1.048716e-04		2.551693e+06
6.195305e+09		2.551693e+06		2.007801e-04
-7.358057e-04		3.187655e-04		4.573343e+09
3.187655e-04		-8.138339e-05		9.169743e+07
4.573343e+09		9.169743e+07		2.854597e-05
-8.585118e-05		1.595225e-04		4.116347e+09
1.595225e-04		1.812632e-04		-2.488121e-05
4.116347e+09		-2.488121e-05		1.673456e-04
-3.701054e-04		-7.125676e-05		4.573343e+09
-7.125676e-05		-2.565602e-05		-9.169743e+07
4.573343e+09		-9.169743e+07		2.570534e-04
-1.628594e-04		-1.277495e-04		6.195305e+09
-1.277495e-04		1.287216e-04		-2.551693e+06
6.195305e+09		-2.551693e+06		4.950538e-04
-4.002242e-06		7.304779e-05		5.493093e+09
7.304779e-05		9.108055e-05		4.439345e+07
5.493093e+09		4.439345e+07		4.093125e-04
-2.184622e-04		-8.185076e-05		4.476078e+09
-8.185076e-05		6.267370e-05		1.391625e+08
4.476078e+09		1.391625e+08		4.408918e-04
-3.888927e-04		2.730401e-04		3.845065e+09
2.730401e-04		1.803536e-04		2.170465e+08
3.845065e+09		2.170465e+08		5.709431e-04
-2.135939e-04		4.123696e-04		3.545974e+09
4.123696e-04		1.118330e-04		1.203115e+08
3.545974e+09		1.203115e+08		4.848074e-04
-2.367597e-04		2.293446e-04		3.434636e+09
2.293446e-04		-1.415599e-05		-6.882101e-05
3.434636e+09		-6.882101e-05		2.832729e-04
-1.078163e-04		-4.301041e-05		3.545974e+09
-4.301041e-05		1.465860e-04		-1.203115e+08
3.545974e+09		-1.203115e+08		4.405286e-04
1.145079e-05		-1.437485e-04		3.845065e+09
-1.437485e-04		1.964807e-04		-2.170465e+08
3.845065e+09		-2.170465e+08		5.817655e-04
-2.665252e-04		-7.733282e-05		4.476078e+09
-7.733282e-05		1.266969e-04		-1.391625e+08
4.476078e+09		-1.391625e+08		5.154647e-04
-2.307787e-04		-1.200093e-04		5.493093e+09
-1.200093e-04		2.088085e-04		-4.439345e+07
5.493093e+09		-4.439345e+07		7.235631e-04
-1.070444e-04		-9.061422e-05		3.204872e+09
-9.061422e-05		7.146783e-05		8.821076e+07
3.204872e+09		8.821076e+07		6.134920e-04
1.326695e-04		1.929431e-04		2.116155e+09
1.929431e-04		1.852473e-04		5.043506e+08
2.116155e+09		5.043506e+08		6.545372e-04
1.748584e-04		1.153960e-04		1.895027e+09
1.153960e-04		2.451006e-04		-5.952269e-05
1.895027e+09		-5.952269e-05		6.724745e-04
4.388834e-04		-9.358761e-06		2.116155e+09
-9.358761e-06		2.995592e-04		-5.043506e+08
2.116155e+09		-5.043506e+08		9.262208e-04
-2.165087e-04		-1.035596e-04		3.204872e+09
-1.035596e-04		4.221825e-05		-8.821076e+07
3.204872e+09		-8.821076e+07		7.123500e-04
-6.076135e-05		4.662439e-05		6.893685e+08
4.662439e-05		1.535444e-04		4.654792e+08
6.893685e+08		4.654792e+08		7.364042e-04
1.256568e-04		-1.332174e-04		2.677521e+08
-1.332174e-04		7.404480e-05		8.016162e+08
2.677521e+08		8.016162e+08		5.795658e-04
4.188251e-04		2.611090e-05		2.663214e+08
2.611090e-05		1.316811e-04		1.006499e+09
2.663214e+08		1.006499e+09		6.574523e-04
5.554724e-04		4.395333e-04		1.907148e+08
4.395333e-04		3.955122e-04		4.737877e+08
1.907148e+08		4.737877e+08		8.206069e-04
1.111595e-03		8.499741e-05		2.451085e+08
8.499741e-05		7.613525e-04		-8.074939e-05
2.451085e+08		-8.074939e-05		1.266193e-03
2.653161e-04		6.637555e-05		1.907148e+08
6.637555e-05		3.692610e-04		-4.737877e+08
1.907148e+08		-4.737877e+08		9.999126e-04
3.157766e-04		-1.663900e-05		2.663214e+08
-1.663900e-05		3.441582e-04		-1.006499e+09
2.663214e+08		-1.006499e+09		1.175994e-03
5.913246e-05		-5.937601e-05		2.677521e+08
-5.937601e-05		2.105366e-04		-8.016162e+08
2.677521e+08		-8.016162e+08		1.085177e-03
8.031074e-05		2.284195e-04		6.893685e+08
2.284195e-04		2.184762e-04		-4.654792e+08
6.893685e+08		-4.654792e+08		8.143187e-04
1.266734e+06		-7.826440e+05		5.158873e+08
-7.826440e+05		1.912895e+06		-4.621455e+08
5.158873e+08		-4.621455e+08		-2.147672e+09
2.994333e+05		1.573975e+05		9.438658e+07
1.573975e+05		-7.651338e+06		-1.002405e+09
9.438658e+07		-1.002405e+09		-2.163842e+09
-2.718478e+05		2.087910e-04		7.407673e+07
2.087910e-04		-1.817627e+07		2.422407e-04
7.407673e+07		2.422407e-04		-2.170978e+09
2.994333e+05		-1.573975e+05		9.438658e+07
-1.573975e+05		-7.651338e+06		1.002405e+09
9.438658e+07		1.002405e+09		-2.163842e+09
1.266734e+06		7.826440e+05		5.158873e+08
7.826440e+05		1.912895e+06		4.621455e+08
5.158873e+08		4.621455e+08		-2.147672e+09
2.619165e+06		1.572183e+06		5.310177e+09
1.572183e+06		5.390905e+05		-4.280814e+07
5.310177e+09		-4.280814e+07		-1.067296e+09
-2.531184e+06		1.122087e+07		3.671708e+09
1.122087e+07		-2.801417e+06		-2.172467e+08
3.671708e+09		-2.172467e+08		-1.080722e+09
-3.206891e+06		2.067190e-04		3.267221e+09
2.067190e-04		-6.185733e+06		1.964904e-05
3.267221e+09		1.964904e-05		-1.086920e+09
-2.531184e+06		-1.122087e+07		3.671708e+09
-1.122087e+07		-2.801417e+06		2.172467e+08
3.671708e+09		2.172467e+08		-1.080722e+09
2.619165e+06		-1.572183e+06		5.310177e+09
-1.572183e+06		5.390905e+05		4.280814e+07
5.310177e+09		4.280814e+07		-1.067296e+09
-1.737510e-05		2.496917e+06		6.641030e+09
2.496917e+06		6.411044e-05		5.905982e-05
6.641030e+09		5.905982e-05		6.549060e-05
-2.701529e-04		1.634678e+07		4.945315e+09
1.634678e+07		3.887376e-05		-5.569964e-06
4.945315e+09		-5.569964e-06		-1.778072e-04
-6.061959e-04		2.743928e-04		4.435443e+09
2.743928e-04		2.059122e-05		-5.088950e-07
4.435443e+09		-5.088950e-07		-2.411967e-04
-3.697933e-04		-1.634678e+07		4.945315e+09
-1.634678e+07		7.519855e-06		-4.593169e-05
4.945315e+09		-4.593169e-05		1.515262e-04
-3.043787e-04		-2.496917e+06		6.641030e+09
-2.496917e+06		4.389638e-05		7.252026e-05
6.641030e+09		7.252026e-05		2.654195e-04
-2.619165e+06		1.572183e+06		5.310177e+09
1.572183e+06		-5.390905e+05		4.280814e+07
5.310177e+09		4.280814e+07		1.067296e+09
2.531184e+06		1.122087e+07		3.671708e+09
1.122087e+07		2.801417e+06		2.172467e+08
3.671708e+09		2.172467e+08		1.080722e+09
3.206891e+06		7.190972e-05		3.267221e+09
7.190972e-05		6.185733e+06		-5.932525e-06
3.267221e+09		-5.932525e-06		1.086920e+09
2.531184e+06		-1.122087e+07		3.671708e+09
-1.122087e+07		2.801417e+06		-2.172467e+08
3.671708e+09		-2.172467e+08		1.080722e+09
-2.619165e+06		-1.572183e+06		5.310177e+09
-1.572183e+06		-5.390905e+05		-4.280814e+07
5.310177e+09		-4.280814e+07		1.067296e+09
-1.266734e+06		-7.826440e+05		5.158873e+08
-7.826440e+05		-1.912895e+06		4.621455e+08
5.158873e+08		4.621455e+08		2.147672e+09
-2.994333e+05		1.573975e+05		9.438658e+07
1.573975e+05		7.651338e+06		1.002405e+09
9.438658e+07		1.002405e+09		2.163842e+09
2.718478e+05		1.320530e-04		7.407673e+07
1.320530e-04		1.817627e+07		3.298372e-05
7.407673e+07		3.298372e-05		2.170978e+09
-2.994333e+05		-1.573975e+05		9.438658e+07
-1.573975e+05		7.651338e+06		-1.002405e+09
9.438658e+07		-1.002405e+09		2.163842e+09
-1.266734e+06		7.826440e+05		5.158873e+08
7.826440e+05		-1.912895e+06		-4.621455e+08
5.158873e+08		-4.621455e+08		2.147672e+09
-9.719567e+05		-1.238761e+06		6.878989e+08
-1.238761e+06		5.326810e+05		-4.656826e+08
6.878989e+08		-4.656826e+08		-4.299144e+09
-3.481093e+06		-1.494980e+06		2.675279e+08
-1.494980e+06		-8.491619e+06		-7.996895e+08
2.675279e+08		-7.996895e+08		-4.317858e+09
3.768485e+05		4.223123e+05		2.666801e+08
4.223123e+05		-1.733417e+07		-1.003151e+09
2.666801e+08		-1.003151e+09		-4.328019e+09
-7.101279e+05		-8.415794e+04		1.923505e+08
-8.415794e+04		-3.197978e+07		-4.715776e+08
1.923505e+08		-4.715776e+08		-4.339426e+09
1.061631e+06		-6.057520e-05		2.455327e+08
-6.057520e-05		-3.807402e+07		1.519024e-04
2.455327e+08		1.519024e-04		-4.340440e+09
-7.101279e+05		8.415794e+04		1.923505e+08
8.415794e+04		-3.197978e+07		4.715776e+08
1.923505e+08		4.715776e+08		-4.339426e+09
3.768485e+05		-4.223123e+05		2.666801e+08
-4.223123e+05		-1.733417e+07		1.003151e+09
2.666801e+08		1.003151e+09		-4.328019e+09
-3.481093e+06		1.494980e+06		2.675279e+08
1.494980e+06		-8.491619e+06		7.996895e+08
2.675279e+08		7.996895e+08		-4.317858e+09
-9.719567e+05		1.238761e+06		6.878989e+08
1.238761e+06		5.326810e+05		4.656826e+08
6.878989e+08		4.656826e+08		-4.299144e+09
4.135624e+06		3.014104e+06		3.196230e+09
3.014104e+06		1.841482e+06		-9.027185e+07
3.196230e+09		-9.027185e+07		-3.210361e+09
-1.326015e+06		1.292245e+07		2.119025e+09
1.292245e+07		-1.104840e+07		-5.064867e+08
2.119025e+09		-5.064867e+08		-3.244205e+09
-1.706813e+06		3.511959e-05		1.903731e+09
3.511959e-05		-2.409487e+07		3.158674e-05
1.903731e+09		3.158674e-05		-3.259261e+09
-1.326015e+06		-1.292245e+07		2.119025e+09
-1.292245e+07		-1.104840e+07		5.064867e+08
2.119025e+09		5.064867e+08		-3.244205e+09
4.135624e+06		-3.014104e+06		3.196230e+09
-3.014104e+06		1.841482e+06		9.027185e+07
3.196230e+09		9.027185e+07		-3.210361e+09
2.564557e+06		4.949024e+06		5.476551e+09
4.949024e+06		-1.591256e+06		-4.582433e+07
5.476551e+09		-4.582433e+07		-2.137460e+09
-3.791532e+06		1.463355e+07		4.468174e+09
1.463355e+07		-4.737139e+06		-1.424316e+08
4.468174e+09		-1.424316e+08		-2.151040e+09
-5.546558e+06		2.410893e+07		3.847357e+09
2.410893e+07		-6.804224e+06		-2.209690e+08
3.847357e+09		-2.209690e+08		-2.162028e+09
-6.424309e+06		1.274149e+07		3.555783e+09
1.274149e+07		-1.183463e+07		-1.222131e+08
3.555783e+09		-1.222131e+08		-2.171608e+09
-5.088039e+06		1.825437e-04		3.447560e+09
1.825437e-04		-1.231022e+07		-1.101252e-04
3.447560e+09		-1.101252e-04		-2.172421e+09
-6.424309e+06		-1.274149e+07		3.555783e+09
-1.274149e+07		-1.183463e+07		1.222131e+08
3.555783e+09		1.222131e+08		-2.171608e+09
-5.546558e+06		-2.410893e+07		3.847357e+09
-2.410893e+07		-6.804224e+06		2.209690e+08
3.847357e+09		2.209690e+08		-2.162028e+09
-3.791532e+06		-1.463355e+07		4.468174e+09
-1.463355e+07		-4.737139e+06		1.424316e+08
4.468174e+09		1.424316e+08		-2.151040e+09
2.564557e+06		-4.949024e+06		5.476551e+09
-4.949024e+06		-1.591256e+06		4.582433e+07
5.476551e+09		4.582433e+07		-2.137460e+09
3.887376e+06		6.315954e+06		6.175263e+09
6.315954e+06		1.374188e+06		-3.509904e+06
6.175263e+09		-3.509904e+06		-1.064693e+09
-2.387780e+06		3.017344e+07		4.573542e+09
3.017344e+07		-1.998160e+06		-9.423663e+07
4.573542e+09		-9.423663e+07		-1.078843e+09
-3.026481e+06		6.092095e-05		4.128730e+09
6.092095e-05		-4.893115e+06		-7.069181e-05
4.128730e+09		-7.069181e-05		-1.085244e+09
-2.387780e+06		-3.017344e+07		4.573542e+09
-3.017344e+07		-1.998160e+06		9.423663e+07
4.573542e+09		9.423663e+07		-1.078843e+09
3.887376e+06		-6.315954e+06		6.175263e+09
-6.315954e+06		1.374188e+06		3.509904e+06
6.175263e+09		3.509904e+06		-1.064693e+09
-1.781096e-05		7.067373e+06		6.805332e+09
7.067373e+06		3.313558e-06		-5.366292e-05
6.805332e+09		-5.366292e-05		1.814030e-05
-1.079026e-04		2.231742e+07		5.786004e+09
2.231742e+07		7.702599e-05		1.964637e-05
5.786004e+09		1.964637e-05		-3.898889e-05
-1.425271e-04		3.504139e+07		5.120955e+09
3.504139e+07		1.057056e-04		5.402713e-05
5.120955e+09		5.402713e-05		-6.436883e-05
-2.690183e-04		1.857610e+07		4.748396e+09
1.857610e+07		4.863623e-05		4.567471e-05
4.748396e+09		4.567471e-05		-1.809560e-05
-3.686297e-04		2.929058e-04		4.617334e+09
2.929058e-04		9.462186e-05		8.017765e-05
4.617334e+09		8.017765e-05		3.238674e-06
-3.888524e-04		-1.857610e+07		4.748396e+09
-1.857610e+07		7.924893e-05		6.410584e-06
4.748396e+09		6.410584e-06		5.741417e-05
-2.652313e-04		-3.504139e+07		5.120955e+09
-3.504139e+07		1.207545e-04		-4.736689e-05
5.120955e+09		-4.736689e-05		1.326855e-04
-4.089446e-04		-2.231742e+07		5.786004e+09
-2.231742e+07		1.115662e-04		1.584744e-05
5.786004e+09		1.584744e-05		2.381969e-04
-3.847679e-04		-7.067373e+06		6.805332e+09
-7.067373e+06		1.605966e-04		6.908250e-05
6.805332e+09		6.908250e-05		4.496910e-04
-3.887376e+06		6.315954e+06		6.175263e+09
6.315954e+06		-1.374188e+06		3.509904e+06
6.175263e+09		3.509904e+06		1.064693e+09
2.387780e+06		3.017344e+07		4.573542e+09
3.017344e+07		1.998160e+06		9.423663e+07
4.573542e+09		9.423663e+07		1.078843e+09
3.026481e+06		1.957624e-04		4.128730e+09
1.957624e-04		4.893115e+06		4.332839e-05
4.128730e+09		4.332839e-05		1.085244e+09
2.387780e+06		-3.017344e+07		4.573542e+09
-3.017344e+07		1.998160e+06		-9.423663e+07
4.573542e+09		-9.423663e+07		1.078843e+09
-3.887376e+06		-6.315954e+06		6.175263e+09
-6.315954e+06		-1.374188e+06		-3.509904e+06
6.175263e+09		-3.509904e+06		1.064693e+09
-2.564557e+06		4.949024e+06		5.476551e+09
4.949024e+06		1.591256e+06		4.582433e+07
5.476551e+09		4.582433e+07		2.137460e+09
3.791532e+06		1.463355e+07		4.468174e+09
1.463355e+07		4.737139e+06		1.424316e+08
4.468174e+09		1.424316e+08		2.151040e+09
5.546558e+06		2.410893e+07		3.847357e+09
2.410893e+07		6.804224e+06		2.209690e+08
3.847357e+09		2.209690e+08		2.162028e+09
6.424309e+06		1.274149e+07		3.555783e+09
1.274149e+07		1.183463e+07		1.222131e+08
3.555783e+09		1.222131e+08		2.171608e+09
5.088039e+06		1.086982e-05		3.447560e+09
1.086982e-05		1.231022e+07		-2.652779e-05
3.447560e+09		-2.652779e-05		2.172421e+09
6.424309e+06		-1.274149e+07		3.555783e+09
-1.274149e+07		1.183463e+07		-1.222131e+08
3.555783e+09		-1.222131e+08		2.171608e+09
5.546558e+06		-2.410893e+07		3.847357e+09
-2.410893e+07		6.804224e+06		-2.209690e+08
3.847357e+09		-2.209690e+08		2.162028e+09
3.791532e+06		-1.463355e+07		4.468174e+09
-1.463355e+07		4.737139e+06		-1.424316e+08
4.468174e+09		-1.424316e+08		2.151040e+09
-2.564557e+06		-4.949024e+06		5.476551e+09
-4.949024e+06		1.591256e+06		-4.582433e+07
5.476551e+09		-4.582433e+07		2.137460e+09
-4.135624e+06		3.014104e+06		3.196230e+09
3.014104e+06		-1.841482e+06		9.027185e+07
3.196230e+09		9.027185e+07		3.210361e+09
1.326015e+06		1.292245e+07		2.119025e+09
1.292245e+07		1.104840e+07		5.064867e+08
2.119025e+09		5.064867e+08		3.244205e+09
1.706813e+06		5.385850e-05		1.903731e+09
5.385850e-05		2.409487e+07		-6.298069e-06
1.903731e+09		-6.298069e-06		3.259261e+09
1.326015e+06		-1.292245e+07		2.119025e+09
-1.292245e+07		1.104840e+07		-5.064867e+08
2.119025e+09		-5.064867e+08		3.244205e+09
-4.135624e+06		-3.014104e+06		3.196230e+09
-3.014104e+06		-1.841482e+06		-9.027185e+07
3.196230e+09		-9.027185e+07		3.210361e+09
9.719567e+05		-1.238761e+06		6.878989e+08
-1.238761e+06		-5.326810e+05		4.656826e+08
6.878989e+08		4.656826e+08		4.299144e+09
3.481093e+06		-1.494980e+06		2.675279e+08
-1.494980e+06		8.491619e+06		7.996895e+08
2.675279e+08		7.996895e+08		4.317858e+09
-3.768485e+05		4.223123e+05		2.666801e+08
4.223123e+05		1.733417e+07		1.003151e+09
2.666801e+08		1.003151e+09		4.328019e+09
7.101279e+05		-8.415794e+04		1.923505e+08
-8.415794e+04		3.197978e+07		4.715776e+08
1.923505e+08		4.715776e+08		4.339426e+09
-1.061631e+06		3.854273e-05		2.455327e+08
3.854273e-05		3.807402e+07		1.593307e-04
2.455327e+08		1.593307e-04		4.340440e+09
7.101279e+05		8.415794e+04		1.923505e+08
8.415794e+04		3.197978e+07		-4.715776e+08
1.923505e+08		-4.715776e+08		4.339426e+09
-3.768485e+05		-4.223123e+05		2.666801e+08
-4.223123e+05		1.733417e+07		-1.003151e+09
2.666801e+08		-1.003151e+09		4.328019e+09
3.481093e+06		1.494980e+06		2.675279e+08
1.494980e+06		8.491619e+06		-7.996895e+08
2.675279e+08		-7.996895e+08		4.317858e+09
9.719567e+05		1.238761e+06		6.878989e+08
1.238761e+06		-5.326810e+05		-4.656826e+08
6.878989e+08		-4.656826e+08		4.299144e+09
5.942070e+06		-2.272094e+06		5.118928e+08
-2.272094e+06		9.505995e+06		-4.578715e+08
5.118928e+08		-4.578715e+08		-6.427334e+09
2.779981e+06		1.030805e+06		9.475390e+07
1.030805e+06		-3.233193e+07		-9.916275e+08
9.475390e+07		-9.916275e+08		-6.498632e+09
1.736485e+06		1.531413e-04		7.466839e+07
1.531413e-04		-7.235177e+07		-1.207218e-04
7.466839e+07		-1.207218e-04		-6.529151e+09
2.779981e+06		-1.030805e+06		9.475390e+07
-1.030805e+06		-3.233193e+07		9.916275e+08
9.475390e+07		9.916275e+08		-6.498632e+09
5.942070e+06		2.272094e+06		5.118928e+08
2.272094e+06		9.505995e+06		4.578715e+08
5.118928e+08		4.578715e+08		-6.427334e+09
1.058666e+07		6.396750e+06		5.267778e+09
6.396750e+06		2.471304e+06		-4.352936e+07
5.267778e+09		-4.352936e+07		-3.183246e+09
-7.594083e+06		4.505702e+07		3.676959e+09
4.505702e+07		-1.088382e+07		-2.246382e+08
3.676959e+09		-2.246382e+08		-3.240548e+09
-9.623397e+06		1.217652e-04		3.298032e+09
1.217652e-04		-2.428178e+07		-9.135343e-05
3.298032e+09		-9.135343e-05		-3.266027e+09
-7.594083e+06		-4.505702e+07		3.676959e+09
-4.505702e+07		-1.088382e+07		2.246382e+08
3.676959e+09		2.246382e+08		-3.240548e+09
1.058666e+07		-6.396750e+06		5.267778e+09
-6.396750e+06		2.471304e+06		4.352936e+07
5.267778e+09		4.352936e+07		-3.183246e+09
8.494186e-06		9.151669e+06		6.585293e+09
9.151669e+06		3.329897e-05		4.041370e-05
6.585293e+09		4.041370e-05		2.560765e-05
-2.666886e-04		6.463734e+07		4.942038e+09
6.463734e+07		2.823805e-05		3.465698e-05
4.942038e+09		3.465698e-05		1.633167e-05
-2.588446e-04		3.595760e-04		4.464218e+09
3.595760e-04		1.234411e-04		8.458152e-05
4.464218e+09		8.458152e-05		1.131333e-04
-3.684950e-04		-6.463734e+07		4.942038e+09
-6.463734e+07		7.714448e-05		-1.560632e-05
4.942038e+09		-1.560632e-05		6.584823e-05
-1.590792e-05		-9.151669e+06		6.585293e+09
-9.151669e+06		3.486735e-04		3.716095e-05
6.585293e+09		3.716095e-05		4.823655e-04
-1.058666e+07		6.396750e+06		5.267778e+09
6.396750e+06		-2.471304e+06		4.352936e+07
5.267778e+09		4.352936e+07		3.183246e+09
7.594083e+06		4.505702e+07		3.676959e+09
4.505702e+07		1.088382e+07		2.246382e+08
3.676959e+09		2.246382e+08		3.240548e+09
9.623397e+06		-3.920763e-05		3.298032e+09
-3.920763e-05		2.428178e+07		8.288957e-05
3.298032e+09		8.288957e-05		3.266027e+09
7.594083e+06		-4.505702e+07		3.676959e+09
-4.505702e+07		1.088382e+07		-2.246382e+08
3.676959e+09		-2.246382e+08		3.240548e+09
-1.058666e+07		-6.396750e+06		5.267778e+09
-6.396750e+06		-2.471304e+06		-4.352936e+07
5.267778e+09		-4.352936e+07		3.183246e+09
-5.942070e+06		-2.272094e+06		5.118928e+08
-2.272094e+06		-9.505995e+06		4.578715e+08
5.118928e+08		4.578715e+08		6.427334e+09
-2.779981e+06		1.030805e+06		9.475390e+07
1.030805e+06		3.233193e+07		9.916275e+08
9.475390e+07		9.916275e+08		6.498632e+09
-1.736485e+06		1.491674e-04		7.466839e+07
1.491674e-04		7.235177e+07		1.329184e-04
7.466839e+07		1.329184e-04		6.529151e+09
-2.779981e+06		-1.030805e+06		9.475390e+07
-1.030805e+06		3.233193e+07		-9.916275e+08
9.475390e+07		-9.916275e+08		6.498632e+09
-5.942070e+06		2.272094e+06		5.118928e+08
2.272094e+06		-9.505995e+06		-4.578715e+08
5.118928e+08		-4.578715e+08		6.427334e+09
2.807688e+06		-2.254927e+06		6.837434e+08
-2.254927e+06		7.950323e+06		-4.649818e+08
6.837434e+08		-4.649818e+08		-8.565626e+09
-8.331557e+06		-4.335719e+06		2.691587e+08
-4.335719e+06		-2.762083e+07		-7.927343e+08
2.691587e+08		-7.927343e+08		-8.637240e+09
2.856361e+06		1.530589e+06		2.708663e+08
1.530589e+06		-5.834440e+07		-9.915974e+08
2.708663e+08		-9.915974e+08		-8.676152e+09
7.071274e+05		-5.966398e+05		2.012979e+08
-5.966398e+05		-9.993403e+07		-4.636149e+08
2.012979e+08		-4.636149e+08		-8.712275e+09
4.362259e+06		2.839406e-04		2.506344e+08
2.839406e-04		-1.199218e+08		-3.159717e-04
2.506344e+08		-3.159717e-04		-8.723913e+09
7.071274e+05		5.966398e+05		2.012979e+08
5.966398e+05		-9.993403e+07		4.636149e+08
2.012979e+08		4.636149e+08		-8.712275e+09
2.856361e+06		-1.530589e+06		2.708663e+08
-1.530589e+06		-5.834440e+07		9.915974e+08
2.708663e+08		9.915974e+08		-8.676152e+09
-8.331557e+06		4.335719e+06		2.691587e+08
4.335719e+06		-2.762083e+07		7.927343e+08
2.691587e+08		7.927343e+08		-8.637240e+09
2.807688e+06		2.254927e+06		6.837434e+08
2.254927e+06		7.950323e+06		4.649818e+08
6.837434e+08		4.649818e+08		-8.565626e+09
1.533734e+07		9.428091e+06		3.156047e+09
9.428091e+06		9.473332e+06		-9.817141e+07
3.156047e+09		-9.817141e+07		-6.374786e+09
-2.030898e+06		3.910475e+07		2.127159e+09
3.910475e+07		-3.667845e+07		-5.149230e+08
2.127159e+09		-5.149230e+08		-6.494106e+09
-3.174883e+06		2.465937e-04		1.934434e+09
2.465937e-04		-7.546438e+07		-8.886401e-05
1.934434e+09		-8.886401e-05		-6.545117e+09
-2.030898e+06		-3.910475e+07		2.127159e+09
-3.910475e+07		-3.667845e+07		5.149230e+08
2.127159e+09		5.149230e+08		-6.494106e+09
1.533734e+07		-9.428091e+06		3.156047e+09
-9.428091e+06		9.473332e+06		9.817141e+07
3.156047e+09		9.817141e+07		-6.374786e+09
1.329030e+07		1.424290e+07		5.407813e+09
1.424290e+07		-4.463937e+05		-5.050655e+07
5.407813e+09		-5.050655e+07		-4.233676e+09
-4.277746e+06		4.392829e+07		4.438263e+09
4.392829e+07		-1.150498e+07		-1.548955e+08
4.438263e+09		-1.548955e+08		-4.281111e+09
-8.608188e+06		7.175440e+07		3.857632e+09
7.175440e+07		-1.874704e+07		-2.365384e+08
3.857632e+09		-2.365384e+08		-4.319358e+09
-1.009136e+07		3.726707e+07		3.597113e+09
3.726707e+07		-3.336266e+07		-1.294340e+08
3.597113e+09		-1.294340e+08		-4.347969e+09
-7.005691e+06		6.657117e-05		3.499541e+09
6.657117e-05		-3.651969e+07		-4.664809e-05
3.499541e+09		-4.664809e-05		-4.354299e+09
-1.009136e+07		-3.726707e+07		3.597113e+09
-3.726707e+07		-3.336266e+07		1.294340e+08
3.597113e+09		1.294340e+08		-4.347969e+09
-8.608188e+06		-7.175440e+07		3.857632e+09
-7.175440e+07		-1.874704e+07		2.365384e+08
3.857632e+09		2.365384e+08		-4.319358e+09
-4.277746e+06		-4.392829e+07		4.438263e+09
-4.392829e+07		-1.150498e+07		1.548955e+08
4.438263e+09		1.548955e+08		-4.281111e+09
1.329030e+07		-1.424290e+07		5.407813e+09
-1.424290e+07		-4.463937e+05		5.050655e+07
5.407813e+09		5.050655e+07		-4.233676e+09
1.416987e+07		1.824370e+07		6.092072e+09
1.824370e+07		5.250759e+06		-7.832969e+06
6.092072e+09		-7.832969e+06		-2.104597e+09
-3.170766e+06		8.910002e+07		4.574203e+09
8.910002e+07		-5.773230e+06		-1.041519e+08
4.574203e+09		-1.041519e+08		-2.152953e+09
-4.269311e+06		1.403838e-04		4.177493e+09
1.403838e-04		-1.440759e+07		5.681813e-05
4.177493e+09		5.681813e-05		-2.173572e+09
-3.170766e+06		-8.910002e+07		4.574203e+09
-8.910002e+07		-5.773230e+06		1.041519e+08
4.574203e+09		1.041519e+08		-2.152953e+09
1.416987e+07		-1.824370e+07		6.092072e+09
-1.824370e+07		5.250759e+06		7.832969e+06
6.092072e+09		7.832969e+06		-2.104597e+09
-6.107077e-04		1.859820e+07		6.711205e+09
1.859820e+07		-2.853371e-04		2.899335e-05
6.711205e+09		2.899335e-05		-1.318585e-04
4.531862e-05		6.456088e+07		5.732251e+09
6.456088e+07		3.470574e-05		1.409696e-05
5.732251e+09		1.409696e-05		1.649521e-04
-4.148778e-04		1.025557e+08		5.115464e+09
1.025557e+08		-1.030533e-04		5.216015e-05
5.115464e+09		5.216015e-05		-1.032837e-05
-1.798626e-04		5.408013e+07		4.782030e+09
5.408013e+07		8.681032e-05		6.121147e-06
4.782030e+09		6.121147e-06		9.288639e-05
-4.795021e-04		1.454556e-04		4.664137e+09
1.454556e-04		-1.040217e-05		-9.769858e-06
4.664137e+09		-9.769858e-06		-6.205868e-05
-5.042646e-04		-5.408013e+07		4.782030e+09
-5.408013e+07		-7.303664e-06		4.117226e-05
4.782030e+09		4.117226e-05		-2.280995e-05
-6.978061e-04		-1.025557e+08		5.115464e+09
-1.025557e+08		-1.044932e-04		-2.999289e-05
5.115464e+09		-2.999289e-05		-2.936553e-05
-2.061585e-04		-6.456088e+07		5.732251e+09
-6.456088e+07		1.085843e-04		-2.808273e-05
5.732251e+09		-2.808273e-05		1.831576e-04
-1.194823e-04		-1.859820e+07		6.711205e+09
-1.859820e+07		1.852496e-04		-3.758549e-05
6.711205e+09		-3.758549e-05		1.947284e-04
-1.416987e+07		1.824370e+07		6.092072e+09
1.824370e+07		-5.250759e+06		7.832969e+06
6.092072e+09		7.832969e+06		2.104597e+09
3.170766e+06		8.910002e+07		4.574203e+09
8.910002e+07		5.773230e+06		1.041519e+08
4.574203e+09		1.041519e+08		2.152953e+09
4.269311e+06		1.306096e-04		4.177493e+09
1.306096e-04		1.440759e+07		4.901760e-05
4.177493e+09		4.901760e-05		2.173572e+09
3.170766e+06		-8.910002e+07		4.574203e+09
-8.910002e+07		5.773230e+06		-1.041519e+08
4.574203e+09		-1.041519e+08		2.152953e+09
-1.416987e+07		-1.824370e+07		6.092072e+09
-1.824370e+07		-5.250759e+06		-7.832969e+06
6.092072e+09		-7.832969e+06		2.104597e+09
-1.329030e+07		1.424290e+07		5.407813e+09
1.424290e+07		4.463937e+05		5.050655e+07
5.407813e+09		5.050655e+07		4.233676e+09
4.277746e+06		4.392829e+07		4.438263e+09
4.392829e+07		1.150498e+07		1.548955e+08
4.438263e+09		1.548955e+08		4.281111e+09
8.608188e+06		7.175440e+07		3.857632e+09
7.175440e+07		1.874704e+07		2.365384e+08
3.857632e+09		2.365384e+08		4.319358e+09
1.009136e+07		3.726707e+07		3.597113e+09
3.726707e+07		3.336266e+07		1.294340e+08
3.597113e+09		1.294340e+08		4.347969e+09
7.005691e+06		-3.166334e-05		3.499541e+09
-3.166334e-05		3.651969e+07		1.263544e-04
3.499541e+09		1.263544e-04		4.354299e+09
1.009136e+07		-3.726707e+07		3.597113e+09
-3.726707e+07		3.336266e+07		-1.294340e+08
3.597113e+09		-1.294340e+08		4.347969e+09
8.608188e+06		-7.175440e+07		3.857632e+09
-7.175440e+07		1.874704e+07		-2.365384e+08
3.857632e+09		-2.365384e+08		4.319358e+09
4.277746e+06		-4.392829e+07		4.438263e+09
-4.392829e+07		1.150498e+07		-1.548955e+08
4.438263e+09		-1.548955e+08		4.281111e+09
-1.329030e+07		-1.424290e+07		5.407813e+09
-1.424290e+07		4.463937e+05		-5.050655e+07
5.407813e+09		-5.050655e+07		4.233676e+09
-1.533734e+07		9.428091e+06		3.156047e+09
9.428091e+06		-9.473332e+06		9.817141e+07
3.156047e+09		9.817141e+07		6.374786e+09
2.030898e+06		3.910475e+07		2.127159e+09
3.910475e+07		3.667845e+07		5.149230e+08
2.127159e+09		5.149230e+08		6.494106e+09
3.174883e+06		1.217180e-04		1.934434e+09
1.217180e-04		7.546438e+07		1.588981e-04
1.934434e+09		1.588981e-04		6.545117e+09
2.030898e+06		-3.910475e+07		2.127159e+09
-3.910475e+07		3.667845e+07		-5.149230e+08
2.127159e+09		-5.149230e+08		6.494106e+09
-1.533734e+07		-9.428091e+06		3.156047e+09
-9.428091e+06		-9.473332e+06		-9.817141e+07
3.156047e+09		-9.817141e+07		6.374786e+09
-2.807688e+06		-2.254927e+06		6.837434e+08
-2.254927e+06		-7.950323e+06		4.649818e+08
6.837434e+08		4.649818e+08		8.565626e+09
8.331557e+06		-4.335719e+06		2.691587e+08
-4.335719e+06		2.762083e+07		7.927343e+08
2.691587e+08		7.927343e+08		8.637240e+09
-2.856361e+06		1.530589e+06		2.708663e+08
1.530589e+06		5.834440e+07		9.915974e+08
2.708663e+08		9.915974e+08		8.676152e+09
-7.071274e+05		-5.966398e+05		2.012979e+08
-5.966398e+05		9.993403e+07		4.636149e+08
2.012979e+08		4.636149e+08		8.712275e+09
-4.362259e+06		1.458104e-04		2.506344e+08
1.458104e-04		1.199218e+08		1.804307e-04
2.506344e+08		1.804307e-04		8.723913e+09
-7.071274e+05		5.966398e+05		2.012979e+08
5.966398e+05		9.993403e+07		-4.636149e+08
2.012979e+08		-4.636149e+08		8.712275e+09
-2.856361e+06		-1.530589e+06		2.708663e+08
-1.530589e+06		5.834440e+07		-9.915974e+08
2.708663e+08		-9.915974e+08		8.676152e+09
8.331557e+06		4.335719e+06		2.691587e+08
4.335719e+06		2.762083e+07		-7.927343e+08
2.691587e+08		-7.927343e+08		8.637240e+09
-2.807688e+06		2.254927e+06		6.837434e+08
2.254927e+06		-7.950323e+06		-4.649818e+08
6.837434e+08		-4.649818e+08		8.565626e+09
4.699445e+06		-6.099987e+06		5.002998e+08
-6.099987e+06		1.571229e+07		-4.395176e+08
5.002998e+08		-4.395176e+08		-1.063145e+10
-2.982974e+06		3.106127e+06		1.016132e+08
3.106127e+06		-1.016139e+08		-9.535026e+08
1.016132e+08		-9.535026e+08		-1.086140e+10
-9.814925e+06		1.718602e-04		8.238596e+07
1.718602e-04		-2.083076e+08		-4.543737e-04
8.238596e+07		-4.543737e-04		-1.096248e+10
-2.982974e+06		-3.106127e+06		1.016132e+08
-3.106127e+06		-1.016139e+08		9.535026e+08
1.016132e+08		9.535026e+08		-1.086140e+10
4.699445e+06		6.099987e+06		5.002998e+08
6.099987e+06		1.571229e+07		4.395176e+08
5.002998e+08		4.395176e+08		-1.063145e+10
3.610082e+07		2.039799e+07		5.135998e+09
2.039799e+07		1.114052e+06		-4.225264e+07
5.135998e+09		-4.225264e+07		-5.233955e+09
-8.380727e+06		1.167580e+08		3.692380e+09
1.167580e+08		-3.326914e+07		-2.410050e+08
3.692380e+09		-2.410050e+08		-5.403314e+09
-1.251495e+07		-8.841627e-05		3.385918e+09
-8.841627e-05		-7.063447e+07		-1.525152e-04
3.385918e+09		-1.525152e-04		-5.483201e+09
-8.380727e+06		-1.167580e+08		3.692380e+09
-1.167580e+08		-3.326914e+07		2.410050e+08
3.692380e+09		2.410050e+08		-5.403314e+09
3.610082e+07		-2.039799e+07		5.135998e+09
-2.039799e+07		1.114052e+06		4.225264e+07
5.135998e+09		4.225264e+07		-5.233955e+09
-4.925765e-06		2.640703e+07		6.434858e+09
2.640703e+07		-1.586275e-05		-1.727394e-04
6.434858e+09		-1.727394e-04		-4.727393e-05
-2.653769e-04		1.685118e+08		4.952514e+09
1.685118e+08		-9.510887e-05		2.650522e-05
4.952514e+09		2.650522e-05		-4.171953e-05
-3.916265e-04		1.862785e-05		4.569150e+09
1.862785e-05		6.125658e-05		-3.297179e-05
4.569150e+09		-3.297179e-05		-5.779415e-05
-1.499697e-04		-1.685118e+08		4.952514e+09
-1.685118e+08		-8.857576e-06		-2.798375e-05
4.952514e+09		-2.798375e-05		-5.323440e-06
-1.549441e-04		-2.640703e+07		6.434858e+09
-2.640703e+07		6.124377e-05		-7.663539e-05
6.434858e+09		-7.663539e-05		-4.316866e-05
-3.610082e+07		2.039799e+07		5.135998e+09
2.039799e+07		-1.114052e+06		4.225264e+07
5.135998e+09		4.225264e+07		5.233955e+09
8.380727e+06		1.167580e+08		3.692380e+09
1.167580e+08		3.326914e+07		2.410050e+08
3.692380e+09		2.410050e+08		5.403314e+09
1.251495e+07		-3.069616e-05		3.385918e+09
-3.069616e-05		7.063447e+07		3.275834e-05
3.385918e+09		3.275834e-05		5.483201e+09
8.380727e+06		-1.167580e+08		3.692380e+09
-1.167580e+08		3.326914e+07		-2.410050e+08
3.692380e+09		-2.410050e+08		5.403314e+09
-3.610082e+07		-2.039799e+07		5.135998e+09
-2.039799e+07		-1.114052e+06		-4.225264e+07
5.135998e+09		-4.225264e+07		5.233955e+09
-4.699445e+06		-6.099987e+06		5.002998e+08
-6.099987e+06		-1.571229e+07		4.395176e+08
5.002998e+08		4.395176e+08		1.063145e+10
2.982974e+06		3.106127e+06		1.016132e+08
3.106127e+06		1.016139e+08		9.535026e+08
1.016132e+08		9.535026e+08		1.086140e+10
9.814925e+06		-4.988548e-05		8.238596e+07
-4.988548e-05		2.083076e+08		3.804713e-04
8.238596e+07		3.804713e-04		1.096248e+10
2.982974e+06		-3.106127e+06		1.016132e+08
-3.106127e+06		1.016139e+08		-9.535026e+08
1.016132e+08		-9.535026e+08		1.086140e+10
-4.699445e+06		6.099987e+06		5.002998e+08
6.099987e+06		-1.571229e+07		-4.395176e+08
5.002998e+08		-4.395176e+08		1.063145e+10
-2.265687e+07		-1.405785e+07		6.501872e+08
-1.405785e+07		-1.395941e+07		-4.623071e+08
6.501872e+08		-4.623071e+08		-1.272879e+10
-3.777566e+07		-1.251129e+07		2.657729e+08
-1.251129e+07		-9.276125e+07		-7.613302e+08
2.657729e+08		-7.613302e+08		-1.293244e+10
-7.809988e+06		1.480137e+06		2.683638e+08
1.480137e+06		-1.736397e+08		-9.572017e+08
2.683638e+08		-9.572017e+08		-1.305026e+10
-2.315109e+07		-3.631381e+06		2.083739e+08
-3.631381e+06		-2.935084e+08		-4.428737e+08
2.083739e+08		-4.428737e+08		-1.317763e+10
-6.171128e+06		2.840443e-04		2.491373e+08
2.840443e-04		-3.253551e+08		-3.626235e-04
2.491373e+08		-3.626235e-04		-1.319098e+10
-2.315109e+07		3.631381e+06		2.083739e+08
3.631381e+06		-2.935084e+08		4.428737e+08
2.083739e+08		4.428737e+08		-1.317763e+10
-7.809988e+06		-1.480137e+06		2.683638e+08
-1.480137e+06		-1.736397e+08		9.572017e+08
2.683638e+08		9.572017e+08		-1.305026e+10
-3.777566e+07		1.251129e+07		2.657729e+08
1.251129e+07		-9.276125e+07		7.613302e+08
2.657729e+08		7.613302e+08		-1.293244e+10
-2.265687e+07		1.405785e+07		6.501872e+08
1.405785e+07		-1.395941e+07		4.623071e+08
6.501872e+08		4.623071e+08		-1.272879e+10
4.742948e+07		2.434041e+07		3.023631e+09
2.434041e+07		1.189703e+07		-1.179506e+08
3.023631e+09		-1.179506e+08		-9.404602e+09
1.083390e+07		9.367072e+07		2.133979e+09
9.367072e+07		-1.043049e+08		-5.287645e+08
2.133979e+09		-5.287645e+08		-9.746434e+09
1.134408e+07		2.931152e-05		1.996597e+09
2.931152e-05		-2.015176e+08		-2.431860e-04
1.996597e+09		-2.431860e-04		-9.890016e+09
1.083390e+07		-9.367072e+07		2.133979e+09
-9.367072e+07		-1.043049e+08		5.287645e+08
2.133979e+09		5.287645e+08		-9.746434e+09
4.742948e+07		-2.434041e+07		3.023631e+09
-2.434041e+07		1.189703e+07		1.179506e+08
3.023631e+09		1.179506e+08		-9.404602e+09
6.162111e+07		3.805490e+07		5.192188e+09
3.805490e+07		-5.247540e+06		-6.437548e+07
5.192188e+09		-6.437548e+07		-6.226738e+09
2.504917e+07		1.079118e+08		4.336604e+09
1.079118e+08		-2.447572e+07		-1.809006e+08
4.336604e+09		-1.809006e+08		-6.353718e+09
1.371459e+07		1.731034e+08		3.867171e+09
1.731034e+08		-4.589493e+07		-2.729179e+08
3.867171e+09		-2.729179e+08		-6.460410e+09
6.673600e+06		8.927634e+07		3.679419e+09
8.927634e+07		-9.467686e+07		-1.443189e+08
3.679419e+09		-1.443189e+08		-6.556492e+09
2.252295e+07		1.925509e-06		3.613112e+09
1.925509e-06		-9.315347e+07		-1.347624e-04
3.613112e+09		-1.347624e-04		-6.565783e+09
6.673600e+06		-8.927634e+07		3.679419e+09
-8.927634e+07		-9.467686e+07		1.443189e+08
3.679419e+09		1.443189e+08		-6.556492e+09
1.371459e+07		-1.731034e+08		3.867171e+09
-1.731034e+08		-4.589493e+07		2.729179e+08
3.867171e+09		2.729179e+08		-6.460410e+09
2.504917e+07		-1.079118e+08		4.336604e+09
-1.079118e+08		-2.447572e+07		1.809006e+08
4.336604e+09		1.809006e+08		-6.353718e+09
6.162111e+07		-3.805490e+07		5.192188e+09
-3.805490e+07		-5.247540e+06		6.437548e+07
5.192188e+09		6.437548e+07		-6.226738e+09
5.684393e+07		4.534732e+07		5.885712e+09
4.534732e+07		7.318386e+06		-2.141160e+07
5.885712e+09		-2.141160e+07		-3.104669e+09
1.736685e+07		2.175621e+08		4.602330e+09
2.175621e+08		-1.830985e+07		-1.282987e+08
4.602330e+09		-1.282987e+08		-3.235273e+09
1.472705e+07		-1.567658e-04		4.335179e+09
-1.567658e-04		-4.457150e+07		-5.640928e-05
4.335179e+09		-5.640928e-05		-3.301588e+09
1.736685e+07		-2.175621e+08		4.602330e+09
-2.175621e+08		-1.830985e+07		1.282987e+08
4.602330e+09		1.282987e+08		-3.235273e+09
5.684393e+07		-4.534732e+07		5.885712e+09
-4.534732e+07		7.318386e+06		2.141160e+07
5.885712e+09		2.141160e+07		-3.104669e+09
7.481873e-05		4.788226e+07		6.485195e+09
4.788226e+07		-6.488618e-05		-1.254205e-04
6.485195e+09		-1.254205e-04		-2.523474e-04
-1.803273e-04		1.600535e+08		5.618381e+09
1.600535e+08		-1.301575e-04		-1.732039e-05
5.618381e+09		-1.732039e-05		-2.738014e-04
2.685227e-04		2.514122e+08		5.131806e+09
2.514122e+08		5.104346e-05		-1.577986e-05
5.131806e+09		-1.577986e-05		-6.541610e-06
-5.364046e-04		1.336057e+08		4.899288e+09
1.336057e+08		-2.716323e-04		-4.068873e-05
4.899288e+09		-4.068873e-05		-3.830232e-04
-6.698668e-04		6.330200e-06		4.824017e+09
6.330200e-06		-6.284961e-05		5.011546e-05
4.824017e+09		5.011546e-05		-3.500488e-04
-2.589077e-04		-1.336057e+08		4.899288e+09
-1.336057e+08		1.981482e-05		2.022600e-06
4.899288e+09		2.022600e-06		-1.987144e-04
2.869600e-04		-2.514122e+08		5.131806e+09
-2.514122e+08		4.431373e-05		-3.282626e-05
5.131806e+09		-3.282626e-05		9.531155e-06
-3.536325e-04		-1.600535e+08		5.618381e+09
-1.600535e+08		-1.715282e-04		-7.509452e-05
5.618381e+09		-7.509452e-05		-3.093407e-04
-4.505683e-04		-4.788226e+07		6.485195e+09
-4.788226e+07		-1.405235e-04		-1.552865e-04
6.485195e+09		-1.552865e-04		-3.605150e-04
-5.684393e+07		4.534732e+07		5.885712e+09
4.534732e+07		-7.318386e+06		2.141160e+07
5.885712e+09		2.141160e+07		3.104669e+09
-1.736685e+07		2.175621e+08		4.602330e+09
2.175621e+08		1.830985e+07		1.282987e+08
4.602330e+09		1.282987e+08		3.235273e+09
-1.472705e+07		4.256889e-05		4.335179e+09
4.256889e-05		4.457150e+07		1.178146e-04
4.335179e+09		1.178146e-04		3.301588e+09
-1.736685e+07		-2.175621e+08		4.602330e+09
-2.175621e+08		1.830985e+07		-1.282987e+08
4.602330e+09		-1.282987e+08		3.235273e+09
-5.684393e+07		-4.534732e+07		5.885712e+09
-4.534732e+07		-7.318386e+06		-2.141160e+07
5.885712e+09		-2.141160e+07		3.104669e+09
-6.162111e+07		3.805490e+07		5.192188e+09
3.805490e+07		5.247540e+06		6.437548e+07
5.192188e+09		6.437548e+07		6.226738e+09
-2.504917e+07		1.079118e+08		4.336604e+09
1.079118e+08		2.447572e+07		1.809006e+08
4.336604e+09		1.809006e+08		6.353718e+09
-1.371459e+07		1.731034e+08		3.867171e+09
1.731034e+08		4.589493e+07		2.729179e+08
3.867171e+09		2.729179e+08		6.460410e+09
-6.673600e+06		8.927634e+07		3.679419e+09
8.927634e+07		9.467686e+07		1.443189e+08
3.679419e+09		1.443189e+08		6.556492e+09
-2.252295e+07		-1.657028e-04		3.613112e+09
-1.657028e-04		9.315347e+07		1.518978e-04
3.613112e+09		1.518978e-04		6.565783e+09
-6.673600e+06		-8.927634e+07		3.679419e+09
-8.927634e+07		9.467686e+07		-1.443189e+08
3.679419e+09		-1.443189e+08		6.556492e+09
-1.371459e+07		-1.731034e+08		3.867171e+09
-1.731034e+08		4.589493e+07		-2.729179e+08
3.867171e+09		-2.729179e+08		6.460410e+09
-2.504917e+07		-1.079118e+08		4.336604e+09
-1.079118e+08		2.447572e+07		-1.809006e+08
4.336604e+09		-1.809006e+08		6.353718e+09
-6.162111e+07		-3.805490e+07		5.192188e+09
-3.805490e+07		5.247540e+06		-6.437548e+07
5.192188e+09		-6.437548e+07		6.226738e+09
-4.742948e+07		2.434041e+07		3.023631e+09
2.434041e+07		-1.189703e+07		1.179506e+08
3.023631e+09		1.179506e+08		9.404602e+09
-1.083390e+07		9.367072e+07		2.133979e+09
9.367072e+07		1.043049e+08		5.287645e+08
2.133979e+09		5.287645e+08		9.746434e+09
-1.134408e+07		-2.793083e-05		1.996597e+09
-2.793083e-05		2.015176e+08		2.503991e-04
1.996597e+09		2.503991e-04		9.890016e+09
-1.083390e+07		-9.367072e+07		2.133979e+09
-9.367072e+07		1.043049e+08		-5.287645e+08
2.133979e+09		-5.287645e+08		9.746434e+09
-4.742948e+07		-2.434041e+07		3.023631e+09
-2.434041e+07		-1.189703e+07		-1.179506e+08
3.023631e+09		-1.179506e+08		9.404602e+09
2.265687e+07		-1.405785e+07		6.501872e+08
-1.405785e+07		1.395941e+07		4.623071e+08
6.501872e+08		4.623071e+08		1.272879e+10
3.777566e+07		-1.251129e+07		2.657729e+08
-1.251129e+07		9.276125e+07		7.613302e+08
2.657729e+08		7.613302e+08		1.293244e+10
7.809988e+06		1.480137e+06		2.683638e+08
1.480137e+06		1.736397e+08		9.572017e+08
2.683638e+08		9.572017e+08		1.305026e+10
2.315109e+07		-3.631381e+06		2.083739e+08
-3.631381e+06		2.935084e+08		4.428737e+08
2.083739e+08		4.428737e+08		1.317763e+10
6.171128e+06		3.755628e-05		2.491373e+08
3.755628e-05		3.253551e+08		4.120469e-04
2.491373e+08		4.120469e-04		1.319098e+10
2.315109e+07		3.631381e+06		2.083739e+08
3.631381e+06		2.935084e+08		-4.428737e+08
2.083739e+08		-4.428737e+08		1.317763e+10
7.809988e+06		-1.480137e+06		2.683638e+08
-1.480137e+06		1.736397e+08		-9.572017e+08
2.683638e+08		-9.572017e+08		1.305026e+10
3.777566e+07		1.251129e+07		2.657729e+08
1.251129e+07		9.276125e+07		-7.613302e+08
2.657729e+08		-7.613302e+08		1.293244e+10
2.265687e+07		1.405785e+07		6.501872e+08
1.405785e+07		1.395941e+07		-4.623071e+08
6.501872e+08		-4.623071e+08		1.272879e+10
5.404257e+07		-1.790192e+06		4.259753e+08
-1.790192e+06		8.683877e+07		-4.020942e+08
4.259753e+08		-4.020942e+08		-1.462554e+10
4.024182e+07		2.812574e+06		7.724432e+07
2.812574e+06		-2.651888e+08		-8.665215e+08
7.724432e+07		-8.665215e+08		-1.518562e+10
3.299822e+07		1.678532e-04		5.133763e+07
1.678532e-04		-5.318526e+08		-3.732964e-04
5.133763e+07		-3.732964e-04		-1.543701e+10
4.024182e+07		-2.812574e+06		7.724432e+07
-2.812574e+06		-2.651888e+08		8.665215e+08
7.724432e+07		8.665215e+08		-1.518562e+10
5.404257e+07		1.790192e+06		4.259753e+08
1.790192e+06		8.683877e+07		4.020942e+08
4.259753e+08		4.020942e+08		-1.462554e+10
1.618984e+08		4.408686e+07		4.763146e+09
4.408686e+07		3.737053e+07		-5.640491e+07
4.763146e+09		-5.640491e+07		-7.139639e+09
6.062607e+07		2.603229e+08		3.693070e+09
2.603229e+08		-7.594223e+07		-2.830470e+08
3.693070e+09		-2.830470e+08		-7.558148e+09
4.742991e+07		8.389773e-05		3.540867e+09
8.389773e-05		-2.104338e+08		-1.663342e-05
3.540867e+09		-1.663342e-05		-7.765210e+09
6.062607e+07		-2.603229e+08		3.693070e+09
-2.603229e+08		-7.594223e+07		2.830470e+08
3.693070e+09		2.830470e+08		-7.558148e+09
1.618984e+08		-4.408686e+07		4.763146e+09
-4.408686e+07		3.737053e+07		5.640491e+07
4.763146e+09		5.640491e+07		-7.139639e+09
4.108753e-04		5.999416e+07		6.131573e+09
5.999416e+07		-7.143244e-06		-5.723233e-05
6.131573e+09		-5.723233e-05		-2.127811e-04
1.146761e-04		3.952239e+08		5.033740e+09
3.952239e+08		-1.002457e-04		4.843957e-05
5.033740e+09		4.843957e-05		-3.779419e-04
-3.021229e-04		-1.082639e-04		4.877707e+09
-1.082639e-04		2.183439e-05		2.270256e-05
4.877707e+09		2.270256e-05		-2.778769e-04
-4.951330e-05		-3.952239e+08		5.033740e+09
-3.952239e+08		-1.464165e-04		-4.907680e-05
5.033740e+09		-4.907680e-05		-2.645478e-04
-1.744218e-04		-5.999416e+07		6.131573e+09
-5.999416e+07		-3.404822e-05		-1.832331e-05
6.131573e+09		-1.832331e-05		-2.572238e-04
-1.618984e+08		4.408686e+07		4.763146e+09
4.408686e+07		-3.737053e+07		5.640491e+07
4.763146e+09		5.640491e+07		7.139639e+09
-6.062607e+07		2.603229e+08		3.693070e+09
2.603229e+08		7.594223e+07		2.830470e+08
3.693070e+09		2.830470e+08		7.558148e+09
-4.742991e+07		1.545893e-04		3.540867e+09
1.545893e-04		2.104338e+08		1.625801e-04
3.540867e+09		1.625801e-04		7.765210e+09
-6.062607e+07		-2.603229e+08		3.693070e+09
-2.603229e+08		7.594223e+07		-2.830470e+08
3.693070e+09		-2.830470e+08		7.558148e+09
-1.618984e+08		-4.408686e+07		4.763146e+09
-4.408686e+07		-3.737053e+07		-5.640491e+07
4.763146e+09		-5.640491e+07		7.139639e+09
-5.404257e+07		-1.790192e+06		4.259753e+08
-1.790192e+06		-8.683877e+07		4.020942e+08
4.259753e+08		4.020942e+08		1.462554e+10
-4.024182e+07		2.812574e+06		7.724432e+07
2.812574e+06		2.651888e+08		8.665215e+08
7.724432e+07		8.665215e+08		1.518562e+10
-3.299822e+07		-1.475103e-04		5.133763e+07
-1.475103e-04		5.318526e+08		4.715435e-04
5.133763e+07		4.715435e-04		1.543701e+10
-4.024182e+07		-2.812574e+06		7.724432e+07
-2.812574e+06		2.651888e+08		-8.665215e+08
7.724432e+07		-8.665215e+08		1.518562e+10
-5.404257e+07		1.790192e+06		4.259753e+08
1.790192e+06		-8.683877e+07		-4.020942e+08
4.259753e+08		-4.020942e+08		1.462554e+10
1.299588e+08		2.953066e+05		5.243998e+08
2.953066e+05		1.519886e+08		-3.644875e+08
5.243998e+08		-3.644875e+08		-1.652177e+10
1.084428e+07		-3.306335e+07		2.362236e+08
-3.306335e+07		-2.062597e+08		-6.503122e+08
2.362236e+08		-6.503122e+08		-1.707940e+10
7.007781e+07		-9.481833e+06		2.373224e+08
-9.481833e+06		-4.562827e+08		-8.238482e+08
2.373224e+08		-8.238482e+08		-1.738614e+10
6.733336e+07		-2.324574e+07		1.981420e+08
-2.324574e+07		-7.040391e+08		-3.578718e+08
1.981420e+08		-3.578718e+08		-1.765465e+10
3.332249e+07		-1.614215e-06		2.055715e+08
-1.614215e-06		-9.118011e+08		-3.301557e-04
2.055715e+08		-3.301557e-04		-1.784299e+10
6.733336e+07		2.324574e+07		1.981420e+08
2.324574e+07		-7.040391e+08		3.578718e+08
1.981420e+08		3.578718e+08		-1.765465e+10
7.007781e+07		9.481833e+06		2.373224e+08
9.481833e+06		-4.562827e+08		8.238482e+08
2.373224e+08		8.238482e+08		-1.738614e+10
1.084428e+07		3.306335e+07		2.362236e+08
3.306335e+07		-2.062597e+08		6.503122e+08
2.362236e+08		6.503122e+08		-1.707940e+10
1.299588e+08		-2.953066e+05		5.243998e+08
-2.953066e+05		1.519886e+08		3.644875e+08
5.243998e+08		3.644875e+08		-1.652177e+10
1.981173e+08		5.615565e+07		2.609987e+09
5.615565e+07		1.252521e+08		-1.283731e+08
2.609987e+09		-1.283731e+08		-1.217355e+10
6.008556e+07		1.891695e+08		2.065896e+09
1.891695e+08		-3.091969e+08		-5.217731e+08
2.065896e+09		-5.217731e+08		-1.302108e+10
-3.821895e+06		-3.610086e-05		2.033200e+09
-3.610086e-05		-6.757521e+08		-2.404922e-04
2.033200e+09		-2.404922e-04		-1.349012e+10
6.008556e+07		-1.891695e+08		2.065896e+09
-1.891695e+08		-3.091969e+08		5.217731e+08
2.065896e+09		5.217731e+08		-1.302108e+10
1.981173e+08		-5.615565e+07		2.609987e+09
-5.615565e+07		1.252521e+08		1.283731e+08
2.609987e+09		1.283731e+08		-1.217355e+10
2.497061e+08		6.421114e+07		4.643478e+09
6.421114e+07		4.598720e+07		-7.080836e+07
4.643478e+09		-7.080836e+07		-8.105816e+09
1.443122e+08		2.121218e+08		4.085282e+09
2.121218e+08		-6.213465e+07		-2.304035e+08
4.085282e+09		-2.304035e+08		-8.406966e+09
1.053563e+08		3.584184e+08		3.849656e+09
3.584184e+08		-1.537252e+08		-3.413845e+08
3.849656e+09		-3.413845e+08		-8.703440e+09
8.449422e+07		1.721913e+08		3.833448e+09
1.721913e+08		-3.036420e+08		-1.575189e+08
3.833448e+09		-1.575189e+08		-8.941485e+09
6.215025e+07		-1.467699e-04		3.820223e+09
-1.467699e-04		-4.134628e+08		-1.945151e-04
3.820223e+09		-1.945151e-04		-9.066494e+09
8.449422e+07		-1.721913e+08		3.833448e+09
-1.721913e+08		-3.036420e+08		1.575189e+08
3.833448e+09		1.575189e+08		-8.941485e+09
1.053563e+08		-3.584184e+08		3.849656e+09
-3.584184e+08		-1.537252e+08		3.413845e+08
3.849656e+09		3.413845e+08		-8.703440e+09
1.443122e+08		-2.121218e+08		4.085282e+09
-2.121218e+08		-6.213465e+07		2.304035e+08
4.085282e+09		2.304035e+08		-8.406966e+09
2.497061e+08		-6.421114e+07		4.643478e+09
-6.421114e+07		4.598720e+07		7.080836e+07
4.643478e+09		7.080836e+07		-8.105816e+09
2.013711e+08		9.466943e+07		5.443372e+09
9.466943e+07		5.535566e+07		-5.252146e+07
5.443372e+09		-5.252146e+07		-4.023230e+09
7.583295e+07		4.760621e+08		4.694088e+09
4.760621e+08		-6.550981e+07		-1.752888e+08
4.694088e+09		-1.752888e+08		-4.363013e+09
4.224689e+07		-1.410544e-04		4.712181e+09
-1.410544e-04		-1.979161e+08		-1.267609e-04
4.712181e+09		-1.267609e-04		-4.567305e+09
7.583295e+07		-4.760621e+08		4.694088e+09
-4.760621e+08		-6.550981e+07		1.752888e+08
4.694088e+09		1.752888e+08		-4.363013e+09
2.013711e+08		-9.466943e+07		5.443372e+09
-9.466943e+07		5.535566e+07		5.252146e+07
5.443372e+09		5.252146e+07		-4.023230e+09
4.799552e-04		9.525650e+07		6.149458e+09
9.525650e+07		-2.687145e-05		-4.011590e-05
6.149458e+09		-4.011590e-05		-2.511442e-04
2.357326e-04		3.438860e+08		5.559482e+09
3.438860e+08		-2.126954e-05		-3.555883e-05
5.559482e+09		-3.555883e-05		-2.830997e-04
2.375785e-04		5.583700e+08		5.364221e+09
5.583700e+08		-4.917430e-05		1.861164e-05
5.364221e+09		1.861164e-05		-2.857670e-04
-1.267716e-05		2.790739e+08		5.375926e+09
2.790739e+08		-1.140097e-04		8.064788e-05
5.375926e+09		8.064788e-05		-2.008080e-04
-3.099926e-04		1.316946e-04		5.391722e+09
1.316946e-04		4.324131e-06		-3.329113e-05
5.391722e+09		-3.329113e-05		-1.108777e-04
-1.729131e-04		-2.790739e+08		5.375926e+09
-2.790739e+08		-3.588130e-05		-1.023494e-04
5.375926e+09		-1.023494e-04		-2.726465e-04
-4.863678e-04		-5.583700e+08		5.364221e+09
-5.583700e+08		-3.752513e-04		-1.144534e-04
5.364221e+09		-1.144534e-04		-6.319154e-04
3.320165e-05		-3.438860e+08		5.559482e+09
-3.438860e+08		-9.560399e-05		-2.142205e-05
5.559482e+09		-2.142205e-05		-3.593042e-04
-1.867302e-05		-9.525650e+07		6.149458e+09
-9.525650e+07		-4.813820e-05		1.311707e-04
6.149458e+09		1.311707e-04		-3.849119e-04
-2.013711e+08		9.466943e+07		5.443372e+09
9.466943e+07		-5.535566e+07		5.252146e+07
5.443372e+09		5.252146e+07		4.023230e+09
-7.583295e+07		4.760621e+08		4.694088e+09
4.760621e+08		6.550981e+07		1.752888e+08
4.694088e+09		1.752888e+08		4.363013e+09
-4.224689e+07		2.834201e-04		4.712181e+09
2.834201e-04		1.979161e+08		-1.878990e-05
4.712181e+09		-1.878990e-05		4.567305e+09
-7.583295e+07		-4.760621e+08		4.694088e+09
-4.760621e+08		6.550981e+07		-1.752888e+08
4.694088e+09		-1.752888e+08		4.363013e+09
-2.013711e+08		-9.466943e+07		5.443372e+09
-9.466943e+07		-5.535566e+07		-5.252146e+07
5.443372e+09		-5.252146e+07		4.023230e+09
-2.497061e+08		6.421114e+07		4.643478e+09
6.421114e+07		-4.598720e+07		7.080836e+07
4.643478e+09		7.080836e+07		8.105816e+09
-1.443122e+08		2.121218e+08		4.085282e+09
2.121218e+08		6.213465e+07		2.304035e+08
4.085282e+09		2.304035e+08		8.406966e+09
-1.053563e+08		3.584184e+08		3.849656e+09
3.584184e+08		1.537252e+08		3.413845e+08
3.849656e+09		3.413845e+08		8.703440e+09
-8.449422e+07		1.721913e+08		3.833448e+09
1.721913e+08		3.036420e+08		1.575189e+08
3.833448e+09		1.575189e+08		8.941485e+09
-6.215025e+07		2.137059e-04		3.820223e+09
2.137059e-04		4.134628e+08		1.249500e-04
3.820223e+09		1.249500e-04		9.066494e+09
-8.449422e+07		-1.721913e+08		3.833448e+09
-1.721913e+08		3.036420e+08		-1.575189e+08
3.833448e+09		-1.575189e+08		8.941485e+09
-1.053563e+08		-3.584184e+08		3.849656e+09
-3.584184e+08		1.537252e+08		-3.413845e+08
3.849656e+09		-3.413845e+08		8.703440e+09
-1.443122e+08		-2.121218e+08		4.085282e+09
-2.121218e+08		6.213465e+07		-2.304035e+08
4.085282e+09		-2.304035e+08		8.406966e+09
-2.497061e+08		-6.421114e+07		4.643478e+09
-6.421114e+07		-4.598720e+07		-7.080836e+07
4.643478e+09		-7.080836e+07		8.105816e+09
-1.981173e+08		5.615565e+07		2.609987e+09
5.615565e+07		-1.252521e+08		1.283731e+08
2.609987e+09		1.283731e+08		1.217355e+10
-6.008556e+07		1.891695e+08		2.065896e+09
1.891695e+08		3.091969e+08		5.217731e+08
2.065896e+09		5.217731e+08		1.302108e+10
3.821895e+06		1.919996e-04		2.033200e+09
1.919996e-04		6.757521e+08		2.437637e-04
2.033200e+09		2.437637e-04		1.349012e+10
-6.008556e+07		-1.891695e+08		2.065896e+09
-1.891695e+08		3.091969e+08		-5.217731e+08
2.065896e+09		-5.217731e+08		1.302108e+10
-1.981173e+08		-5.615565e+07		2.609987e+09
-5.615565e+07		-1.252521e+08		-1.283731e+08
2.609987e+09		-1.283731e+08		1.217355e+10
-1.299588e+08		2.953066e+05		5.243998e+08
2.953066e+05		-1.519886e+08		3.644875e+08
5.243998e+08		3.644875e+08		1.652177e+10
-1.084428e+07		-3.306335e+07		2.362236e+08
-3.306335e+07		2.062597e+08		6.503122e+08
2.362236e+08		6.503122e+08		1.707940e+10
-7.007781e+07		-9.481833e+06		2.373224e+08
-9.481833e+06		4.562827e+08		8.238482e+08
2.373224e+08		8.238482e+08		1.738614e+10
-6.733336e+07		-2.324574e+07		1.981420e+08
-2.324574e+07		7.040391e+08		3.578718e+08
1.981420e+08		3.578718e+08		1.765465e+10
-3.332249e+07		2.411093e-04		2.055715e+08
2.411093e-04		9.118011e+08		2.765777e-04
2.055715e+08		2.765777e-04		1.784299e+10
-6.733336e+07		2.324574e+07		1.981420e+08
2.324574e+07		7.040391e+08		-3.578718e+08
1.981420e+08		-3.578718e+08		1.765465e+10
-7.007781e+07		9.481833e+06		2.373224e+08
9.481833e+06		4.562827e+08		-8.238482e+08
2.373224e+08		-8.238482e+08		1.738614e+10
-1.084428e+07		3.306335e+07		2.362236e+08
3.306335e+07		2.062597e+08		-6.503122e+08
2.362236e+08		-6.503122e+08		1.707940e+10
-1.299588e+08		-2.953066e+05		5.243998e+08
-2.953066e+05		-1.519886e+08		-3.644875e+08
5.243998e+08		-3.644875e+08		1.652177e+10
-1.868641e+08		-1.669816e+07		3.292490e+08
-1.669816e+07		-1.369169e+08		-1.318305e+08
3.292490e+08		-1.318305e+08		-1.810529e+10
-1.892729e+08		-2.345663e+07		1.796809e+08
-2.345663e+07		-7.131587e+08		-3.935542e+08
1.796809e+08		-3.935542e+08		-1.949176e+10
-2.146788e+08		-1.884997e-05		1.659539e+08
-1.884997e-05		-1.470240e+09		-3.075674e-04
1.659539e+08		-3.075674e-04		-1.983977e+10
-1.892729e+08		2.345663e+07		1.796809e+08
2.345663e+07		-7.131587e+08		3.935542e+08
1.796809e+08		3.935542e+08		-1.949176e+10
-1.868641e+08		1.669816e+07		3.292490e+08
1.669816e+07		-1.369169e+08		1.318305e+08
3.292490e+08		1.318305e+08		-1.810529e+10
4.285207e+08		1.131019e+08		4.026956e+09
1.131019e+08		-6.691499e+07		4.632365e+06
4.026956e+09		4.632365e+06		-9.084319e+09
1.605416e+08		4.485842e+08		3.798016e+09
4.485842e+08		-2.989303e+08		-2.459444e+08
3.798016e+09		-2.459444e+08		-1.011630e+10
1.482765e+08		-3.619697e-04		3.948672e+09
-3.619697e-04		-7.540951e+08		-2.580117e-04
3.948672e+09		-2.580117e-04		-1.046823e+10
1.605416e+08		-4.485842e+08		3.798016e+09
-4.485842e+08		-2.989303e+08		2.459444e+08
3.798016e+09		2.459444e+08		-1.011630e+10
4.285207e+08		-1.131019e+08		4.026956e+09
-1.131019e+08		-6.691499e+07		-4.632365e+06
4.026956e+09		-4.632365e+06		-9.084319e+09
8.542389e-04		1.721267e+08		5.512647e+09
1.721267e+08		2.844557e-04		-1.646760e-04
5.512647e+09		-1.646760e-04		1.371056e-04
3.998615e-04		7.754554e+08		5.278348e+09
7.754554e+08		1.143981e-04		2.796861e-05
5.278348e+09		2.796861e-05		-2.760440e-05
-2.090479e-04		-1.797210e-04		5.504772e+09
-1.797210e-04		-1.438987e-04		4.628242e-05
5.504772e+09		4.628242e-05		-3.578886e-04
-2.658442e-04		-7.754554e+08		5.278348e+09
-7.754554e+08		-1.546293e-04		-2.285594e-05
5.278348e+09		-2.285594e-05		-5.159900e-04
5.874038e-05		-1.721267e+08		5.512647e+09
-1.721267e+08		-1.024604e-04		1.281183e-04
5.512647e+09		1.281183e-04		-5.269051e-04
-4.285207e+08		1.131019e+08		4.026956e+09
1.131019e+08		6.691499e+07		-4.632365e+06
4.026956e+09		-4.632365e+06		9.084319e+09
-1.605416e+08		4.485842e+08		3.798016e+09
4.485842e+08		2.989303e+08		2.459444e+08
3.798016e+09		2.459444e+08		1.011630e+10
-1.482765e+08		7.792842e-05		3.948672e+09
7.792842e-05		7.540951e+08		1.536496e-04
3.948672e+09		1.536496e-04		1.046823e+10
-1.605416e+08		-4.485842e+08		3.798016e+09
-4.485842e+08		2.989303e+08		-2.459444e+08
3.798016e+09		-2.459444e+08		1.011630e+10
-4.285207e+08		-1.131019e+08		4.026956e+09
-1.131019e+08		6.691499e+07		4.632365e+06
4.026956e+09		4.632365e+06		9.084319e+09
1.868641e+08		-1.669816e+07		3.292490e+08
-1.669816e+07		1.369169e+08		1.318305e+08
3.292490e+08		1.318305e+08		1.810529e+10
1.892729e+08		-2.345663e+07		1.796809e+08
-2.345663e+07		7.131587e+08		3.935542e+08
1.796809e+08		3.935542e+08		1.949176e+10
2.146788e+08		-2.320497e-04		1.659539e+08
-2.320497e-04		1.470240e+09		9.512901e-05
1.659539e+08		9.512901e-05		1.983977e+10
1.892729e+08		2.345663e+07		1.796809e+08
2.345663e+07		7.131587e+08		-3.935542e+08
1.796809e+08		-3.935542e+08		1.949176e+10
1.868641e+08		1.669816e+07		3.292490e+08
1.669816e+07		1.369169e+08		-1.318305e+08
3.292490e+08		-1.318305e+08		1.810529e+10
-1.612847e+08		-1.367985e+08		-9.114824e+05
-1.367985e+08		-8.105996e+07		-3.876623e+08
-9.114824e+05		-3.876623e+08		-1.877953e+10
-4.517309e+08		-1.201650e+08		-8.715549e+07
-1.201650e+08		-5.407797e+08		-9.323592e+07
-8.715549e+07		-9.323592e+07		-2.057525e+10
-1.430915e+08		-8.575279e+07		-1.207919e+08
-8.575279e+07		-8.507407e+08		-5.612568e+07
-1.207919e+08		-5.612568e+07		-2.092026e+10
-2.627521e+08		-4.486688e+07		-1.321868e+08
-4.486688e+07		-1.798882e+09		1.641878e+08
-1.321868e+08		1.641878e+08		-2.126575e+10
-2.728707e+08		1.820195e-04		-1.920299e+08
1.820195e-04		-2.130230e+09		-3.253315e-04
-1.920299e+08		-3.253315e-04		-2.129782e+10
-2.627521e+08		4.486688e+07		-1.321868e+08
4.486688e+07		-1.798882e+09		-1.641878e+08
-1.321868e+08		-1.641878e+08		-2.126575e+10
-1.430915e+08		8.575279e+07		-1.207919e+08
8.575279e+07		-8.507407e+08		5.612568e+07
-1.207919e+08		5.612568e+07		-2.092026e+10
-4.517309e+08		1.201650e+08		-8.715549e+07
1.201650e+08		-5.407797e+08		9.323592e+07
-8.715549e+07		9.323592e+07		-2.057525e+10
-1.612847e+08		1.367985e+08		-9.114824e+05
1.367985e+08		-8.105996e+07		3.876623e+08
-9.114824e+05		3.876623e+08		-1.877953e+10
4.016887e+08		8.227762e+07		1.890140e+09
8.227762e+07		2.411492e+07		-3.125805e+08
1.890140e+09		-3.125805e+08		-1.419337e+10
-3.781173e+07		2.322520e+08		2.112960e+09
2.322520e+08		-8.457556e+08		-1.374832e+08
2.112960e+09		-1.374832e+08		-1.668974e+10
-2.033138e+08		-1.381151e-05		2.238446e+09
-1.381151e-05		-1.975636e+09		-2.698936e-04
2.238446e+09		-2.698936e-04		-1.727805e+10
-3.781173e+07		-2.322520e+08		2.112960e+09
-2.322520e+08		-8.457556e+08		1.374832e+08
2.112960e+09		1.374832e+08		-1.668974e+10
4.016887e+08		-8.227762e+07		1.890140e+09
-8.227762e+07		2.411492e+07		3.125805e+08
1.890140e+09		3.125805e+08		-1.419337e+10
7.755313e+08		1.819389e+08		3.590780e+09
1.819389e+08		8.374514e+07		-2.886555e+08
3.590780e+09		-2.886555e+08		-9.536697e+09
2.774518e+08		3.845868e+08		3.709503e+09
3.845868e+08		-2.465095e+08		-2.117867e+08
3.709503e+09		-2.117867e+08		-1.086341e+10
2.063737e+08		5.183453e+08		4.037175e+09
5.183453e+08		-4.697430e+08		-2.386532e+08
4.037175e+09		-2.386532e+08		-1.139415e+10
1.046569e+08		2.375689e+08		4.237513e+09
2.375689e+08		-1.096077e+09		2.164836e+07
4.237513e+09		2.164836e+07		-1.180365e+10
8.883963e+07		-3.052074e-04		4.331969e+09
-3.052074e-04		-1.338805e+09		-2.749842e-04
4.331969e+09		-2.749842e-04		-1.193936e+10
1.046569e+08		-2.375689e+08		4.237513e+09
-2.375689e+08		-1.096077e+09		-2.164836e+07
4.237513e+09		-2.164836e+07		-1.180365e+10
2.063737e+08		-5.183453e+08		4.037175e+09
-5.183453e+08		-4.697430e+08		2.386532e+08
4.037175e+09		2.386532e+08		-1.139415e+10
2.774518e+08		-3.845868e+08		3.709503e+09
-3.845868e+08		-2.465095e+08		2.117867e+08
3.709503e+09		2.117867e+08		-1.086341e+10
7.755313e+08		-1.819389e+08		3.590780e+09
-1.819389e+08		8.374514e+07		2.886555e+08
3.590780e+09		2.886555e+08		-9.536697e+09
3.024817e+08		2.500331e+08		4.528083e+09
2.500331e+08		2.854274e+07		-1.689791e+08
4.528083e+09		-1.689791e+08		-4.850736e+09
-1.545795e+08		7.731942e+08		5.022521e+09
7.731942e+08		-3.408848e+08		-1.303858e+08
5.022521e+09		-1.303858e+08		-5.888796e+09
-2.914734e+08		-8.133054e-05		5.377781e+09
-8.133054e-05		-8.195324e+08		-1.441194e-04
5.377781e+09		-1.441194e-04		-6.208420e+09
-1.545795e+08		-7.731942e+08		5.022521e+09
-7.731942e+08		-3.408848e+08		1.303858e+08
5.022521e+09		1.303858e+08		-5.888796e+09
3.024817e+08		-2.500331e+08		4.528083e+09
-2.500331e+08		2.854274e+07		1.689791e+08
4.528083e+09		1.689791e+08		-4.850736e+09
1.751855e-04		2.825988e+08		5.130487e+09
2.825988e+08		1.186561e-04		-2.120112e-04
5.130487e+09		-2.120112e-04		-1.471415e-04
7.158145e-05		7.013943e+08		5.179598e+09
7.013943e+08		4.513748e-05		-6.179791e-05
5.179598e+09		-6.179791e-05		-1.474246e-04
2.366845e-04		9.447715e+08		5.607562e+09
9.447715e+08		1.288964e-04		2.412625e-05
5.607562e+09		2.412625e-05		-3.967434e-05
2.695564e-04		4.163372e+08		5.886251e+09
4.163372e+08		7.053465e-05		6.245443e-05
5.886251e+09		6.245443e-05		-2.287403e-04
4.546437e-04		-3.536046e-05		6.022986e+09
-3.536046e-05		-4.805624e-05		-3.805067e-05
6.022986e+09		-3.805067e-05		-3.752671e-04
-3.828853e-05		-4.163372e+08		5.886251e+09
-4.163372e+08		-1.391666e-04		-6.887759e-05
5.886251e+09		-6.887759e-05		-5.361885e-04
-1.458619e-04		-9.447715e+08		5.607562e+09
-9.447715e+08		1.339288e-05		1.347783e-04
5.607562e+09		1.347783e-04		-5.071312e-04
-1.037903e-04		-7.013943e+08		5.179598e+09
-7.013943e+08		-7.423200e-05		1.206144e-04
5.179598e+09		1.206144e-04		-5.256981e-04
2.199337e-04		-2.825988e+08		5.130487e+09
-2.825988e+08		-1.788139e-05		8.253055e-05
5.130487e+09		8.253055e-05		-4.439056e-04
-3.024817e+08		2.500331e+08		4.528083e+09
2.500331e+08		-2.854274e+07		1.689791e+08
4.528083e+09		1.689791e+08		4.850736e+09
1.545795e+08		7.731942e+08		5.022521e+09
7.731942e+08		3.408848e+08		1.303858e+08
5.022521e+09		1.303858e+08		5.888796e+09
2.914734e+08		-2.140142e-04		5.377781e+09
-2.140142e-04		8.195324e+08		7.166527e-05
5.377781e+09		7.166527e-05		6.208420e+09
1.545795e+08		-7.731942e+08		5.022521e+09
-7.731942e+08		3.408848e+08		-1.303858e+08
5.022521e+09		-1.303858e+08		5.888796e+09
-3.024817e+08		-2.500331e+08		4.528083e+09
-2.500331e+08		-2.854274e+07		-1.689791e+08
4.528083e+09		-1.689791e+08		4.850736e+09
-7.755313e+08		1.819389e+08		3.590780e+09
1.819389e+08		-8.374514e+07		2.886555e+08
3.590780e+09		2.886555e+08		9.536697e+09
-2.774518e+08		3.845868e+08		3.709503e+09
3.845868e+08		2.465095e+08		2.117867e+08
3.709503e+09		2.117867e+08		1.086341e+10
-2.063737e+08		5.183453e+08		4.037175e+09
5.183453e+08		4.697430e+08		2.386532e+08
4.037175e+09		2.386532e+08		1.139415e+10
-1.046569e+08		2.375689e+08		4.237513e+09
2.375689e+08		1.096077e+09		-2.164836e+07
4.237513e+09		-2.164836e+07		1.180365e+10
-8.883963e+07		8.079503e-05		4.331969e+09
8.079503e-05		1.338805e+09		1.951223e-04
4.331969e+09		1.951223e-04		1.193936e+10
-1.046569e+08		-2.375689e+08		4.237513e+09
-2.375689e+08		1.096077e+09		2.164836e+07
4.237513e+09		2.164836e+07		1.180365e+10
-2.063737e+08		-5.183453e+08		4.037175e+09
-5.183453e+08		4.697430e+08		-2.386532e+08
4.037175e+09		-2.386532e+08		1.139415e+10
-2.774518e+08		-3.845868e+08		3.709503e+09
-3.845868e+08		2.465095e+08		-2.117867e+08
3.709503e+09		-2.117867e+08		1.086341e+10
-7.755313e+08		-1.819389e+08		3.590780e+09
-1.819389e+08		-8.374514e+07		-2.886555e+08
3.590780e+09		-2.886555e+08		9.536697e+09
-4.016887e+08		8.227762e+07		1.890140e+09
8.227762e+07		-2.411492e+07		3.125805e+08
1.890140e+09		3.125805e+08		1.419337e+10
3.781173e+07		2.322520e+08		2.112960e+09
2.322520e+08		8.457556e+08		1.374832e+08
2.112960e+09		1.374832e+08		1.668974e+10
2.033138e+08		1.317021e-04		2.238446e+09
1.317021e-04		1.975636e+09		3.067553e-04
2.238446e+09		3.067553e-04		1.727805e+10
3.781173e+07		-2.322520e+08		2.112960e+09
-2.322520e+08		8.457556e+08		-1.374832e+08
2.112960e+09		-1.374832e+08		1.668974e+10
-4.016887e+08		-8.227762e+07		1.890140e+09
-8.227762e+07		-2.411492e+07		-3.125805e+08
1.890140e+09		-3.125805e+08		1.419337e+10
1.612847e+08		-1.367985e+08		-9.114824e+05
-1.367985e+08		8.105996e+07		3.876623e+08
-9.114824e+05		3.876623e+08		1.877953e+10
4.517309e+08		-1.201650e+08		-8.715549e+07
-1.201650e+08		5.407797e+08		9.323592e+07
-8.715549e+07		9.323592e+07		2.057525e+10
1.430915e+08		-8.575279e+07		-1.207919e+08
-8.575279e+07		8.507407e+08		5.612568e+07
-1.207919e+08		5.612568e+07		2.092026e+10
2.627521e+08		-4.486688e+07		-1.321868e+08
-4.486688e+07		1.798882e+09		-1.641878e+08
-1.321868e+08		-1.641878e+08		2.126575e+10
2.728707e+08		-1.692902e-04		-1.920299e+08
-1.692902e-04		2.130230e+09		2.208818e-04
-1.920299e+08		2.208818e-04		2.129782e+10
2.627521e+08		4.486688e+07		-1.321868e+08
4.486688e+07		1.798882e+09		1.641878e+08
-1.321868e+08		1.641878e+08		2.126575e+10
1.430915e+08		8.575279e+07		-1.207919e+08
8.575279e+07		8.507407e+08		-5.612568e+07
-1.207919e+08		-5.612568e+07		2.092026e+10
4.517309e+08		1.201650e+08		-8.715549e+07
1.201650e+08		5.407797e+08		-9.323592e+07
-8.715549e+07		-9.323592e+07		2.057525e+10
1.612847e+08		1.367985e+08		-9.114824e+05
1.367985e+08		8.105996e+07		-3.876623e+08
-9.114824e+05		-3.876623e+08		1.877953e+10
1.999905e+09		-2.482249e+08		-9.177045e+08
-2.482249e+08		2.073002e+09		-5.841934e+08
-9.177045e+08		-5.841934e+08		-1.932860e+10
1.779114e+09		-7.467092e+07		-9.802942e+08
-7.467092e+07		-1.112523e+09		1.118811e+09
-9.802942e+08		1.118811e+09		-2.178673e+10
1.624911e+09		1.904368e-04		-9.537944e+08
1.904368e-04		-2.577118e+09		-3.641061e-04
-9.537944e+08		-3.641061e-04		-2.228076e+10
1.779114e+09		7.467092e+07		-9.802942e+08
7.467092e+07		-1.112523e+09		-1.118811e+09
-9.802942e+08		-1.118811e+09		-2.178673e+10
1.999905e+09		2.482249e+08		-9.177045e+08
2.482249e+08		2.073002e+09		5.841934e+08
-9.177045e+08		5.841934e+08		-1.932860e+10
5.347785e+08		2.890368e+08		2.642202e+09
2.890368e+08		1.036381e+09		-6.617677e+08
2.642202e+09		-6.617677e+08		-9.706473e+09
-8.083521e+08		6.231438e+08		4.233930e+09
6.231438e+08		-1.291485e+09		2.812321e+08
4.233930e+09		2.812321e+08		-1.218347e+10
-9.737548e+08		-1.901630e-04		4.648769e+09
-1.901630e-04		-2.292794e+09		-2.813924e-04
4.648769e+09		-2.813924e-04		-1.268558e+10
-8.083521e+08		-6.231438e+08		4.233930e+09
-6.231438e+08		-1.291485e+09		-2.812321e+08
4.233930e+09		-2.812321e+08		-1.218347e+10
5.347785e+08		-2.890368e+08		2.642202e+09
-2.890368e+08		1.036381e+09		6.617677e+08
2.642202e+09		6.617677e+08		-9.706473e+09
-1.476258e-04		4.757915e+08		3.911697e+09
4.757915e+08		-1.516193e-05		8.290075e-05
3.911697e+09		8.290075e-05		-3.322065e-04
3.880300e-04		1.028700e+09		5.456756e+09
1.028700e+09		8.391403e-05		3.008154e-05
5.456756e+09		3.008154e-05		-1.560450e-04
1.861956e-04		-1.516417e-04		5.949007e+09
-1.516417e-04		-9.059068e-05		-9.159546e-05
5.949007e+09		-9.159546e-05		-3.610104e-04
-4.175045e-04		-1.028700e+09		5.456756e+09
-1.028700e+09		-3.340468e-05		-1.699897e-06
5.456756e+09		-1.699897e-06		-5.417988e-04
4.576743e-04		-4.757915e+08		3.911697e+09
-4.757915e+08		3.719181e-04		1.586089e-04
3.911697e+09		1.586089e-04		-1.046062e-05
-5.347785e+08		2.890368e+08		2.642202e+09
2.890368e+08		-1.036381e+09		6.617677e+08
2.642202e+09		6.617677e+08		9.706473e+09
8.083521e+08		6.231438e+08		4.233930e+09
6.231438e+08		1.291485e+09		-2.812321e+08
4.233930e+09		-2.812321e+08		1.218347e+10
9.737548e+08		2.215430e-05		4.648769e+09
2.215430e-05		2.292794e+09		1.202608e-04
4.648769e+09		1.202608e-04		1.268558e+10
8.083521e+08		-6.231438e+08		4.233930e+09
-6.231438e+08		1.291485e+09		2.812321e+08
4.233930e+09		2.812321e+08		1.218347e+10
-5.347785e+08		-2.890368e+08		2.642202e+09
-2.890368e+08		-1.036381e+09		-6.617677e+08
2.642202e+09		-6.617677e+08		9.706473e+09
-1.999905e+09		-2.482249e+08		-9.177045e+08
-2.482249e+08		-2.073002e+09		5.841934e+08
-9.177045e+08		5.841934e+08		1.932860e+10
-1.779114e+09		-7.467092e+07		-9.802942e+08
-7.467092e+07		1.112523e+09		-1.118811e+09
-9.802942e+08		-1.118811e+09		2.178673e+10
-1.624911e+09		-3.858283e-05		-9.537944e+08
-3.858283e-05		2.577118e+09		3.084056e-04
-9.537944e+08		3.084056e-04		2.228076e+10
-1.779114e+09		7.467092e+07		-9.802942e+08
7.467092e+07		1.112523e+09		1.118811e+09
-9.802942e+08		1.118811e+09		2.178673e+10
-1.999905e+09		2.482249e+08		-9.177045e+08
2.482249e+08		-2.073002e+09		-5.841934e+08
-9.177045e+08		-5.841934e+08		1.932860e+10
2.085232e+09		-3.283319e+08		-1.627790e+09
-3.283319e+08		1.970407e+09		-7.156574e+08
-1.627790e+09		-7.156574e+08		-2.280041e+10
1.136261e+09		-3.892859e+08		-7.820599e+08
-3.892859e+08		-1.542932e+09		1.662213e+09
-7.820599e+08		1.662213e+09		-2.502757e+10
8.924265e+08		6.424945e+07		-8.542000e+08
6.424945e+07		-4.049369e+09		3.178250e+09
-8.542000e+08		3.178250e+09		-2.655609e+10
1.374029e+09		8.713675e+06		-6.357199e+08
8.713675e+06		-4.018863e+09		1.215325e+09
-6.357199e+08		1.215325e+09		-2.577692e+10
1.318299e+09		-1.985021e-04		-6.759185e+08
-1.985021e-04		-4.869918e+09		-4.752800e-04
-6.759185e+08		-4.752800e-04		-2.545986e+10
1.374029e+09		-8.713675e+06		-6.357199e+08
-8.713675e+06		-4.018863e+09		-1.215325e+09
-6.357199e+08		-1.215325e+09		-2.577692e+10
8.924265e+08		-6.424945e+07		-8.542000e+08
-6.424945e+07		-4.049369e+09		-3.178250e+09
-8.542000e+08		-3.178250e+09		-2.655609e+10
1.136261e+09		3.892859e+08		-7.820599e+08
3.892859e+08		-1.542932e+09		-1.662213e+09
-7.820599e+08		-1.662213e+09		-2.502757e+10
2.085232e+09		3.283319e+08		-1.627790e+09
3.283319e+08		1.970407e+09		7.156574e+08
-1.627790e+09		7.156574e+08		-2.280041e+10
1.936224e+07		-2.305315e+07		6.755187e+08
-2.305315e+07		1.078930e+09		-1.032249e+09
6.755187e+08		-1.032249e+09		-1.739828e+10
-1.786964e+09		4.333925e+08		2.491742e+09
4.333925e+08		-4.039650e+09		1.998005e+09
2.491742e+09		1.998005e+09		-2.094685e+10
-1.545680e+09		4.738383e-05		3.016379e+09
4.738383e-05		-4.794902e+09		-2.986919e-04
3.016379e+09		-2.986919e-04		-2.013586e+10
-1.786964e+09		-4.333925e+08		2.491742e+09
-4.333925e+08		-4.039650e+09		-1.998005e+09
2.491742e+09		-1.998005e+09		-2.094685e+10
1.936224e+07		2.305315e+07		6.755187e+08
2.305315e+07		1.078930e+09		1.032249e+09
6.755187e+08		1.032249e+09		-1.739828e+10
-1.235417e+09		1.359549e+08		2.845057e+09
1.359549e+08		4.095906e+08		-5.314500e+08
2.845057e+09		-5.314500e+08		-1.213558e+10
-2.656169e+09		2.663709e+08		4.602690e+09
2.663709e+08		-1.959401e+09		6.173662e+08
4.602690e+09		6.173662e+08		-1.402266e+10
-3.551043e+09		6.484759e+08		5.364906e+09
6.484759e+08		-3.739057e+09		1.335458e+09
5.364906e+09		1.335458e+09		-1.539782e+10
-3.335583e+09		1.290746e+08		5.896836e+09
1.290746e+08		-3.845801e+09		5.007594e+08
5.896836e+09		5.007594e+08		-1.500437e+10
-3.417034e+09		1.189914e-04		6.162150e+09
1.189914e-04		-4.394779e+09		-3.329068e-04
6.162150e+09		-3.329068e-04		-1.487728e+10
-3.335583e+09		-1.290746e+08		5.896836e+09
-1.290746e+08		-3.845801e+09		-5.007594e+08
5.896836e+09		-5.007594e+08		-1.500437e+10
-3.551043e+09		-6.484759e+08		5.364906e+09
-6.484759e+08		-3.739057e+09		-1.335458e+09
5.364906e+09		-1.335458e+09		-1.539782e+10
-2.656169e+09		-2.663709e+08		4.602690e+09
-2.663709e+08		-1.959401e+09		-6.173662e+08
4.602690e+09		-6.173662e+08		-1.402266e+10
-1.235417e+09		-1.359549e+08		2.845057e+09
-1.359549e+08		4.095906e+08		5.314500e+08
2.845057e+09		5.314500e+08		-1.213558e+10
4.394308e+07		3.777661e+08		2.343404e+09
3.777661e+08		5.774200e+08		-2.616135e+08
2.343404e+09		-2.616135e+08		-5.644993e+09
-1.152091e+09		8.765319e+08		4.564812e+09
8.765319e+08		-1.522014e+09		6.613558e+08
4.564812e+09		6.613558e+08		-7.290501e+09
-1.067293e+09		-1.853984e-04		5.227407e+09
-1.853984e-04		-1.848307e+09		-1.843451e-04
5.227407e+09		-1.843451e-04		-7.014566e+09
-1.152091e+09		-8.765319e+08		4.564812e+09
-8.765319e+08		-1.522014e+09		-6.613558e+08
4.564812e+09		-6.613558e+08		-7.290501e+09
4.394308e+07		-3.777661e+08		2.343404e+09
-3.777661e+08		5.774200e+08		2.616135e+08
2.343404e+09		2.616135e+08		-5.644993e+09
-1.865420e-04		3.718356e+08		2.555082e+09
3.718356e+08		-7.517636e-06		1.112749e-04
2.555082e+09		1.112749e-04		-2.494529e-04
-2.261996e-04		5.857259e+08		4.287394e+09
5.857259e+08		-1.624357e-04		3.624335e-05
4.287394e+09		3.624335e-05		-3.891401e-04
4.710928e-04		1.011982e+09		4.907442e+09
1.011982e+09		1.566112e-05		-2.149222e-05
4.907442e+09		-2.149222e-05		-2.208091e-04
2.943911e-04		2.701249e+08		5.394696e+09
2.701249e+08		-1.420453e-05		1.321372e-05
5.394696e+09		1.321372e-05		-2.960674e-04
3.906041e-04		-2.246406e-04		5.553131e+09
-2.246406e-04		-2.622977e-05		-7.766020e-05
5.553131e+09		-7.766020e-05		-3.023595e-04
7.671863e-05		-2.701249e+08		5.394696e+09
-2.701249e+08		-1.419894e-05		-1.101838e-04
5.394696e+09		-1.101838e-04		-3.933087e-04
-7.206090e-04		-1.011982e+09		4.907442e+09
-1.011982e+09		-2.177358e-04		-1.308974e-04
4.907442e+09		-1.308974e-04		-7.468425e-04
-9.033084e-05		-5.857259e+08		4.287394e+09
-5.857259e+08		1.199897e-04		-5.734665e-05
4.287394e+09		-5.734665e-05		-4.198924e-04
-2.028253e-04		-3.718356e+08		2.555082e+09
-3.718356e+08		1.958460e-04		5.837530e-05
2.555082e+09		5.837530e-05		-3.690794e-04
-4.394308e+07		3.777661e+08		2.343404e+09
3.777661e+08		-5.774200e+08		2.616135e+08
2.343404e+09		2.616135e+08		5.644993e+09
1.152091e+09		8.765319e+08		4.564812e+09
8.765319e+08		1.522014e+09		-6.613558e+08
4.564812e+09		-6.613558e+08		7.290501e+09
1.067293e+09		-1.670960e-04		5.227407e+09
-1.670960e-04		1.848307e+09		3.011618e-05
5.227407e+09		3.011618e-05		7.014566e+09
1.152091e+09		-8.765319e+08		4.564812e+09
-8.765319e+08		1.522014e+09		6.613558e+08
4.564812e+09		6.613558e+08		7.290501e+09
-4.394308e+07		-3.777661e+08		2.343404e+09
-3.777661e+08		-5.774200e+08		-2.616135e+08
2.343404e+09		-2.616135e+08		5.644993e+09
1.235417e+09		1.359549e+08		2.845057e+09
1.359549e+08		-4.095906e+08		5.314500e+08
2.845057e+09		5.314500e+08		1.213558e+10
2.656169e+09		2.663709e+08		4.602690e+09
2.663709e+08		1.959401e+09		-6.173662e+08
4.602690e+09		-6.173662e+08		1.402266e+10
3.551043e+09		6.484759e+08		5.364906e+09
6.484759e+08		3.739057e+09		-1.335458e+09
5.364906e+09		-1.335458e+09		1.539782e+10
3.335583e+09		1.290746e+08		5.896836e+09
1.290746e+08		3.845801e+09		-5.007594e+08
5.896836e+09		-5.007594e+08		1.500437e+10
3.417034e+09		9.216135e-05		6.162150e+09
9.216135e-05		4.394779e+09		8.366443e-05
6.162150e+09		8.366443e-05		1.487728e+10
3.335583e+09		-1.290746e+08		5.896836e+09
-1.290746e+08		3.845801e+09		5.007594e+08
5.896836e+09		5.007594e+08		1.500437e+10
3.551043e+09		-6.484759e+08		5.364906e+09
-6.484759e+08		3.739057e+09		1.335458e+09
5.364906e+09		1.335458e+09		1.539782e+10
2.656169e+09		-2.663709e+08		4.602690e+09
-2.663709e+08		1.959401e+09		6.173662e+08
4.602690e+09		6.173662e+08		1.402266e+10
1.235417e+09		-1.359549e+08		2.845057e+09
-1.359549e+08		-4.095906e+08		-5.314500e+08
2.845057e+09		-5.314500e+08		1.213558e+10
-1.936224e+07		-2.305315e+07		6.755187e+08
-2.305315e+07		-1.078930e+09		1.032249e+09
6.755187e+08		1.032249e+09		1.739828e+10
1.786964e+09		4.333925e+08		2.491742e+09
4.333925e+08		4.039650e+09		-1.998005e+09
2.491742e+09		-1.998005e+09		2.094685e+10
1.545680e+09		2.122018e-04		3.016379e+09
2.122018e-04		4.794902e+09		1.415834e-04
3.016379e+09		1.415834e-04		2.013586e+10
1.786964e+09		-4.333925e+08		2.491742e+09
-4.333925e+08		4.039650e+09		1.998005e+09
2.491742e+09		1.998005e+09		2.094685e+10
-1.936224e+07		2.305315e+07		6.755187e+08
2.305315e+07		-1.078930e+09		-1.032249e+09
6.755187e+08		-1.032249e+09		1.739828e+10
-2.085232e+09		-3.283319e+08		-1.627790e+09
-3.283319e+08		-1.970407e+09		7.156574e+08
-1.627790e+09		7.156574e+08		2.280041e+10
-1.136261e+09		-3.892859e+08		-7.820599e+08
-3.892859e+08		1.542932e+09		-1.662213e+09
-7.820599e+08		-1.662213e+09		2.502757e+10
-8.924265e+08		6.424945e+07		-8.542000e+08
6.424945e+07		4.049369e+09		-3.178250e+09
-8.542000e+08		-3.178250e+09		2.655609e+10
-1.374029e+09		8.713675e+06		-6.357199e+08
8.713675e+06		4.018863e+09		-1.215325e+09
-6.357199e+08		-1.215325e+09		2.577692e+10
-1.318299e+09		8.167606e-05		-6.759185e+08
8.167606e-05		4.869918e+09		4.124641e-04
-6.759185e+08		4.124641e-04		2.545986e+10
-1.374029e+09		-8.713675e+06		-6.357199e+08
-8.713675e+06		4.018863e+09		1.215325e+09
-6.357199e+08		1.215325e+09		2.577692e+10
-8.924265e+08		-6.424945e+07		-8.542000e+08
-6.424945e+07		4.049369e+09		3.178250e+09
-8.542000e+08		3.178250e+09		2.655609e+10
-1.136261e+09		3.892859e+08		-7.820599e+08
3.892859e+08		1.542932e+09		1.662213e+09
-7.820599e+08		1.662213e+09		2.502757e+10
-2.085232e+09		3.283319e+08		-1.627790e+09
3.283319e+08		-1.970407e+09		-7.156574e+08
-1.627790e+09		-7.156574e+08		2.280041e+10
-5.522716e+09		5.637649e+08		3.015738e+09
5.637649e+08		-5.671664e+09		5.865282e+09
3.015738e+09		5.865282e+09		-3.187625e+10
-5.516959e+09		2.141117e+07		5.393952e+09
2.141117e+07		-8.516471e+09		3.219753e+09
5.393952e+09		3.219753e+09		-3.091540e+10
-5.998012e+09		-2.358994e-04		5.627118e+09
-2.358994e-04		-1.038314e+10		-5.973876e-04
5.627118e+09		-5.973876e-04		-3.146299e+10
-5.516959e+09		-2.141117e+07		5.393952e+09
-2.141117e+07		-8.516471e+09		-3.219753e+09
5.393952e+09		-3.219753e+09		-3.091540e+10
-5.522716e+09		-5.637649e+08		3.015738e+09
-5.637649e+08		-5.671664e+09		-5.865282e+09
3.015738e+09		-5.865282e+09		-3.187625e+10
-3.205159e+09		4.524591e+08		6.905992e+08
4.524591e+08		-2.367328e+09		2.795110e+09
6.905992e+08		2.795110e+09		-1.424930e+10
-3.446112e+09		2.065728e+08		3.902018e+09
2.065728e+08		-3.715200e+09		1.382144e+09
3.902018e+09		1.382144e+09		-1.311672e+10
-3.612888e+09		-3.601611e-05		4.346080e+09
-3.601611e-05		-4.609487e+09		-2.663434e-04
4.346080e+09		-2.663434e-04		-1.311269e+10
-3.446112e+09		-2.065728e+08		3.902018e+09
-2.065728e+08		-3.715200e+09		-1.382144e+09
3.902018e+09		-1.382144e+09		-1.311672e+10
-3.205159e+09		-4.524591e+08		6.905992e+08
-4.524591e+08		-2.367328e+09		-2.795110e+09
6.905992e+08		-2.795110e+09		-1.424930e+10
-5.364418e-07		4.772170e+08		2.435753e+08
4.772170e+08		6.806850e-05		5.852245e-05
2.435753e+08		5.852245e-05		-2.101064e-05
-4.410744e-05		3.485559e+08		3.567178e+09
3.485559e+08		-1.263171e-04		-1.599710e-05
3.567178e+09		-1.599710e-05		-2.276003e-04
1.116097e-04		-1.740325e-04		3.956382e+09
-1.740325e-04		-1.004040e-04		-5.976530e-06
3.956382e+09		-5.976530e-06		-3.687143e-04
-2.602935e-04		-3.485559e+08		3.567178e+09
-3.485559e+08		-9.605289e-05		-6.859004e-05
3.567178e+09		-6.859004e-05		-5.401224e-04
-3.457069e-05		-4.772170e+08		2.435753e+08
-4.772170e+08		-2.025068e-05		-1.479983e-04
2.435753e+08		-1.479983e-04		-6.962121e-04
3.205159e+09		4.524591e+08		6.905992e+08
4.524591e+08		2.367328e+09		-2.795110e+09
6.905992e+08		-2.795110e+09		1.424930e+10
3.446112e+09		2.065728e+08		3.902018e+09
2.065728e+08		3.715200e+09		-1.382144e+09
3.902018e+09		-1.382144e+09		1.311672e+10
3.612888e+09		1.682080e-04		4.346080e+09
1.682080e-04		4.609487e+09		1.960099e-04
4.346080e+09		1.960099e-04		1.311269e+10
3.446112e+09		-2.065728e+08		3.902018e+09
-2.065728e+08		3.715200e+09		1.382144e+09
3.902018e+09		1.382144e+09		1.311672e+10
3.205159e+09		-4.524591e+08		6.905992e+08
-4.524591e+08		2.367328e+09		2.795110e+09
6.905992e+08		2.795110e+09		1.424930e+10
5.522716e+09		5.637649e+08		3.015738e+09
5.637649e+08		5.671664e+09		-5.865282e+09
3.015738e+09		-5.865282e+09		3.187625e+10
5.516959e+09		2.141117e+07		5.393952e+09
2.141117e+07		8.516471e+09		-3.219753e+09
5.393952e+09		-3.219753e+09		3.091540e+10
5.998012e+09		1.053875e-04		5.627118e+09
1.053875e-04		1.038314e+10		4.044473e-04
5.627118e+09		4.044473e-04		3.146299e+10
5.516959e+09		-2.141117e+07		5.393952e+09
-2.141117e+07		8.516471e+09		3.219753e+09
5.393952e+09		3.219753e+09		3.091540e+10
5.522716e+09		-5.637649e+08		3.015738e+09
-5.637649e+08		5.671664e+09		5.865282e+09
3.015738e+09		5.865282e+09		3.187625e+10
-1.982855e+10		-4.653931e-04		9.507704e+09
-4.653931e-04		-1.982855e+10		1.425327e+10
9.507704e+09		1.425327e+10		-4.413451e+10
-1.737529e+10		-5.905470e-05		1.132476e+10
-5.905470e-05		-1.737529e+10		8.005119e+09
1.132476e+10		8.005119e+09		-3.867402e+10
-1.609538e+10		3.551145e-05		1.244870e+10
3.551145e-05		-1.609538e+10		2.882994e+09
1.244870e+10		2.882994e+09		-3.582521e+10
-1.666608e+10		4.548952e-05		1.299724e+10
4.548952e-05		-1.666608e+10		1.233976e+09
1.299724e+10		1.233976e+09		-3.709548e+10
-1.736116e+10		-4.158365e-04		1.317664e+10
-4.158365e-04		-1.736116e+10		-6.522890e-04
1.317664e+10		-6.522890e-04		-3.864259e+10
-1.666608e+10		-9.280071e-05		1.299724e+10
-9.280071e-05		-1.666608e+10		-1.233976e+09
1.299724e+10		-1.233976e+09		-3.709548e+10
-1.609538e+10		2.115546e-05		1.244870e+10
2.115546e-05		-1.609538e+10		-2.882994e+09
1.244870e+10		-2.882994e+09		-3.582521e+10
-1.737529e+10		2.438948e-05		1.132476e+10
2.438948e-05		-1.737529e+10		-8.005119e+09
1.132476e+10		-8.005119e+09		-3.867402e+10
-1.982855e+10		-7.690489e-05		9.507704e+09
-7.690489e-05		-1.982855e+10		-1.425327e+10
9.507704e+09		-1.425327e+10		-4.413451e+10
-1.323881e+10		-7.739291e-07		3.187260e+09
-7.739291e-07		-1.323881e+10		1.060566e+10
3.187260e+09		1.060566e+10		-2.946703e+10
-9.480577e+09		-8.005020e-05		6.109113e+09
-8.005020e-05		-9.480577e+09		2.132042e+09
6.109113e+09		2.132042e+09		-2.110193e+10
-1.020607e+10		-9.298092e-05		6.538319e+09
-9.298092e-05		-1.020607e+10		-4.196726e-04
6.538319e+09		-4.196726e-04		-2.271674e+10
-9.480577e+09		-1.976229e-04		6.109113e+09
-1.976229e-04		-9.480577e+09		-2.132042e+09
6.109113e+09		-2.132042e+09		-2.110193e+10
-1.323881e+10		1.551807e-04		3.187260e+09
1.551807e-04		-1.323881e+10		-1.060566e+10
3.187260e+09		-1.060566e+10		-2.946703e+10
-7.617683e+09		2.685559e-04		-1.590617e+09
2.685559e-04		-7.617683e+09		7.003988e+09
-1.590617e+09		7.003988e+09		-1.695549e+10
-5.807516e+09		1.083687e-05		4.989458e+08
1.083687e-05		-5.807516e+09		3.910174e+09
4.989458e+08		3.910174e+09		-1.292641e+10
-4.614208e+09		-9.420444e-05		1.738279e+09
-9.420444e-05		-4.614208e+09		1.414637e+09
1.738279e+09		1.414637e+09		-1.027033e+10
-4.735005e+09		-1.452970e-04		1.960218e+09
-1.452970e-04		-4.735005e+09		5.819406e+08
1.960218e+09		5.819406e+08		-1.053920e+10
-5.001333e+09		-2.072541e-04		1.920593e+09
-2.072541e-04		-5.001333e+09		-1.898297e-04
1.920593e+09		-1.898297e-04		-1.113200e+10
-4.735005e+09		-1.591071e-05		1.960218e+09
-1.591071e-05		-4.735005e+09		-5.819406e+08
1.960218e+09		-5.819406e+08		-1.053920e+10
-4.614208e+09		4.272326e-05		1.738279e+09
4.272326e-05		-4.614208e+09		-1.414637e+09
1.738279e+09		-1.414637e+09		-1.027033e+10
-5.807516e+09		-6.381236e-05		4.989458e+08
-6.381236e-05		-5.807516e+09		-3.910174e+09
4.989458e+08		-3.910174e+09		-1.292641e+10
-7.617683e+09		1.321631e-04		-1.590617e+09
1.321631e-04		-7.617683e+09		-7.003988e+09
-1.590617e+09		-7.003988e+09		-1.695549e+10
-3.611583e+09		1.903181e-04		-2.029634e+09
1.903181e-04		-3.611583e+09		3.551231e+09
-2.029634e+09		3.551231e+09		-8.038684e+09
-2.085509e+09		-7.873261e-05		1.300214e+09
-7.873261e-05		-2.085509e+09		7.240979e+08
1.300214e+09		7.240979e+08		-4.641940e+09
-2.267537e+09		1.034639e-04		1.503179e+09
1.034639e-04		-2.267537e+09		5.242182e-05
1.503179e+09		5.242182e-05		-5.047099e+09
-2.085509e+09		-1.197122e-05		1.300214e+09
-1.197122e-05		-2.085509e+09		-7.240979e+08
1.300214e+09		-7.240979e+08		-4.641940e+09
-3.611583e+09		-1.184866e-04		-2.029634e+09
-1.184866e-04		-3.611583e+09		-3.551231e+09
-2.029634e+09		-3.551231e+09		-8.038684e+09
-1.283437e-04		1.054276e-04		-1.769455e+09
1.054276e-04		-9.790063e-06		1.024343e-04
-1.769455e+09		1.024343e-04		1.111925e-04
2.688169e-05		-6.947030e-07		4.235521e+08
-6.947030e-07		5.543232e-06		6.571785e-05
4.235521e+08		6.571785e-05		-9.715557e-06
-1.925230e-04		-1.613520e-04		1.594838e+09
-1.613520e-04		-1.110360e-04		4.994543e-05
1.594838e+09		4.994543e-05		-1.678392e-04
-7.215142e-05		-2.185698e-05		1.854442e+09
-2.185698e-05		-9.919703e-05		1.286096e-04
1.854442e+09		1.286096e-04		-2.475381e-04
-1.625568e-04		-9.121874e-05		1.882492e+09
-9.121874e-05		-1.794044e-04		1.876876e-04
1.882492e+09		1.876876e-04		-4.164279e-04
-2.804846e-04		-1.395890e-04		1.854442e+09
-1.395890e-04		-2.123564e-04		1.151785e-04
1.854442e+09		1.151785e-04		-4.037917e-04
-3.037974e-05		-2.220662e-04		1.594838e+09
-2.220662e-04		-8.087605e-05		-4.324317e-05
1.594838e+09		-4.324317e-05		-2.187937e-04
-4.200637e-04		-4.078913e-05		4.235521e+08
-4.078913e-05		-3.419816e-04		-1.897365e-04
4.235521e+08		-1.897365e-04		-6.831288e-04
-3.680587e-04		-3.004605e-04		-1.769455e+09
-3.004605e-04		-4.323721e-04		-3.571510e-04
-1.769455e+09		-3.571510e-04		-1.027703e-03
3.611583e+09		-2.611948e-04		-2.029634e+09
-2.611948e-04		3.611583e+09		-3.551231e+09
-2.029634e+09		-3.551231e+09		8.038684e+09
2.085509e+09		-2.815227e-05		1.300214e+09
-2.815227e-05		2.085509e+09		-7.240979e+08
1.300214e+09		-7.240979e+08		4.641940e+09
2.267537e+09		8.271169e-05		1.503179e+09
8.271169e-05		2.267537e+09		1.390763e-04
1.503179e+09		1.390763e-04		5.047099e+09
2.085509e+09		6.467104e-06		1.300214e+09
6.467104e-06		2.085509e+09		7.240979e+08
1.300214e+09		7.240979e+08		4.641940e+09
3.611583e+09		-3.740191e-06		-2.029634e+09
-3.740191e-06		3.611583e+09		3.551231e+09
-2.029634e+09		3.551231e+09		8.038684e+09
7.617683e+09		-5.248939e-04		-1.590617e+09
-5.248939e-04		7.617683e+09		-7.003988e+09
-1.590617e+09		-7.003988e+09		1.695549e+10
5.807516e+09		-1.654036e-04		4.989458e+08
-1.654036e-04		5.807516e+09		-3.910174e+09
4.989458e+08		-3.910174e+09		1.292641e+10
4.614208e+09		-1.696923e-04		1.738279e+09
-1.696923e-04		4.614208e+09		-1.414637e+09
1.738279e+09		-1.414637e+09		1.027033e+10
4.735005e+09		-7.133608e-05		1.960218e+09
-7.133608e-05		4.735005e+09		-5.819406e+08
1.960218e+09		-5.819406e+08		1.053920e+10
5.001333e+09		-1.132301e-04		1.920593e+09
-1.132301e-04		5.001333e+09		1.593661e-04
1.920593e+09		1.593661e-04		1.113200e+10
4.735005e+09		-3.575941e-05		1.960218e+09
-3.575941e-05		4.735005e+09		5.819406e+08
1.960218e+09		5.819406e+08		1.053920e+10
4.614208e+09		-2.294523e-05		1.738279e+09
-2.294523e-05		4.614208e+09		1.414637e+09
1.738279e+09		1.414637e+09		1.027033e+10
5.807516e+09		-1.071598e-04		4.989458e+08
-1.071598e-04		5.807516e+09		3.910174e+09
4.989458e+08		3.910174e+09		1.292641e+10
7.617683e+09		6.887317e-05		-1.590617e+09
6.887317e-05		7.617683e+09		7.003988e+09
-1.590617e+09		7.003988e+09		1.695549e+10
1.323881e+10		-6.516976e-05		3.187260e+09
-6.516976e-05		1.323881e+10		-1.060566e+10
3.187260e+09		-1.060566e+10		2.946703e+10
9.480577e+09		-3.834598e-05		6.109113e+09
-3.834598e-05		9.480577e+09		-2.132042e+09
6.109113e+09		-2.132042e+09		2.110193e+10
1.020607e+10		-2.054733e-04		6.538319e+09
-2.054733e-04		1.020607e+10		2.070069e-04
6.538319e+09		2.070069e-04		2.271674e+10
9.480577e+09		-4.843972e-05		6.109113e+09
-4.843972e-05		9.480577e+09		2.132042e+09
6.109113e+09		2.132042e+09		2.110193e+10
1.323881e+10		-7.325411e-05		3.187260e+09
-7.325411e-05		1.323881e+10		1.060566e+10
3.187260e+09		1.060566e+10		2.946703e+10
1.982855e+10		-4.201033e-04		9.507704e+09
-4.201033e-04		1.982855e+10		-1.425327e+10
9.507704e+09		-1.425327e+10		4.413451e+10
1.737529e+10		-8.129515e-06		1.132476e+10
-8.129515e-06		1.737529e+10		-8.005119e+09
1.132476e+10		-8.005119e+09		3.867402e+10
1.609538e+10		-1.904735e-04		1.244870e+10
-1.904735e-04		1.609538e+10		-2.882994e+09
1.244870e+10		-2.882994e+09		3.582521e+10
1.666608e+10		-5.344185e-05		1.299724e+10
-5.344185e-05		1.666608e+10		-1.233976e+09
1.299724e+10		-1.233976e+09		3.709548e+10
1.736116e+10		-1.790506e-04		1.317664e+10
-1.790506e-04		1.736116e+10		5.032420e-04
1.317664e+10		5.032420e-04		3.864259e+10
1.666608e+10		-3.136043e-04		1.299724e+10
-3.136043e-04		1.666608e+10		1.233976e+09
1.299724e+10		1.233976e+09		3.709548e+10
1.609538e+10		-1.553260e-05		1.244870e+10
-1.553260e-05		1.609538e+10		2.882994e+09
1.244870e+10		2.882994e+09		3.582521e+10
1.737529e+10		-7.420778e-06		1.132476e+10
-7.420778e-06		1.737529e+10		8.005119e+09
1.132476e+10		8.005119e+09		3.867402e+10
1.982855e+10		1.210570e-04		9.507704e+09
1.210570e-04		1.982855e+10		1.425327e+10
9.507704e+09		1.425327e+10		4.413451e+10
