# vtk DataFile Version 3.0
output from step 1
ASCII
DATASET UNSTRUCTURED_GRID
POINTS 1325 double
-5.000000e-01		-5.000000e-01		-1.500000e+00
-5.000000e-01		-3.750000e-01		-1.500000e+00
-5.000000e-01		-2.500000e-01		-1.500000e+00
-5.000000e-01		-1.250000e-01		-1.500000e+00
-5.000000e-01		0.000000e+00		-1.500000e+00
-5.000000e-01		1.250000e-01		-1.500000e+00
-5.000000e-01		2.500000e-01		-1.500000e+00
-5.000000e-01		3.750000e-01		-1.500000e+00
-5.000000e-01		5.000000e-01		-1.500000e+00
-3.750000e-01		-5.000000e-01		-1.500000e+00
-3.750000e-01		-2.500000e-01		-1.500000e+00
-3.750000e-01		0.000000e+00		-1.500000e+00
-3.750000e-01		2.500000e-01		-1.500000e+00
-3.750000e-01		5.000000e-01		-1.500000e+00
-2.500000e-01		-5.000000e-01		-1.500000e+00
-2.500000e-01		-3.750000e-01		-1.500000e+00
-2.500000e-01		-2.500000e-01		-1.500000e+00
-2.500000e-01		-1.250000e-01		-1.500000e+00
-2.500000e-01		0.000000e+00		-1.500000e+00
-2.500000e-01		1.250000e-01		-1.500000e+00
-2.500000e-01		2.500000e-01		-1.500000e+00
-2.500000e-01		3.750000e-01		-1.500000e+00
-2.500000e-01		5.000000e-01		-1.500000e+00
-1.250000e-01		-5.000000e-01		-1.500000e+00
-1.250000e-01		-2.500000e-01		-1.500000e+00
-1.250000e-01		0.000000e+00		-1.500000e+00
-1.250000e-01		2.500000e-01		-1.500000e+00
-1.250000e-01		5.000000e-01		-1.500000e+00
0.000000e+00		-5.000000e-01		-1.500000e+00
0.000000e+00		-3.750000e-01		-1.500000e+00
0.000000e+00		-2.500000e-01		-1.500000e+00
0.000000e+00		-1.250000e-01		-1.500000e+00
0.000000e+00		0.000000e+00		-1.500000e+00
0.000000e+00		1.250000e-01		-1.500000e+00
0.000000e+00		2.500000e-01		-1.500000e+00
0.000000e+00		3.750000e-01		-1.500000e+00
0.000000e+00		5.000000e-01		-1.500000e+00
1.250000e-01		-5.000000e-01		-1.500000e+00
1.250000e-01		-2.500000e-01		-1.500000e+00
1.250000e-01		0.000000e+00		-1.500000e+00
1.250000e-01		2.500000e-01		-1.500000e+00
1.250000e-01		5.000000e-01		-1.500000e+00
2.500000e-01		-5.000000e-01		-1.500000e+00
2.500000e-01		-3.750000e-01		-1.500000e+00
2.500000e-01		-2.500000e-01		-1.500000e+00
2.500000e-01		-1.250000e-01		-1.500000e+00
2.500000e-01		0.000000e+00		-1.500000e+00
2.500000e-01		1.250000e-01		-1.500000e+00
2.500000e-01		2.500000e-01		-1.500000e+00
2.500000e-01		3.750000e-01		-1.500000e+00
2.500000e-01		5.000000e-01		-1.500000e+00
3.750000e-01		-5.000000e-01		-1.500000e+00
3.750000e-01		-2.500000e-01		-1.500000e+00
3.750000e-01		0.000000e+00		-1.500000e+00
3.750000e-01		2.500000e-01		-1.500000e+00
3.750000e-01		5.000000e-01		-1.500000e+00
5.000000e-01		-5.000000e-01		-1.500000e+00
5.000000e-01		-3.750000e-01		-1.500000e+00
5.000000e-01		-2.500000e-01		-1.500000e+00
5.000000e-01		-1.250000e-01		-1.500000e+00
5.000000e-01		0.000000e+00		-1.500000e+00
5.000000e-01		1.250000e-01		-1.500000e+00
5.000000e-01		2.500000e-01		-1.500000e+00
5.000000e-01		3.750000e-01		-1.500000e+00
5.000000e-01		5.000000e-01		-1.500000e+00
-5.000000e-01		-5.000000e-01		-1.392857e+00
-5.000000e-01		-2.500000e-01		-1.392857e+00
-5.000000e-01		0.000000e+00		-1.392857e+00
-5.000000e-01		2.500000e-01		-1.392857e+00
-5.000000e-01		5.000000e-01		-1.392857e+00
-2.500000e-01		-5.000000e-01		-1.392857e+00
-2.500000e-01		-2.500000e-01		-1.392857e+00
-2.500000e-01		0.000000e+00		-1.392857e+00
-2.500000e-01		2.500000e-01		-1.392857e+00
-2.500000e-01		5.000000e-01		-1.392857e+00
0.000000e+00		-5.000000e-01		-1.392857e+00
0.000000e+00		-2.500000e-01		-1.392857e+00
0.000000e+00		0.000000e+00		-1.392857e+00
0.000000e+00		2.500000e-01		-1.392857e+00
0.000000e+00		5.000000e-01		-1.392857e+00
2.500000e-01		-5.000000e-01		-1.392857e+00
2.500000e-01		-2.500000e-01		-1.392857e+00
2.500000e-01		0.000000e+00		-1.392857e+00
2.500000e-01		2.500000e-01		-1.392857e+00
2.500000e-01		5.000000e-01		-1.392857e+00
5.000000e-01		-5.000000e-01		-1.392857e+00
5.000000e-01		-2.500000e-01		-1.392857e+00
5.000000e-01		0.000000e+00		-1.392857e+00
5.000000e-01		2.500000e-01		-1.392857e+00
5.000000e-01		5.000000e-01		-1.392857e+00
-5.000000e-01		-5.000000e-01		-1.285714e+00
-5.000000e-01		-3.750000e-01		-1.285714e+00
-5.000000e-01		-2.500000e-01		-1.285714e+00
-5.000000e-01		-1.250000e-01		-1.285714e+00
-5.000000e-01		0.000000e+00		-1.285714e+00
-5.000000e-01		1.250000e-01		-1.285714e+00
-5.000000e-01		2.500000e-01		-1.285714e+00
-5.000000e-01		3.750000e-01		-1.285714e+00
-5.000000e-01		5.000000e-01		-1.285714e+00
-3.750000e-01		-5.000000e-01		-1.285714e+00
-3.750000e-01		-2.500000e-01		-1.285714e+00
-3.750000e-01		0.000000e+00		-1.285714e+00
-3.750000e-01		2.500000e-01		-1.285714e+00
-3.750000e-01		5.000000e-01		-1.285714e+00
-2.500000e-01		-5.000000e-01		-1.285714e+00
-2.500000e-01		-3.750000e-01		-1.285714e+00
-2.500000e-01		-2.500000e-01		-1.285714e+00
-2.500000e-01		-1.250000e-01		-1.285714e+00
-2.500000e-01		0.000000e+00		-1.285714e+00
-2.500000e-01		1.250000e-01		-1.285714e+00
-2.500000e-01		2.500000e-01		-1.285714e+00
-2.500000e-01		3.750000e-01		-1.285714e+00
-2.500000e-01		5.000000e-01		-1.285714e+00
-1.250000e-01		-5.000000e-01		-1.285714e+00
-1.250000e-01		-2.500000e-01		-1.285714e+00
-1.250000e-01		0.000000e+00		-1.285714e+00
-1.250000e-01		2.500000e-01		-1.285714e+00
-1.250000e-01		5.000000e-01		-1.285714e+00
0.000000e+00		-5.000000e-01		-1.285714e+00
0.000000e+00		-3.750000e-01		-1.285714e+00
0.000000e+00		-2.500000e-01		-1.285714e+00
0.000000e+00		-1.250000e-01		-1.285714e+00
0.000000e+00		0.000000e+00		-1.285714e+00
0.000000e+00		1.250000e-01		-1.285714e+00
0.000000e+00		2.500000e-01		-1.285714e+00
0.000000e+00		3.750000e-01		-1.285714e+00
0.000000e+00		5.000000e-01		-1.285714e+00
1.250000e-01		-5.000000e-01		-1.285714e+00
1.250000e-01		-2.500000e-01		-1.285714e+00
1.250000e-01		0.000000e+00		-1.285714e+00
1.250000e-01		2.500000e-01		-1.285714e+00
1.250000e-01		5.000000e-01		-1.285714e+00
2.500000e-01		-5.000000e-01		-1.285714e+00
2.500000e-01		-3.750000e-01		-1.285714e+00
2.500000e-01		-2.500000e-01		-1.285714e+00
2.500000e-01		-1.250000e-01		-1.285714e+00
2.500000e-01		0.000000e+00		-1.285714e+00
2.500000e-01		1.250000e-01		-1.285714e+00
2.500000e-01		2.500000e-01		-1.285714e+00
2.500000e-01		3.750000e-01		-1.285714e+00
2.500000e-01		5.000000e-01		-1.285714e+00
3.750000e-01		-5.000000e-01		-1.285714e+00
3.750000e-01		-2.500000e-01		-1.285714e+00
3.750000e-01		0.000000e+00		-1.285714e+00
3.750000e-01		2.500000e-01		-1.285714e+00
3.750000e-01		5.000000e-01		-1.285714e+00
5.000000e-01		-5.000000e-01		-1.285714e+00
5.000000e-01		-3.750000e-01		-1.285714e+00
5.000000e-01		-2.500000e-01		-1.285714e+00
5.000000e-01		-1.250000e-01		-1.285714e+00
5.000000e-01		0.000000e+00		-1.285714e+00
5.000000e-01		1.250000e-01		-1.285714e+00
5.000000e-01		2.500000e-01		-1.285714e+00
5.000000e-01		3.750000e-01		-1.285714e+00
5.000000e-01		5.000000e-01		-1.285714e+00
-5.000000e-01		-5.000000e-01		-1.178571e+00
-5.000000e-01		-2.500000e-01		-1.178571e+00
-5.000000e-01		0.000000e+00		-1.178571e+00
-5.000000e-01		2.500000e-01		-1.178571e+00
-5.000000e-01		5.000000e-01		-1.178571e+00
-2.500000e-01		-5.000000e-01		-1.178571e+00
-2.500000e-01		-2.500000e-01		-1.178571e+00
-2.500000e-01		0.000000e+00		-1.178571e+00
-2.500000e-01		2.500000e-01		-1.178571e+00
-2.500000e-01		5.000000e-01		-1.178571e+00
0.000000e+00		-5.000000e-01		-1.178571e+00
0.000000e+00		-2.500000e-01		-1.178571e+00
0.000000e+00		0.000000e+00		-1.178571e+00
0.000000e+00		2.500000e-01		-1.178571e+00
0.000000e+00		5.000000e-01		-1.178571e+00
2.500000e-01		-5.000000e-01		-1.178571e+00
2.500000e-01		-2.500000e-01		-1.178571e+00
2.500000e-01		0.000000e+00		-1.178571e+00
2.500000e-01		2.500000e-01		-1.178571e+00
2.500000e-01		5.000000e-01		-1.178571e+00
5.000000e-01		-5.000000e-01		-1.178571e+00
5.000000e-01		-2.500000e-01		-1.178571e+00
5.000000e-01		0.000000e+00		-1.178571e+00
5.000000e-01		2.500000e-01		-1.178571e+00
5.000000e-01		5.000000e-01		-1.178571e+00
-5.000000e-01		-5.000000e-01		-1.071429e+00
-5.000000e-01		-3.750000e-01		-1.071429e+00
-5.000000e-01		-2.500000e-01		-1.071429e+00
-5.000000e-01		-1.250000e-01		-1.071429e+00
-5.000000e-01		0.000000e+00		-1.071429e+00
-5.000000e-01		1.250000e-01		-1.071429e+00
-5.000000e-01		2.500000e-01		-1.071429e+00
-5.000000e-01		3.750000e-01		-1.071429e+00
-5.000000e-01		5.000000e-01		-1.071429e+00
-3.750000e-01		-5.000000e-01		-1.071429e+00
-3.750000e-01		-2.500000e-01		-1.071429e+00
-3.750000e-01		0.000000e+00		-1.071429e+00
-3.750000e-01		2.500000e-01		-1.071429e+00
-3.750000e-01		5.000000e-01		-1.071429e+00
-2.500000e-01		-5.000000e-01		-1.071429e+00
-2.500000e-01		-3.750000e-01		-1.071429e+00
-2.500000e-01		-2.500000e-01		-1.071429e+00
-2.500000e-01		-1.250000e-01		-1.071429e+00
-2.500000e-01		0.000000e+00		-1.071429e+00
-2.500000e-01		1.250000e-01		-1.071429e+00
-2.500000e-01		2.500000e-01		-1.071429e+00
-2.500000e-01		3.750000e-01		-1.071429e+00
-2.500000e-01		5.000000e-01		-1.071429e+00
-1.250000e-01		-5.000000e-01		-1.071429e+00
-1.250000e-01		-2.500000e-01		-1.071429e+00
-1.250000e-01		0.000000e+00		-1.071429e+00
-1.250000e-01		2.500000e-01		-1.071429e+00
-1.250000e-01		5.000000e-01		-1.071429e+00
0.000000e+00		-5.000000e-01		-1.071429e+00
0.000000e+00		-3.750000e-01		-1.071429e+00
0.000000e+00		-2.500000e-01		-1.071429e+00
0.000000e+00		-1.250000e-01		-1.071429e+00
0.000000e+00		0.000000e+00		-1.071429e+00
0.000000e+00		1.250000e-01		-1.071429e+00
0.000000e+00		2.500000e-01		-1.071429e+00
0.000000e+00		3.750000e-01		-1.071429e+00
0.000000e+00		5.000000e-01		-1.071429e+00
1.250000e-01		-5.000000e-01		-1.071429e+00
1.250000e-01		-2.500000e-01		-1.071429e+00
1.250000e-01		0.000000e+00		-1.071429e+00
1.250000e-01		2.500000e-01		-1.071429e+00
1.250000e-01		5.000000e-01		-1.071429e+00
2.500000e-01		-5.000000e-01		-1.071429e+00
2.500000e-01		-3.750000e-01		-1.071429e+00
2.500000e-01		-2.500000e-01		-1.071429e+00
2.500000e-01		-1.250000e-01		-1.071429e+00
2.500000e-01		0.000000e+00		-1.071429e+00
2.500000e-01		1.250000e-01		-1.071429e+00
2.500000e-01		2.500000e-01		-1.071429e+00
2.500000e-01		3.750000e-01		-1.071429e+00
2.500000e-01		5.000000e-01		-1.071429e+00
3.750000e-01		-5.000000e-01		-1.071429e+00
3.750000e-01		-2.500000e-01		-1.071429e+00
3.750000e-01		0.000000e+00		-1.071429e+00
3.750000e-01		2.500000e-01		-1.071429e+00
3.750000e-01		5.000000e-01		-1.071429e+00
5.000000e-01		-5.000000e-01		-1.071429e+00
5.000000e-01		-3.750000e-01		-1.071429e+00
5.000000e-01		-2.500000e-01		-1.071429e+00
5.000000e-01		-1.250000e-01		-1.071429e+00
5.000000e-01		0.000000e+00		-1.071429e+00
5.000000e-01		1.250000e-01		-1.071429e+00
5.000000e-01		2.500000e-01		-1.071429e+00
5.000000e-01		3.750000e-01		-1.071429e+00
5.000000e-01		5.000000e-01		-1.071429e+00
-5.000000e-01		-5.000000e-01		-9.642857e-01
-5.000000e-01		-2.500000e-01		-9.642857e-01
-5.000000e-01		0.000000e+00		-9.642857e-01
-5.000000e-01		2.500000e-01		-9.642857e-01
-5.000000e-01		5.000000e-01		-9.642857e-01
-2.500000e-01		-5.000000e-01		-9.642857e-01
-2.500000e-01		-2.500000e-01		-9.642857e-01
-2.500000e-01		0.000000e+00		-9.642857e-01
-2.500000e-01		2.500000e-01		-9.642857e-01
-2.500000e-01		5.000000e-01		-9.642857e-01
0.000000e+00		-5.000000e-01		-9.642857e-01
0.000000e+00		-2.500000e-01		-9.642857e-01
0.000000e+00		0.000000e+00		-9.642857e-01
0.000000e+00		2.500000e-01		-9.642857e-01
0.000000e+00		5.000000e-01		-9.642857e-01
2.500000e-01		-5.000000e-01		-9.642857e-01
2.500000e-01		-2.500000e-01		-9.642857e-01
2.500000e-01		0.000000e+00		-9.642857e-01
2.500000e-01		2.500000e-01		-9.642857e-01
2.500000e-01		5.000000e-01		-9.642857e-01
5.000000e-01		-5.000000e-01		-9.642857e-01
5.000000e-01		-2.500000e-01		-9.642857e-01
5.000000e-01		0.000000e+00		-9.642857e-01
5.000000e-01		2.500000e-01		-9.642857e-01
5.000000e-01		5.000000e-01		-9.642857e-01
-5.000000e-01		-5.000000e-01		-8.571429e-01
-5.000000e-01		-3.750000e-01		-8.571429e-01
-5.000000e-01		-2.500000e-01		-8.571429e-01
-5.000000e-01		-1.250000e-01		-8.571429e-01
-5.000000e-01		0.000000e+00		-8.571429e-01
-5.000000e-01		1.250000e-01		-8.571429e-01
-5.000000e-01		2.500000e-01		-8.571429e-01
-5.000000e-01		3.750000e-01		-8.571429e-01
-5.000000e-01		5.000000e-01		-8.571429e-01
-3.750000e-01		-5.000000e-01		-8.571429e-01
-3.750000e-01		-2.500000e-01		-8.571429e-01
-3.750000e-01		0.000000e+00		-8.571429e-01
-3.750000e-01		2.500000e-01		-8.571429e-01
-3.750000e-01		5.000000e-01		-8.571429e-01
-2.500000e-01		-5.000000e-01		-8.571429e-01
-2.500000e-01		-3.750000e-01		-8.571429e-01
-2.500000e-01		-2.500000e-01		-8.571429e-01
-2.500000e-01		-1.250000e-01		-8.571429e-01
-2.500000e-01		0.000000e+00		-8.571429e-01
-2.500000e-01		1.250000e-01		-8.571429e-01
-2.500000e-01		2.500000e-01		-8.571429e-01
-2.500000e-01		3.750000e-01		-8.571429e-01
-2.500000e-01		5.000000e-01		-8.571429e-01
-1.250000e-01		-5.000000e-01		-8.571429e-01
-1.250000e-01		-2.500000e-01		-8.571429e-01
-1.250000e-01		0.000000e+00		-8.571429e-01
-1.250000e-01		2.500000e-01		-8.571429e-01
-1.250000e-01		5.000000e-01		-8.571429e-01
0.000000e+00		-5.000000e-01		-8.571429e-01
0.000000e+00		-3.750000e-01		-8.571429e-01
0.000000e+00		-2.500000e-01		-8.571429e-01
0.000000e+00		-1.250000e-01		-8.571429e-01
0.000000e+00		0.000000e+00		-8.571429e-01
0.000000e+00		1.250000e-01		-8.571429e-01
0.000000e+00		2.500000e-01		-8.571429e-01
0.000000e+00		3.750000e-01		-8.571429e-01
0.000000e+00		5.000000e-01		-8.571429e-01
1.250000e-01		-5.000000e-01		-8.571429e-01
1.250000e-01		-2.500000e-01		-8.571429e-01
1.250000e-01		0.000000e+00		-8.571429e-01
1.250000e-01		2.500000e-01		-8.571429e-01
1.250000e-01		5.000000e-01		-8.571429e-01
2.500000e-01		-5.000000e-01		-8.571429e-01
2.500000e-01		-3.750000e-01		-8.571429e-01
2.500000e-01		-2.500000e-01		-8.571429e-01
2.500000e-01		-1.250000e-01		-8.571429e-01
2.500000e-01		0.000000e+00		-8.571429e-01
2.500000e-01		1.250000e-01		-8.571429e-01
2.500000e-01		2.500000e-01		-8.571429e-01
2.500000e-01		3.750000e-01		-8.571429e-01
2.500000e-01		5.000000e-01		-8.571429e-01
3.750000e-01		-5.000000e-01		-8.571429e-01
3.750000e-01		-2.500000e-01		-8.571429e-01
3.750000e-01		0.000000e+00		-8.571429e-01
3.750000e-01		2.500000e-01		-8.571429e-01
3.750000e-01		5.000000e-01		-8.571429e-01
5.000000e-01		-5.000000e-01		-8.571429e-01
5.000000e-01		-3.750000e-01		-8.571429e-01
5.000000e-01		-2.500000e-01		-8.571429e-01
5.000000e-01		-1.250000e-01		-8.571429e-01
5.000000e-01		0.000000e+00		-8.571429e-01
5.000000e-01		1.250000e-01		-8.571429e-01
5.000000e-01		2.500000e-01		-8.571429e-01
5.000000e-01		3.750000e-01		-8.571429e-01
5.000000e-01		5.000000e-01		-8.571429e-01
-5.000000e-01		-5.000000e-01		-7.500000e-01
-5.000000e-01		-2.500000e-01		-7.500000e-01
-5.000000e-01		0.000000e+00		-7.500000e-01
-5.000000e-01		2.500000e-01		-7.500000e-01
-5.000000e-01		5.000000e-01		-7.500000e-01
-2.500000e-01		-5.000000e-01		-7.500000e-01
-2.500000e-01		-2.500000e-01		-7.500000e-01
-2.500000e-01		0.000000e+00		-7.500000e-01
-2.500000e-01		2.500000e-01		-7.500000e-01
-2.500000e-01		5.000000e-01		-7.500000e-01
0.000000e+00		-5.000000e-01		-7.500000e-01
0.000000e+00		-2.500000e-01		-7.500000e-01
0.000000e+00		0.000000e+00		-7.500000e-01
0.000000e+00		2.500000e-01		-7.500000e-01
0.000000e+00		5.000000e-01		-7.500000e-01
2.500000e-01		-5.000000e-01		-7.500000e-01
2.500000e-01		-2.500000e-01		-7.500000e-01
2.500000e-01		0.000000e+00		-7.500000e-01
2.500000e-01		2.500000e-01		-7.500000e-01
2.500000e-01		5.000000e-01		-7.500000e-01
5.000000e-01		-5.000000e-01		-7.500000e-01
5.000000e-01		-2.500000e-01		-7.500000e-01
5.000000e-01		0.000000e+00		-7.500000e-01
5.000000e-01		2.500000e-01		-7.500000e-01
5.000000e-01		5.000000e-01		-7.500000e-01
-5.000000e-01		-5.000000e-01		-6.428571e-01
-5.000000e-01		-3.750000e-01		-6.428571e-01
-5.000000e-01		-2.500000e-01		-6.428571e-01
-5.000000e-01		-1.250000e-01		-6.428571e-01
-5.000000e-01		0.000000e+00		-6.428571e-01
-5.000000e-01		1.250000e-01		-6.428571e-01
-5.000000e-01		2.500000e-01		-6.428571e-01
-5.000000e-01		3.750000e-01		-6.428571e-01
-5.000000e-01		5.000000e-01		-6.428571e-01
-3.750000e-01		-5.000000e-01		-6.428571e-01
-3.750000e-01		-2.500000e-01		-6.428571e-01
-3.750000e-01		0.000000e+00		-6.428571e-01
-3.750000e-01		2.500000e-01		-6.428571e-01
-3.750000e-01		5.000000e-01		-6.428571e-01
-2.500000e-01		-5.000000e-01		-6.428571e-01
-2.500000e-01		-3.750000e-01		-6.428571e-01
-2.500000e-01		-2.500000e-01		-6.428571e-01
-2.500000e-01		-1.250000e-01		-6.428571e-01
-2.500000e-01		0.000000e+00		-6.428571e-01
-2.500000e-01		1.250000e-01		-6.428571e-01
-2.500000e-01		2.500000e-01		-6.428571e-01
-2.500000e-01		3.750000e-01		-6.428571e-01
-2.500000e-01		5.000000e-01		-6.428571e-01
-1.250000e-01		-5.000000e-01		-6.428571e-01
-1.250000e-01		-2.500000e-01		-6.428571e-01
-1.250000e-01		0.000000e+00		-6.428571e-01
-1.250000e-01		2.500000e-01		-6.428571e-01
-1.250000e-01		5.000000e-01		-6.428571e-01
0.000000e+00		-5.000000e-01		-6.428571e-01
0.000000e+00		-3.750000e-01		-6.428571e-01
0.000000e+00		-2.500000e-01		-6.428571e-01
0.000000e+00		-1.250000e-01		-6.428571e-01
0.000000e+00		0.000000e+00		-6.428571e-01
0.000000e+00		1.250000e-01		-6.428571e-01
0.000000e+00		2.500000e-01		-6.428571e-01
0.000000e+00		3.750000e-01		-6.428571e-01
0.000000e+00		5.000000e-01		-6.428571e-01
1.250000e-01		-5.000000e-01		-6.428571e-01
1.250000e-01		-2.500000e-01		-6.428571e-01
1.250000e-01		0.000000e+00		-6.428571e-01
1.250000e-01		2.500000e-01		-6.428571e-01
1.250000e-01		5.000000e-01		-6.428571e-01
2.500000e-01		-5.000000e-01		-6.428571e-01
2.500000e-01		-3.750000e-01		-6.428571e-01
2.500000e-01		-2.500000e-01		-6.428571e-01
2.500000e-01		-1.250000e-01		-6.428571e-01
2.500000e-01		0.000000e+00		-6.428571e-01
2.500000e-01		1.250000e-01		-6.428571e-01
2.500000e-01		2.500000e-01		-6.428571e-01
2.500000e-01		3.750000e-01		-6.428571e-01
2.500000e-01		5.000000e-01		-6.428571e-01
3.750000e-01		-5.000000e-01		-6.428571e-01
3.750000e-01		-2.500000e-01		-6.428571e-01
3.750000e-01		0.000000e+00		-6.428571e-01
3.750000e-01		2.500000e-01		-6.428571e-01
3.750000e-01		5.000000e-01		-6.428571e-01
5.000000e-01		-5.000000e-01		-6.428571e-01
5.000000e-01		-3.750000e-01		-6.428571e-01
5.000000e-01		-2.500000e-01		-6.428571e-01
5.000000e-01		-1.250000e-01		-6.428571e-01
5.000000e-01		0.000000e+00		-6.428571e-01
5.000000e-01		1.250000e-01		-6.428571e-01
5.000000e-01		2.500000e-01		-6.428571e-01
5.000000e-01		3.750000e-01		-6.428571e-01
5.000000e-01		5.000000e-01		-6.428571e-01
-5.000000e-01		-5.000000e-01		-5.357143e-01
-5.000000e-01		-2.500000e-01		-5.357143e-01
-5.000000e-01		0.000000e+00		-5.357143e-01
-5.000000e-01		2.500000e-01		-5.357143e-01
-5.000000e-01		5.000000e-01		-5.357143e-01
-2.500000e-01		-5.000000e-01		-5.357143e-01
-2.500000e-01		-2.500000e-01		-5.357143e-01
-2.500000e-01		0.000000e+00		-5.357143e-01
-2.500000e-01		2.500000e-01		-5.357143e-01
-2.500000e-01		5.000000e-01		-5.357143e-01
0.000000e+00		-5.000000e-01		-5.357143e-01
0.000000e+00		-2.500000e-01		-5.357143e-01
0.000000e+00		0.000000e+00		-5.357143e-01
0.000000e+00		2.500000e-01		-5.357143e-01
0.000000e+00		5.000000e-01		-5.357143e-01
2.500000e-01		-5.000000e-01		-5.357143e-01
2.500000e-01		-2.500000e-01		-5.357143e-01
2.500000e-01		0.000000e+00		-5.357143e-01
2.500000e-01		2.500000e-01		-5.357143e-01
2.500000e-01		5.000000e-01		-5.357143e-01
5.000000e-01		-5.000000e-01		-5.357143e-01
5.000000e-01		-2.500000e-01		-5.357143e-01
5.000000e-01		0.000000e+00		-5.357143e-01
5.000000e-01		2.500000e-01		-5.357143e-01
5.000000e-01		5.000000e-01		-5.357143e-01
-5.000000e-01		-5.000000e-01		-4.285714e-01
-5.000000e-01		-3.750000e-01		-4.285714e-01
-5.000000e-01		-2.500000e-01		-4.285714e-01
-5.000000e-01		-1.250000e-01		-4.285714e-01
-5.000000e-01		0.000000e+00		-4.285714e-01
-5.000000e-01		1.250000e-01		-4.285714e-01
-5.000000e-01		2.500000e-01		-4.285714e-01
-5.000000e-01		3.750000e-01		-4.285714e-01
-5.000000e-01		5.000000e-01		-4.285714e-01
-3.750000e-01		-5.000000e-01		-4.285714e-01
-3.750000e-01		-2.500000e-01		-4.285714e-01
-3.750000e-01		0.000000e+00		-4.285714e-01
-3.750000e-01		2.500000e-01		-4.285714e-01
-3.750000e-01		5.000000e-01		-4.285714e-01
-2.500000e-01		-5.000000e-01		-4.285714e-01
-2.500000e-01		-3.750000e-01		-4.285714e-01
-2.500000e-01		-2.500000e-01		-4.285714e-01
-2.500000e-01		-1.250000e-01		-4.285714e-01
-2.500000e-01		0.000000e+00		-4.285714e-01
-2.500000e-01		1.250000e-01		-4.285714e-01
-2.500000e-01		2.500000e-01		-4.285714e-01
-2.500000e-01		3.750000e-01		-4.285714e-01
-2.500000e-01		5.000000e-01		-4.285714e-01
-1.250000e-01		-5.000000e-01		-4.285714e-01
-1.250000e-01		-2.500000e-01		-4.285714e-01
-1.250000e-01		0.000000e+00		-4.285714e-01
-1.250000e-01		2.500000e-01		-4.285714e-01
-1.250000e-01		5.000000e-01		-4.285714e-01
0.000000e+00		-5.000000e-01		-4.285714e-01
0.000000e+00		-3.750000e-01		-4.285714e-01
0.000000e+00		-2.500000e-01		-4.285714e-01
0.000000e+00		-1.250000e-01		-4.285714e-01
0.000000e+00		0.000000e+00		-4.285714e-01
0.000000e+00		1.250000e-01		-4.285714e-01
0.000000e+00		2.500000e-01		-4.285714e-01
0.000000e+00		3.750000e-01		-4.285714e-01
0.000000e+00		5.000000e-01		-4.285714e-01
1.250000e-01		-5.000000e-01		-4.285714e-01
1.250000e-01		-2.500000e-01		-4.285714e-01
1.250000e-01		0.000000e+00		-4.285714e-01
1.250000e-01		2.500000e-01		-4.285714e-01
1.250000e-01		5.000000e-01		-4.285714e-01
2.500000e-01		-5.000000e-01		-4.285714e-01
2.500000e-01		-3.750000e-01		-4.285714e-01
2.500000e-01		-2.500000e-01		-4.285714e-01
2.500000e-01		-1.250000e-01		-4.285714e-01
2.500000e-01		0.000000e+00		-4.285714e-01
2.500000e-01		1.250000e-01		-4.285714e-01
2.500000e-01		2.500000e-01		-4.285714e-01
2.500000e-01		3.750000e-01		-4.285714e-01
2.500000e-01		5.000000e-01		-4.285714e-01
3.750000e-01		-5.000000e-01		-4.285714e-01
3.750000e-01		-2.500000e-01		-4.285714e-01
3.750000e-01		0.000000e+00		-4.285714e-01
3.750000e-01		2.500000e-01		-4.285714e-01
3.750000e-01		5.000000e-01		-4.285714e-01
5.000000e-01		-5.000000e-01		-4.285714e-01
5.000000e-01		-3.750000e-01		-4.285714e-01
5.000000e-01		-2.500000e-01		-4.285714e-01
5.000000e-01		-1.250000e-01		-4.285714e-01
5.000000e-01		0.000000e+00		-4.285714e-01
5.000000e-01		1.250000e-01		-4.285714e-01
5.000000e-01		2.500000e-01		-4.285714e-01
5.000000e-01		3.750000e-01		-4.285714e-01
5.000000e-01		5.000000e-01		-4.285714e-01
-5.000000e-01		-5.000000e-01		-3.214286e-01
-5.000000e-01		-2.500000e-01		-3.214286e-01
-5.000000e-01		0.000000e+00		-3.214286e-01
-5.000000e-01		2.500000e-01		-3.214286e-01
-5.000000e-01		5.000000e-01		-3.214286e-01
-2.500000e-01		-5.000000e-01		-3.214286e-01
-2.500000e-01		-2.500000e-01		-3.214286e-01
-2.500000e-01		0.000000e+00		-3.214286e-01
-2.500000e-01		2.500000e-01		-3.214286e-01
-2.500000e-01		5.000000e-01		-3.214286e-01
0.000000e+00		-5.000000e-01		-3.214286e-01
0.000000e+00		-2.500000e-01		-3.214286e-01
0.000000e+00		0.000000e+00		-3.214286e-01
0.000000e+00		2.500000e-01		-3.214286e-01
0.000000e+00		5.000000e-01		-3.214286e-01
2.500000e-01		-5.000000e-01		-3.214286e-01
2.500000e-01		-2.500000e-01		-3.214286e-01
2.500000e-01		0.000000e+00		-3.214286e-01
2.500000e-01		2.500000e-01		-3.214286e-01
2.500000e-01		5.000000e-01		-3.214286e-01
5.000000e-01		-5.000000e-01		-3.214286e-01
5.000000e-01		-2.500000e-01		-3.214286e-01
5.000000e-01		0.000000e+00		-3.214286e-01
5.000000e-01		2.500000e-01		-3.214286e-01
5.000000e-01		5.000000e-01		-3.214286e-01
-5.000000e-01		-5.000000e-01		-2.142857e-01
-5.000000e-01		-3.750000e-01		-2.142857e-01
-5.000000e-01		-2.500000e-01		-2.142857e-01
-5.000000e-01		-1.250000e-01		-2.142857e-01
-5.000000e-01		0.000000e+00		-2.142857e-01
-5.000000e-01		1.250000e-01		-2.142857e-01
-5.000000e-01		2.500000e-01		-2.142857e-01
-5.000000e-01		3.750000e-01		-2.142857e-01
-5.000000e-01		5.000000e-01		-2.142857e-01
-3.750000e-01		-5.000000e-01		-2.142857e-01
-3.750000e-01		-2.500000e-01		-2.142857e-01
-3.750000e-01		0.000000e+00		-2.142857e-01
-3.750000e-01		2.500000e-01		-2.142857e-01
-3.750000e-01		5.000000e-01		-2.142857e-01
-2.500000e-01		-5.000000e-01		-2.142857e-01
-2.500000e-01		-3.750000e-01		-2.142857e-01
-2.500000e-01		-2.500000e-01		-2.142857e-01
-2.500000e-01		-1.250000e-01		-2.142857e-01
-2.500000e-01		0.000000e+00		-2.142857e-01
-2.500000e-01		1.250000e-01		-2.142857e-01
-2.500000e-01		2.500000e-01		-2.142857e-01
-2.500000e-01		3.750000e-01		-2.142857e-01
-2.500000e-01		5.000000e-01		-2.142857e-01
-1.250000e-01		-5.000000e-01		-2.142857e-01
-1.250000e-01		-2.500000e-01		-2.142857e-01
-1.250000e-01		0.000000e+00		-2.142857e-01
-1.250000e-01		2.500000e-01		-2.142857e-01
-1.250000e-01		5.000000e-01		-2.142857e-01
0.000000e+00		-5.000000e-01		-2.142857e-01
0.000000e+00		-3.750000e-01		-2.142857e-01
0.000000e+00		-2.500000e-01		-2.142857e-01
0.000000e+00		-1.250000e-01		-2.142857e-01
0.000000e+00		0.000000e+00		-2.142857e-01
0.000000e+00		1.250000e-01		-2.142857e-01
0.000000e+00		2.500000e-01		-2.142857e-01
0.000000e+00		3.750000e-01		-2.142857e-01
0.000000e+00		5.000000e-01		-2.142857e-01
1.250000e-01		-5.000000e-01		-2.142857e-01
1.250000e-01		-2.500000e-01		-2.142857e-01
1.250000e-01		0.000000e+00		-2.142857e-01
1.250000e-01		2.500000e-01		-2.142857e-01
1.250000e-01		5.000000e-01		-2.142857e-01
2.500000e-01		-5.000000e-01		-2.142857e-01
2.500000e-01		-3.750000e-01		-2.142857e-01
2.500000e-01		-2.500000e-01		-2.142857e-01
2.500000e-01		-1.250000e-01		-2.142857e-01
2.500000e-01		0.000000e+00		-2.142857e-01
2.500000e-01		1.250000e-01		-2.142857e-01
2.500000e-01		2.500000e-01		-2.142857e-01
2.500000e-01		3.750000e-01		-2.142857e-01
2.500000e-01		5.000000e-01		-2.142857e-01
3.750000e-01		-5.000000e-01		-2.142857e-01
3.750000e-01		-2.500000e-01		-2.142857e-01
3.750000e-01		0.000000e+00		-2.142857e-01
3.750000e-01		2.500000e-01		-2.142857e-01
3.750000e-01		5.000000e-01		-2.142857e-01
5.000000e-01		-5.000000e-01		-2.142857e-01
5.000000e-01		-3.750000e-01		-2.142857e-01
5.000000e-01		-2.500000e-01		-2.142857e-01
5.000000e-01		-1.250000e-01		-2.142857e-01
5.000000e-01		0.000000e+00		-2.142857e-01
5.000000e-01		1.250000e-01		-2.142857e-01
5.000000e-01		2.500000e-01		-2.142857e-01
5.000000e-01		3.750000e-01		-2.142857e-01
5.000000e-01		5.000000e-01		-2.142857e-01
-5.000000e-01		-5.000000e-01		-1.071429e-01
-5.000000e-01		-2.500000e-01		-1.071429e-01
-5.000000e-01		0.000000e+00		-1.071429e-01
-5.000000e-01		2.500000e-01		-1.071429e-01
-5.000000e-01		5.000000e-01		-1.071429e-01
-2.500000e-01		-5.000000e-01		-1.071429e-01
-2.500000e-01		-2.500000e-01		-1.071429e-01
-2.500000e-01		0.000000e+00		-1.071429e-01
-2.500000e-01		2.500000e-01		-1.071429e-01
-2.500000e-01		5.000000e-01		-1.071429e-01
0.000000e+00		-5.000000e-01		-1.071429e-01
0.000000e+00		-2.500000e-01		-1.071429e-01
0.000000e+00		0.000000e+00		-1.071429e-01
0.000000e+00		2.500000e-01		-1.071429e-01
0.000000e+00		5.000000e-01		-1.071429e-01
2.500000e-01		-5.000000e-01		-1.071429e-01
2.500000e-01		-2.500000e-01		-1.071429e-01
2.500000e-01		0.000000e+00		-1.071429e-01
2.500000e-01		2.500000e-01		-1.071429e-01
2.500000e-01		5.000000e-01		-1.071429e-01
5.000000e-01		-5.000000e-01		-1.071429e-01
5.000000e-01		-2.500000e-01		-1.071429e-01
5.000000e-01		0.000000e+00		-1.071429e-01
5.000000e-01		2.500000e-01		-1.071429e-01
5.000000e-01		5.000000e-01		-1.071429e-01
-5.000000e-01		-5.000000e-01		0.000000e+00
-5.000000e-01		-3.750000e-01		0.000000e+00
-5.000000e-01		-2.500000e-01		0.000000e+00
-5.000000e-01		-1.250000e-01		0.000000e+00
-5.000000e-01		0.000000e+00		0.000000e+00
-5.000000e-01		1.250000e-01		0.000000e+00
-5.000000e-01		2.500000e-01		0.000000e+00
-5.000000e-01		3.750000e-01		0.000000e+00
-5.000000e-01		5.000000e-01		0.000000e+00
-3.750000e-01		-5.000000e-01		0.000000e+00
-3.750000e-01		-2.500000e-01		0.000000e+00
-3.750000e-01		0.000000e+00		0.000000e+00
-3.750000e-01		2.500000e-01		0.000000e+00
-3.750000e-01		5.000000e-01		0.000000e+00
-2.500000e-01		-5.000000e-01		0.000000e+00
-2.500000e-01		-3.750000e-01		0.000000e+00
-2.500000e-01		-2.500000e-01		0.000000e+00
-2.500000e-01		-1.250000e-01		0.000000e+00
-2.500000e-01		0.000000e+00		0.000000e+00
-2.500000e-01		1.250000e-01		0.000000e+00
-2.500000e-01		2.500000e-01		0.000000e+00
-2.500000e-01		3.750000e-01		0.000000e+00
-2.500000e-01		5.000000e-01		0.000000e+00
-1.250000e-01		-5.000000e-01		0.000000e+00
-1.250000e-01		-2.500000e-01		0.000000e+00
-1.250000e-01		0.000000e+00		0.000000e+00
-1.250000e-01		2.500000e-01		0.000000e+00
-1.250000e-01		5.000000e-01		0.000000e+00
0.000000e+00		-5.000000e-01		0.000000e+00
0.000000e+00		-3.750000e-01		0.000000e+00
0.000000e+00		-2.500000e-01		0.000000e+00
0.000000e+00		-1.250000e-01		0.000000e+00
0.000000e+00		0.000000e+00		0.000000e+00
0.000000e+00		1.250000e-01		0.000000e+00
0.000000e+00		2.500000e-01		0.000000e+00
0.000000e+00		3.750000e-01		0.000000e+00
0.000000e+00		5.000000e-01		0.000000e+00
1.250000e-01		-5.000000e-01		0.000000e+00
1.250000e-01		-2.500000e-01		0.000000e+00
1.250000e-01		0.000000e+00		0.000000e+00
1.250000e-01		2.500000e-01		0.000000e+00
1.250000e-01		5.000000e-01		0.000000e+00
2.500000e-01		-5.000000e-01		0.000000e+00
2.500000e-01		-3.750000e-01		0.000000e+00
2.500000e-01		-2.500000e-01		0.000000e+00
2.500000e-01		-1.250000e-01		0.000000e+00
2.500000e-01		0.000000e+00		0.000000e+00
2.500000e-01		1.250000e-01		0.000000e+00
2.500000e-01		2.500000e-01		0.000000e+00
2.500000e-01		3.750000e-01		0.000000e+00
2.500000e-01		5.000000e-01		0.000000e+00
3.750000e-01		-5.000000e-01		0.000000e+00
3.750000e-01		-2.500000e-01		0.000000e+00
3.750000e-01		0.000000e+00		0.000000e+00
3.750000e-01		2.500000e-01		0.000000e+00
3.750000e-01		5.000000e-01		0.000000e+00
5.000000e-01		-5.000000e-01		0.000000e+00
5.000000e-01		-3.750000e-01		0.000000e+00
5.000000e-01		-2.500000e-01		0.000000e+00
5.000000e-01		-1.250000e-01		0.000000e+00
5.000000e-01		0.000000e+00		0.000000e+00
5.000000e-01		1.250000e-01		0.000000e+00
5.000000e-01		2.500000e-01		0.000000e+00
5.000000e-01		3.750000e-01		0.000000e+00
5.000000e-01		5.000000e-01		0.000000e+00
-5.000000e-01		-5.000000e-01		1.071429e-01
-5.000000e-01		-2.500000e-01		1.071429e-01
-5.000000e-01		0.000000e+00		1.071429e-01
-5.000000e-01		2.500000e-01		1.071429e-01
-5.000000e-01		5.000000e-01		1.071429e-01
-2.500000e-01		-5.000000e-01		1.071429e-01
-2.500000e-01		-2.500000e-01		1.071429e-01
-2.500000e-01		0.000000e+00		1.071429e-01
-2.500000e-01		2.500000e-01		1.071429e-01
-2.500000e-01		5.000000e-01		1.071429e-01
0.000000e+00		-5.000000e-01		1.071429e-01
0.000000e+00		-2.500000e-01		1.071429e-01
0.000000e+00		0.000000e+00		1.071429e-01
0.000000e+00		2.500000e-01		1.071429e-01
0.000000e+00		5.000000e-01		1.071429e-01
2.500000e-01		-5.000000e-01		1.071429e-01
2.500000e-01		-2.500000e-01		1.071429e-01
2.500000e-01		0.000000e+00		1.071429e-01
2.500000e-01		2.500000e-01		1.071429e-01
2.500000e-01		5.000000e-01		1.071429e-01
5.000000e-01		-5.000000e-01		1.071429e-01
5.000000e-01		-2.500000e-01		1.071429e-01
5.000000e-01		0.000000e+00		1.071429e-01
5.000000e-01		2.500000e-01		1.071429e-01
5.000000e-01		5.000000e-01		1.071429e-01
-5.000000e-01		-5.000000e-01		2.142857e-01
-5.000000e-01		-3.750000e-01		2.142857e-01
-5.000000e-01		-2.500000e-01		2.142857e-01
-5.000000e-01		-1.250000e-01		2.142857e-01
-5.000000e-01		0.000000e+00		2.142857e-01
-5.000000e-01		1.250000e-01		2.142857e-01
-5.000000e-01		2.500000e-01		2.142857e-01
-5.000000e-01		3.750000e-01		2.142857e-01
-5.000000e-01		5.000000e-01		2.142857e-01
-3.750000e-01		-5.000000e-01		2.142857e-01
-3.750000e-01		-2.500000e-01		2.142857e-01
-3.750000e-01		0.000000e+00		2.142857e-01
-3.750000e-01		2.500000e-01		2.142857e-01
-3.750000e-01		5.000000e-01		2.142857e-01
-2.500000e-01		-5.000000e-01		2.142857e-01
-2.500000e-01		-3.750000e-01		2.142857e-01
-2.500000e-01		-2.500000e-01		2.142857e-01
-2.500000e-01		-1.250000e-01		2.142857e-01
-2.500000e-01		0.000000e+00		2.142857e-01
-2.500000e-01		1.250000e-01		2.142857e-01
-2.500000e-01		2.500000e-01		2.142857e-01
-2.500000e-01		3.750000e-01		2.142857e-01
-2.500000e-01		5.000000e-01		2.142857e-01
-1.250000e-01		-5.000000e-01		2.142857e-01
-1.250000e-01		-2.500000e-01		2.142857e-01
-1.250000e-01		0.000000e+00		2.142857e-01
-1.250000e-01		2.500000e-01		2.142857e-01
-1.250000e-01		5.000000e-01		2.142857e-01
0.000000e+00		-5.000000e-01		2.142857e-01
0.000000e+00		-3.750000e-01		2.142857e-01
0.000000e+00		-2.500000e-01		2.142857e-01
0.000000e+00		-1.250000e-01		2.142857e-01
0.000000e+00		0.000000e+00		2.142857e-01
0.000000e+00		1.250000e-01		2.142857e-01
0.000000e+00		2.500000e-01		2.142857e-01
0.000000e+00		3.750000e-01		2.142857e-01
0.000000e+00		5.000000e-01		2.142857e-01
1.250000e-01		-5.000000e-01		2.142857e-01
1.250000e-01		-2.500000e-01		2.142857e-01
1.250000e-01		0.000000e+00		2.142857e-01
1.250000e-01		2.500000e-01		2.142857e-01
1.250000e-01		5.000000e-01		2.142857e-01
2.500000e-01		-5.000000e-01		2.142857e-01
2.500000e-01		-3.750000e-01		2.142857e-01
2.500000e-01		-2.500000e-01		2.142857e-01
2.500000e-01		-1.250000e-01		2.142857e-01
2.500000e-01		0.000000e+00		2.142857e-01
2.500000e-01		1.250000e-01		2.142857e-01
2.500000e-01		2.500000e-01		2.142857e-01
2.500000e-01		3.750000e-01		2.142857e-01
2.500000e-01		5.000000e-01		2.142857e-01
3.750000e-01		-5.000000e-01		2.142857e-01
3.750000e-01		-2.500000e-01		2.142857e-01
3.750000e-01		0.000000e+00		2.142857e-01
3.750000e-01		2.500000e-01		2.142857e-01
3.750000e-01		5.000000e-01		2.142857e-01
5.000000e-01		-5.000000e-01		2.142857e-01
5.000000e-01		-3.750000e-01		2.142857e-01
5.000000e-01		-2.500000e-01		2.142857e-01
5.000000e-01		-1.250000e-01		2.142857e-01
5.000000e-01		0.000000e+00		2.142857e-01
5.000000e-01		1.250000e-01		2.142857e-01
5.000000e-01		2.500000e-01		2.142857e-01
5.000000e-01		3.750000e-01		2.142857e-01
5.000000e-01		5.000000e-01		2.142857e-01
-5.000000e-01		-5.000000e-01		3.214286e-01
-5.000000e-01		-2.500000e-01		3.214286e-01
-5.000000e-01		0.000000e+00		3.214286e-01
-5.000000e-01		2.500000e-01		3.214286e-01
-5.000000e-01		5.000000e-01		3.214286e-01
-2.500000e-01		-5.000000e-01		3.214286e-01
-2.500000e-01		-2.500000e-01		3.214286e-01
-2.500000e-01		0.000000e+00		3.214286e-01
-2.500000e-01		2.500000e-01		3.214286e-01
-2.500000e-01		5.000000e-01		3.214286e-01
0.000000e+00		-5.000000e-01		3.214286e-01
0.000000e+00		-2.500000e-01		3.214286e-01
0.000000e+00		0.000000e+00		3.214286e-01
0.000000e+00		2.500000e-01		3.214286e-01
0.000000e+00		5.000000e-01		3.214286e-01
2.500000e-01		-5.000000e-01		3.214286e-01
2.500000e-01		-2.500000e-01		3.214286e-01
2.500000e-01		0.000000e+00		3.214286e-01
2.500000e-01		2.500000e-01		3.214286e-01
2.500000e-01		5.000000e-01		3.214286e-01
5.000000e-01		-5.000000e-01		3.214286e-01
5.000000e-01		-2.500000e-01		3.214286e-01
5.000000e-01		0.000000e+00		3.214286e-01
5.000000e-01		2.500000e-01		3.214286e-01
5.000000e-01		5.000000e-01		3.214286e-01
-5.000000e-01		-5.000000e-01		4.285714e-01
-5.000000e-01		-3.750000e-01		4.285714e-01
-5.000000e-01		-2.500000e-01		4.285714e-01
-5.000000e-01		-1.250000e-01		4.285714e-01
-5.000000e-01		0.000000e+00		4.285714e-01
-5.000000e-01		1.250000e-01		4.285714e-01
-5.000000e-01		2.500000e-01		4.285714e-01
-5.000000e-01		3.750000e-01		4.285714e-01
-5.000000e-01		5.000000e-01		4.285714e-01
-3.750000e-01		-5.000000e-01		4.285714e-01
-3.750000e-01		-2.500000e-01		4.285714e-01
-3.750000e-01		0.000000e+00		4.285714e-01
-3.750000e-01		2.500000e-01		4.285714e-01
-3.750000e-01		5.000000e-01		4.285714e-01
-2.500000e-01		-5.000000e-01		4.285714e-01
-2.500000e-01		-3.750000e-01		4.285714e-01
-2.500000e-01		-2.500000e-01		4.285714e-01
-2.500000e-01		-1.250000e-01		4.285714e-01
-2.500000e-01		0.000000e+00		4.285714e-01
-2.500000e-01		1.250000e-01		4.285714e-01
-2.500000e-01		2.500000e-01		4.285714e-01
-2.500000e-01		3.750000e-01		4.285714e-01
-2.500000e-01		5.000000e-01		4.285714e-01
-1.250000e-01		-5.000000e-01		4.285714e-01
-1.250000e-01		-2.500000e-01		4.285714e-01
-1.250000e-01		0.000000e+00		4.285714e-01
-1.250000e-01		2.500000e-01		4.285714e-01
-1.250000e-01		5.000000e-01		4.285714e-01
0.000000e+00		-5.000000e-01		4.285714e-01
0.000000e+00		-3.750000e-01		4.285714e-01
0.000000e+00		-2.500000e-01		4.285714e-01
0.000000e+00		-1.250000e-01		4.285714e-01
0.000000e+00		0.000000e+00		4.285714e-01
0.000000e+00		1.250000e-01		4.285714e-01
0.000000e+00		2.500000e-01		4.285714e-01
0.000000e+00		3.750000e-01		4.285714e-01
0.000000e+00		5.000000e-01		4.285714e-01
1.250000e-01		-5.000000e-01		4.285714e-01
1.250000e-01		-2.500000e-01		4.285714e-01
1.250000e-01		0.000000e+00		4.285714e-01
1.250000e-01		2.500000e-01		4.285714e-01
1.250000e-01		5.000000e-01		4.285714e-01
2.500000e-01		-5.000000e-01		4.285714e-01
2.500000e-01		-3.750000e-01		4.285714e-01
2.500000e-01		-2.500000e-01		4.285714e-01
2.500000e-01		-1.250000e-01		4.285714e-01
2.500000e-01		0.000000e+00		4.285714e-01
2.500000e-01		1.250000e-01		4.285714e-01
2.500000e-01		2.500000e-01		4.285714e-01
2.500000e-01		3.750000e-01		4.285714e-01
2.500000e-01		5.000000e-01		4.285714e-01
3.750000e-01		-5.000000e-01		4.285714e-01
3.750000e-01		-2.500000e-01		4.285714e-01
3.750000e-01		0.000000e+00		4.285714e-01
3.750000e-01		2.500000e-01		4.285714e-01
3.750000e-01		5.000000e-01		4.285714e-01
5.000000e-01		-5.000000e-01		4.285714e-01
5.000000e-01		-3.750000e-01		4.285714e-01
5.000000e-01		-2.500000e-01		4.285714e-01
5.000000e-01		-1.250000e-01		4.285714e-01
5.000000e-01		0.000000e+00		4.285714e-01
5.000000e-01		1.250000e-01		4.285714e-01
5.000000e-01		2.500000e-01		4.285714e-01
5.000000e-01		3.750000e-01		4.285714e-01
5.000000e-01		5.000000e-01		4.285714e-01
-5.000000e-01		-5.000000e-01		5.357143e-01
-5.000000e-01		-2.500000e-01		5.357143e-01
-5.000000e-01		0.000000e+00		5.357143e-01
-5.000000e-01		2.500000e-01		5.357143e-01
-5.000000e-01		5.000000e-01		5.357143e-01
-2.500000e-01		-5.000000e-01		5.357143e-01
-2.500000e-01		-2.500000e-01		5.357143e-01
-2.500000e-01		0.000000e+00		5.357143e-01
-2.500000e-01		2.500000e-01		5.357143e-01
-2.500000e-01		5.000000e-01		5.357143e-01
0.000000e+00		-5.000000e-01		5.357143e-01
0.000000e+00		-2.500000e-01		5.357143e-01
0.000000e+00		0.000000e+00		5.357143e-01
0.000000e+00		2.500000e-01		5.357143e-01
0.000000e+00		5.000000e-01		5.357143e-01
2.500000e-01		-5.000000e-01		5.357143e-01
2.500000e-01		-2.500000e-01		5.357143e-01
2.500000e-01		0.000000e+00		5.357143e-01
2.500000e-01		2.500000e-01		5.357143e-01
2.500000e-01		5.000000e-01		5.357143e-01
5.000000e-01		-5.000000e-01		5.357143e-01
5.000000e-01		-2.500000e-01		5.357143e-01
5.000000e-01		0.000000e+00		5.357143e-01
5.000000e-01		2.500000e-01		5.357143e-01
5.000000e-01		5.000000e-01		5.357143e-01
-5.000000e-01		-5.000000e-01		6.428571e-01
-5.000000e-01		-3.750000e-01		6.428571e-01
-5.000000e-01		-2.500000e-01		6.428571e-01
-5.000000e-01		-1.250000e-01		6.428571e-01
-5.000000e-01		0.000000e+00		6.428571e-01
-5.000000e-01		1.250000e-01		6.428571e-01
-5.000000e-01		2.500000e-01		6.428571e-01
-5.000000e-01		3.750000e-01		6.428571e-01
-5.000000e-01		5.000000e-01		6.428571e-01
-3.750000e-01		-5.000000e-01		6.428571e-01
-3.750000e-01		-2.500000e-01		6.428571e-01
-3.750000e-01		0.000000e+00		6.428571e-01
-3.750000e-01		2.500000e-01		6.428571e-01
-3.750000e-01		5.000000e-01		6.428571e-01
-2.500000e-01		-5.000000e-01		6.428571e-01
-2.500000e-01		-3.750000e-01		6.428571e-01
-2.500000e-01		-2.500000e-01		6.428571e-01
-2.500000e-01		-1.250000e-01		6.428571e-01
-2.500000e-01		0.000000e+00		6.428571e-01
-2.500000e-01		1.250000e-01		6.428571e-01
-2.500000e-01		2.500000e-01		6.428571e-01
-2.500000e-01		3.750000e-01		6.428571e-01
-2.500000e-01		5.000000e-01		6.428571e-01
-1.250000e-01		-5.000000e-01		6.428571e-01
-1.250000e-01		-2.500000e-01		6.428571e-01
-1.250000e-01		0.000000e+00		6.428571e-01
-1.250000e-01		2.500000e-01		6.428571e-01
-1.250000e-01		5.000000e-01		6.428571e-01
0.000000e+00		-5.000000e-01		6.428571e-01
0.000000e+00		-3.750000e-01		6.428571e-01
0.000000e+00		-2.500000e-01		6.428571e-01
0.000000e+00		-1.250000e-01		6.428571e-01
0.000000e+00		0.000000e+00		6.428571e-01
0.000000e+00		1.250000e-01		6.428571e-01
0.000000e+00		2.500000e-01		6.428571e-01
0.000000e+00		3.750000e-01		6.428571e-01
0.000000e+00		5.000000e-01		6.428571e-01
1.250000e-01		-5.000000e-01		6.428571e-01
1.250000e-01		-2.500000e-01		6.428571e-01
1.250000e-01		0.000000e+00		6.428571e-01
1.250000e-01		2.500000e-01		6.428571e-01
1.250000e-01		5.000000e-01		6.428571e-01
2.500000e-01		-5.000000e-01		6.428571e-01
2.500000e-01		-3.750000e-01		6.428571e-01
2.500000e-01		-2.500000e-01		6.428571e-01
2.500000e-01		-1.250000e-01		6.428571e-01
2.500000e-01		0.000000e+00		6.428571e-01
2.500000e-01		1.250000e-01		6.428571e-01
2.500000e-01		2.500000e-01		6.428571e-01
2.500000e-01		3.750000e-01		6.428571e-01
2.500000e-01		5.000000e-01		6.428571e-01
3.750000e-01		-5.000000e-01		6.428571e-01
3.750000e-01		-2.500000e-01		6.428571e-01
3.750000e-01		0.000000e+00		6.428571e-01
3.750000e-01		2.500000e-01		6.428571e-01
3.750000e-01		5.000000e-01		6.428571e-01
5.000000e-01		-5.000000e-01		6.428571e-01
5.000000e-01		-3.750000e-01		6.428571e-01
5.000000e-01		-2.500000e-01		6.428571e-01
5.000000e-01		-1.250000e-01		6.428571e-01
5.000000e-01		0.000000e+00		6.428571e-01
5.000000e-01		1.250000e-01		6.428571e-01
5.000000e-01		2.500000e-01		6.428571e-01
5.000000e-01		3.750000e-01		6.428571e-01
5.000000e-01		5.000000e-01		6.428571e-01
-5.000000e-01		-5.000000e-01		7.500000e-01
-5.000000e-01		-2.500000e-01		7.500000e-01
-5.000000e-01		0.000000e+00		7.500000e-01
-5.000000e-01		2.500000e-01		7.500000e-01
-5.000000e-01		5.000000e-01		7.500000e-01
-2.500000e-01		-5.000000e-01		7.500000e-01
-2.500000e-01		-2.500000e-01		7.500000e-01
-2.500000e-01		0.000000e+00		7.500000e-01
-2.500000e-01		2.500000e-01		7.500000e-01
-2.500000e-01		5.000000e-01		7.500000e-01
0.000000e+00		-5.000000e-01		7.500000e-01
0.000000e+00		-2.500000e-01		7.500000e-01
0.000000e+00		0.000000e+00		7.500000e-01
0.000000e+00		2.500000e-01		7.500000e-01
0.000000e+00		5.000000e-01		7.500000e-01
2.500000e-01		-5.000000e-01		7.500000e-01
2.500000e-01		-2.500000e-01		7.500000e-01
2.500000e-01		0.000000e+00		7.500000e-01
2.500000e-01		2.500000e-01		7.500000e-01
2.500000e-01		5.000000e-01		7.500000e-01
5.000000e-01		-5.000000e-01		7.500000e-01
5.000000e-01		-2.500000e-01		7.500000e-01
5.000000e-01		0.000000e+00		7.500000e-01
5.000000e-01		2.500000e-01		7.500000e-01
5.000000e-01		5.000000e-01		7.500000e-01
-5.000000e-01		-5.000000e-01		8.571429e-01
-5.000000e-01		-3.750000e-01		8.571429e-01
-5.000000e-01		-2.500000e-01		8.571429e-01
-5.000000e-01		-1.250000e-01		8.571429e-01
-5.000000e-01		0.000000e+00		8.571429e-01
-5.000000e-01		1.250000e-01		8.571429e-01
-5.000000e-01		2.500000e-01		8.571429e-01
-5.000000e-01		3.750000e-01		8.571429e-01
-5.000000e-01		5.000000e-01		8.571429e-01
-3.750000e-01		-5.000000e-01		8.571429e-01
-3.750000e-01		-2.500000e-01		8.571429e-01
-3.750000e-01		0.000000e+00		8.571429e-01
-3.750000e-01		2.500000e-01		8.571429e-01
-3.750000e-01		5.000000e-01		8.571429e-01
-2.500000e-01		-5.000000e-01		8.571429e-01
-2.500000e-01		-3.750000e-01		8.571429e-01
-2.500000e-01		-2.500000e-01		8.571429e-01
-2.500000e-01		-1.250000e-01		8.571429e-01
-2.500000e-01		0.000000e+00		8.571429e-01
-2.500000e-01		1.250000e-01		8.571429e-01
-2.500000e-01		2.500000e-01		8.571429e-01
-2.500000e-01		3.750000e-01		8.571429e-01
-2.500000e-01		5.000000e-01		8.571429e-01
-1.250000e-01		-5.000000e-01		8.571429e-01
-1.250000e-01		-2.500000e-01		8.571429e-01
-1.250000e-01		0.000000e+00		8.571429e-01
-1.250000e-01		2.500000e-01		8.571429e-01
-1.250000e-01		5.000000e-01		8.571429e-01
0.000000e+00		-5.000000e-01		8.571429e-01
0.000000e+00		-3.750000e-01		8.571429e-01
0.000000e+00		-2.500000e-01		8.571429e-01
0.000000e+00		-1.250000e-01		8.571429e-01
0.000000e+00		0.000000e+00		8.571429e-01
0.000000e+00		1.250000e-01		8.571429e-01
0.000000e+00		2.500000e-01		8.571429e-01
0.000000e+00		3.750000e-01		8.571429e-01
0.000000e+00		5.000000e-01		8.571429e-01
1.250000e-01		-5.000000e-01		8.571429e-01
1.250000e-01		-2.500000e-01		8.571429e-01
1.250000e-01		0.000000e+00		8.571429e-01
1.250000e-01		2.500000e-01		8.571429e-01
1.250000e-01		5.000000e-01		8.571429e-01
2.500000e-01		-5.000000e-01		8.571429e-01
2.500000e-01		-3.750000e-01		8.571429e-01
2.500000e-01		-2.500000e-01		8.571429e-01
2.500000e-01		-1.250000e-01		8.571429e-01
2.500000e-01		0.000000e+00		8.571429e-01
2.500000e-01		1.250000e-01		8.571429e-01
2.500000e-01		2.500000e-01		8.571429e-01
2.500000e-01		3.750000e-01		8.571429e-01
2.500000e-01		5.000000e-01		8.571429e-01
3.750000e-01		-5.000000e-01		8.571429e-01
3.750000e-01		-2.500000e-01		8.571429e-01
3.750000e-01		0.000000e+00		8.571429e-01
3.750000e-01		2.500000e-01		8.571429e-01
3.750000e-01		5.000000e-01		8.571429e-01
5.000000e-01		-5.000000e-01		8.571429e-01
5.000000e-01		-3.750000e-01		8.571429e-01
5.000000e-01		-2.500000e-01		8.571429e-01
5.000000e-01		-1.250000e-01		8.571429e-01
5.000000e-01		0.000000e+00		8.571429e-01
5.000000e-01		1.250000e-01		8.571429e-01
5.000000e-01		2.500000e-01		8.571429e-01
5.000000e-01		3.750000e-01		8.571429e-01
5.000000e-01		5.000000e-01		8.571429e-01
-5.000000e-01		-5.000000e-01		9.642857e-01
-5.000000e-01		-2.500000e-01		9.642857e-01
-5.000000e-01		0.000000e+00		9.642857e-01
-5.000000e-01		2.500000e-01		9.642857e-01
-5.000000e-01		5.000000e-01		9.642857e-01
-2.500000e-01		-5.000000e-01		9.642857e-01
-2.500000e-01		-2.500000e-01		9.642857e-01
-2.500000e-01		0.000000e+00		9.642857e-01
-2.500000e-01		2.500000e-01		9.642857e-01
-2.500000e-01		5.000000e-01		9.642857e-01
0.000000e+00		-5.000000e-01		9.642857e-01
0.000000e+00		-2.500000e-01		9.642857e-01
0.000000e+00		0.000000e+00		9.642857e-01
0.000000e+00		2.500000e-01		9.642857e-01
0.000000e+00		5.000000e-01		9.642857e-01
2.500000e-01		-5.000000e-01		9.642857e-01
2.500000e-01		-2.500000e-01		9.642857e-01
2.500000e-01		0.000000e+00		9.642857e-01
2.500000e-01		2.500000e-01		9.642857e-01
2.500000e-01		5.000000e-01		9.642857e-01
5.000000e-01		-5.000000e-01		9.642857e-01
5.000000e-01		-2.500000e-01		9.642857e-01
5.000000e-01		0.000000e+00		9.642857e-01
5.000000e-01		2.500000e-01		9.642857e-01
5.000000e-01		5.000000e-01		9.642857e-01
-5.000000e-01		-5.000000e-01		1.071429e+00
-5.000000e-01		-3.750000e-01		1.071429e+00
-5.000000e-01		-2.500000e-01		1.071429e+00
-5.000000e-01		-1.250000e-01		1.071429e+00
-5.000000e-01		0.000000e+00		1.071429e+00
-5.000000e-01		1.250000e-01		1.071429e+00
-5.000000e-01		2.500000e-01		1.071429e+00
-5.000000e-01		3.750000e-01		1.071429e+00
-5.000000e-01		5.000000e-01		1.071429e+00
-3.750000e-01		-5.000000e-01		1.071429e+00
-3.750000e-01		-2.500000e-01		1.071429e+00
-3.750000e-01		0.000000e+00		1.071429e+00
-3.750000e-01		2.500000e-01		1.071429e+00
-3.750000e-01		5.000000e-01		1.071429e+00
-2.500000e-01		-5.000000e-01		1.071429e+00
-2.500000e-01		-3.750000e-01		1.071429e+00
-2.500000e-01		-2.500000e-01		1.071429e+00
-2.500000e-01		-1.250000e-01		1.071429e+00
-2.500000e-01		0.000000e+00		1.071429e+00
-2.500000e-01		1.250000e-01		1.071429e+00
-2.500000e-01		2.500000e-01		1.071429e+00
-2.500000e-01		3.750000e-01		1.071429e+00
-2.500000e-01		5.000000e-01		1.071429e+00
-1.250000e-01		-5.000000e-01		1.071429e+00
-1.250000e-01		-2.500000e-01		1.071429e+00
-1.250000e-01		0.000000e+00		1.071429e+00
-1.250000e-01		2.500000e-01		1.071429e+00
-1.250000e-01		5.000000e-01		1.071429e+00
0.000000e+00		-5.000000e-01		1.071429e+00
0.000000e+00		-3.750000e-01		1.071429e+00
0.000000e+00		-2.500000e-01		1.071429e+00
0.000000e+00		-1.250000e-01		1.071429e+00
0.000000e+00		0.000000e+00		1.071429e+00
0.000000e+00		1.250000e-01		1.071429e+00
0.000000e+00		2.500000e-01		1.071429e+00
0.000000e+00		3.750000e-01		1.071429e+00
0.000000e+00		5.000000e-01		1.071429e+00
1.250000e-01		-5.000000e-01		1.071429e+00
1.250000e-01		-2.500000e-01		1.071429e+00
1.250000e-01		0.000000e+00		1.071429e+00
1.250000e-01		2.500000e-01		1.071429e+00
1.250000e-01		5.000000e-01		1.071429e+00
2.500000e-01		-5.000000e-01		1.071429e+00
2.500000e-01		-3.750000e-01		1.071429e+00
2.500000e-01		-2.500000e-01		1.071429e+00
2.500000e-01		-1.250000e-01		1.071429e+00
2.500000e-01		0.000000e+00		1.071429e+00
2.500000e-01		1.250000e-01		1.071429e+00
2.500000e-01		2.500000e-01		1.071429e+00
2.500000e-01		3.750000e-01		1.071429e+00
2.500000e-01		5.000000e-01		1.071429e+00
3.750000e-01		-5.000000e-01		1.071429e+00
3.750000e-01		-2.500000e-01		1.071429e+00
3.750000e-01		0.000000e+00		1.071429e+00
3.750000e-01		2.500000e-01		1.071429e+00
3.750000e-01		5.000000e-01		1.071429e+00
5.000000e-01		-5.000000e-01		1.071429e+00
5.000000e-01		-3.750000e-01		1.071429e+00
5.000000e-01		-2.500000e-01		1.071429e+00
5.000000e-01		-1.250000e-01		1.071429e+00
5.000000e-01		0.000000e+00		1.071429e+00
5.000000e-01		1.250000e-01		1.071429e+00
5.000000e-01		2.500000e-01		1.071429e+00
5.000000e-01		3.750000e-01		1.071429e+00
5.000000e-01		5.000000e-01		1.071429e+00
-5.000000e-01		-5.000000e-01		1.178571e+00
-5.000000e-01		-2.500000e-01		1.178571e+00
-5.000000e-01		0.000000e+00		1.178571e+00
-5.000000e-01		2.500000e-01		1.178571e+00
-5.000000e-01		5.000000e-01		1.178571e+00
-2.500000e-01		-5.000000e-01		1.178571e+00
-2.500000e-01		-2.500000e-01		1.178571e+00
-2.500000e-01		0.000000e+00		1.178571e+00
-2.500000e-01		2.500000e-01		1.178571e+00
-2.500000e-01		5.000000e-01		1.178571e+00
0.000000e+00		-5.000000e-01		1.178571e+00
0.000000e+00		-2.500000e-01		1.178571e+00
0.000000e+00		0.000000e+00		1.178571e+00
0.000000e+00		2.500000e-01		1.178571e+00
0.000000e+00		5.000000e-01		1.178571e+00
2.500000e-01		-5.000000e-01		1.178571e+00
2.500000e-01		-2.500000e-01		1.178571e+00
2.500000e-01		0.000000e+00		1.178571e+00
2.500000e-01		2.500000e-01		1.178571e+00
2.500000e-01		5.000000e-01		1.178571e+00
5.000000e-01		-5.000000e-01		1.178571e+00
5.000000e-01		-2.500000e-01		1.178571e+00
5.000000e-01		0.000000e+00		1.178571e+00
5.000000e-01		2.500000e-01		1.178571e+00
5.000000e-01		5.000000e-01		1.178571e+00
-5.000000e-01		-5.000000e-01		1.285714e+00
-5.000000e-01		-3.750000e-01		1.285714e+00
-5.000000e-01		-2.500000e-01		1.285714e+00
-5.000000e-01		-1.250000e-01		1.285714e+00
-5.000000e-01		0.000000e+00		1.285714e+00
-5.000000e-01		1.250000e-01		1.285714e+00
-5.000000e-01		2.500000e-01		1.285714e+00
-5.000000e-01		3.750000e-01		1.285714e+00
-5.000000e-01		5.000000e-01		1.285714e+00
-3.750000e-01		-5.000000e-01		1.285714e+00
-3.750000e-01		-2.500000e-01		1.285714e+00
-3.750000e-01		0.000000e+00		1.285714e+00
-3.750000e-01		2.500000e-01		1.285714e+00
-3.750000e-01		5.000000e-01		1.285714e+00
-2.500000e-01		-5.000000e-01		1.285714e+00
-2.500000e-01		-3.750000e-01		1.285714e+00
-2.500000e-01		-2.500000e-01		1.285714e+00
-2.500000e-01		-1.250000e-01		1.285714e+00
-2.500000e-01		0.000000e+00		1.285714e+00
-2.500000e-01		1.250000e-01		1.285714e+00
-2.500000e-01		2.500000e-01		1.285714e+00
-2.500000e-01		3.750000e-01		1.285714e+00
-2.500000e-01		5.000000e-01		1.285714e+00
-1.250000e-01		-5.000000e-01		1.285714e+00
-1.250000e-01		-2.500000e-01		1.285714e+00
-1.250000e-01		0.000000e+00		1.285714e+00
-1.250000e-01		2.500000e-01		1.285714e+00
-1.250000e-01		5.000000e-01		1.285714e+00
0.000000e+00		-5.000000e-01		1.285714e+00
0.000000e+00		-3.750000e-01		1.285714e+00
0.000000e+00		-2.500000e-01		1.285714e+00
0.000000e+00		-1.250000e-01		1.285714e+00
0.000000e+00		0.000000e+00		1.285714e+00
0.000000e+00		1.250000e-01		1.285714e+00
0.000000e+00		2.500000e-01		1.285714e+00
0.000000e+00		3.750000e-01		1.285714e+00
0.000000e+00		5.000000e-01		1.285714e+00
1.250000e-01		-5.000000e-01		1.285714e+00
1.250000e-01		-2.500000e-01		1.285714e+00
1.250000e-01		0.000000e+00		1.285714e+00
1.250000e-01		2.500000e-01		1.285714e+00
1.250000e-01		5.000000e-01		1.285714e+00
2.500000e-01		-5.000000e-01		1.285714e+00
2.500000e-01		-3.750000e-01		1.285714e+00
2.500000e-01		-2.500000e-01		1.285714e+00
2.500000e-01		-1.250000e-01		1.285714e+00
2.500000e-01		0.000000e+00		1.285714e+00
2.500000e-01		1.250000e-01		1.285714e+00
2.500000e-01		2.500000e-01		1.285714e+00
2.500000e-01		3.750000e-01		1.285714e+00
2.500000e-01		5.000000e-01		1.285714e+00
3.750000e-01		-5.000000e-01		1.285714e+00
3.750000e-01		-2.500000e-01		1.285714e+00
3.750000e-01		0.000000e+00		1.285714e+00
3.750000e-01		2.500000e-01		1.285714e+00
3.750000e-01		5.000000e-01		1.285714e+00
5.000000e-01		-5.000000e-01		1.285714e+00
5.000000e-01		-3.750000e-01		1.285714e+00
5.000000e-01		-2.500000e-01		1.285714e+00
5.000000e-01		-1.250000e-01		1.285714e+00
5.000000e-01		0.000000e+00		1.285714e+00
5.000000e-01		1.250000e-01		1.285714e+00
5.000000e-01		2.500000e-01		1.285714e+00
5.000000e-01		3.750000e-01		1.285714e+00
5.000000e-01		5.000000e-01		1.285714e+00
-5.000000e-01		-5.000000e-01		1.392857e+00
-5.000000e-01		-2.500000e-01		1.392857e+00
-5.000000e-01		0.000000e+00		1.392857e+00
-5.000000e-01		2.500000e-01		1.392857e+00
-5.000000e-01		5.000000e-01		1.392857e+00
-2.500000e-01		-5.000000e-01		1.392857e+00
-2.500000e-01		-2.500000e-01		1.392857e+00
-2.500000e-01		0.000000e+00		1.392857e+00
-2.500000e-01		2.500000e-01		1.392857e+00
-2.500000e-01		5.000000e-01		1.392857e+00
0.000000e+00		-5.000000e-01		1.392857e+00
0.000000e+00		-2.500000e-01		1.392857e+00
0.000000e+00		0.000000e+00		1.392857e+00
0.000000e+00		2.500000e-01		1.392857e+00
0.000000e+00		5.000000e-01		1.392857e+00
2.500000e-01		-5.000000e-01		1.392857e+00
2.500000e-01		-2.500000e-01		1.392857e+00
2.500000e-01		0.000000e+00		1.392857e+00
2.500000e-01		2.500000e-01		1.392857e+00
2.500000e-01		5.000000e-01		1.392857e+00
5.000000e-01		-5.000000e-01		1.392857e+00
5.000000e-01		-2.500000e-01		1.392857e+00
5.000000e-01		0.000000e+00		1.392857e+00
5.000000e-01		2.500000e-01		1.392857e+00
5.000000e-01		5.000000e-01		1.392857e+00
-5.000000e-01		-5.000000e-01		1.500000e+00
-5.000000e-01		-3.750000e-01		1.500000e+00
-5.000000e-01		-2.500000e-01		1.500000e+00
-5.000000e-01		-1.250000e-01		1.500000e+00
-5.000000e-01		0.000000e+00		1.500000e+00
-5.000000e-01		1.250000e-01		1.500000e+00
-5.000000e-01		2.500000e-01		1.500000e+00
-5.000000e-01		3.750000e-01		1.500000e+00
-5.000000e-01		5.000000e-01		1.500000e+00
-3.750000e-01		-5.000000e-01		1.500000e+00
-3.750000e-01		-2.500000e-01		1.500000e+00
-3.750000e-01		0.000000e+00		1.500000e+00
-3.750000e-01		2.500000e-01		1.500000e+00
-3.750000e-01		5.000000e-01		1.500000e+00
-2.500000e-01		-5.000000e-01		1.500000e+00
-2.500000e-01		-3.750000e-01		1.500000e+00
-2.500000e-01		-2.500000e-01		1.500000e+00
-2.500000e-01		-1.250000e-01		1.500000e+00
-2.500000e-01		0.000000e+00		1.500000e+00
-2.500000e-01		1.250000e-01		1.500000e+00
-2.500000e-01		2.500000e-01		1.500000e+00
-2.500000e-01		3.750000e-01		1.500000e+00
-2.500000e-01		5.000000e-01		1.500000e+00
-1.250000e-01		-5.000000e-01		1.500000e+00
-1.250000e-01		-2.500000e-01		1.500000e+00
-1.250000e-01		0.000000e+00		1.500000e+00
-1.250000e-01		2.500000e-01		1.500000e+00
-1.250000e-01		5.000000e-01		1.500000e+00
0.000000e+00		-5.000000e-01		1.500000e+00
0.000000e+00		-3.750000e-01		1.500000e+00
0.000000e+00		-2.500000e-01		1.500000e+00
0.000000e+00		-1.250000e-01		1.500000e+00
0.000000e+00		0.000000e+00		1.500000e+00
0.000000e+00		1.250000e-01		1.500000e+00
0.000000e+00		2.500000e-01		1.500000e+00
0.000000e+00		3.750000e-01		1.500000e+00
0.000000e+00		5.000000e-01		1.500000e+00
1.250000e-01		-5.000000e-01		1.500000e+00
1.250000e-01		-2.500000e-01		1.500000e+00
1.250000e-01		0.000000e+00		1.500000e+00
1.250000e-01		2.500000e-01		1.500000e+00
1.250000e-01		5.000000e-01		1.500000e+00
2.500000e-01		-5.000000e-01		1.500000e+00
2.500000e-01		-3.750000e-01		1.500000e+00
2.500000e-01		-2.500000e-01		1.500000e+00
2.500000e-01		-1.250000e-01		1.500000e+00
2.500000e-01		0.000000e+00		1.500000e+00
2.500000e-01		1.250000e-01		1.500000e+00
2.500000e-01		2.500000e-01		1.500000e+00
2.500000e-01		3.750000e-01		1.500000e+00
2.500000e-01		5.000000e-01		1.500000e+00
3.750000e-01		-5.000000e-01		1.500000e+00
3.750000e-01		-2.500000e-01		1.500000e+00
3.750000e-01		0.000000e+00		1.500000e+00
3.750000e-01		2.500000e-01		1.500000e+00
3.750000e-01		5.000000e-01		1.500000e+00
5.000000e-01		-5.000000e-01		1.500000e+00
5.000000e-01		-3.750000e-01		1.500000e+00
5.000000e-01		-2.500000e-01		1.500000e+00
5.000000e-01		-1.250000e-01		1.500000e+00
5.000000e-01		0.000000e+00		1.500000e+00
5.000000e-01		1.250000e-01		1.500000e+00
5.000000e-01		2.500000e-01		1.500000e+00
5.000000e-01		3.750000e-01		1.500000e+00
5.000000e-01		5.000000e-01		1.500000e+00
CELLS 224 4704
20		0		14		16		2		90		104		106		92		9		15		10		1		99		105		100		91		65		70		71		66		
20		2		16		18		4		92		106		108		94		10		17		11		3		100		107		101		93		66		71		72		67		
20		4		18		20		6		94		108		110		96		11		19		12		5		101		109		102		95		67		72		73		68		
20		6		20		22		8		96		110		112		98		12		21		13		7		102		111		103		97		68		73		74		69		
20		14		28		30		16		104		118		120		106		23		29		24		15		113		119		114		105		70		75		76		71		
20		16		30		32		18		106		120		122		108		24		31		25		17		114		121		115		107		71		76		77		72		
20		18		32		34		20		108		122		124		110		25		33		26		19		115		123		116		109		72		77		78		73		
20		20		34		36		22		110		124		126		112		26		35		27		21		116		125		117		111		73		78		79		74		
20		28		42		44		30		118		132		134		120		37		43		38		29		127		133		128		119		75		80		81		76		
20		30		44		46		32		120		134		136		122		38		45		39		31		128		135		129		121		76		81		82		77		
20		32		46		48		34		122		136		138		124		39		47		40		33		129		137		130		123		77		82		83		78		
20		34		48		50		36		124		138		140		126		40		49		41		35		130		139		131		125		78		83		84		79		
20		42		56		58		44		132		146		148		134		51		57		52		43		141		147		142		133		80		85		86		81		
20		44		58		60		46		134		148		150		136		52		59		53		45		142		149		143		135		81		86		87		82		
20		46		60		62		48		136		150		152		138		53		61		54		47		143		151		144		137		82		87		88		83		
20		48		62		64		50		138		152		154		140		54		63		55		49		144		153		145		139		83		88		89		84		
20		90		104		106		92		180		194		196		182		99		105		100		91		189		195		190		181		155		160		161		156		
20		92		106		108		94		182		196		198		184		100		107		101		93		190		197		191		183		156		161		162		157		
20		94		108		110		96		184		198		200		186		101		109		102		95		191		199		192		185		157		162		163		158		
20		96		110		112		98		186		200		202		188		102		111		103		97		192		201		193		187		158		163		164		159		
20		104		118		120		106		194		208		210		196		113		119		114		105		203		209		204		195		160		165		166		161		
20		106		120		122		108		196		210		212		198		114		121		115		107		204		211		205		197		161		166		167		162		
20		108		122		124		110		198		212		214		200		115		123		116		109		205		213		206		199		162		167		168		163		
20		110		124		126		112		200		214		216		202		116		125		117		111		206		215		207		201		163		168		169		164		
20		118		132		134		120		208		222		224		210		127		133		128		119		217		223		218		209		165		170		171		166		
20		120		134		136		122		210		224		226		212		128		135		129		121		218		225		219		211		166		171		172		167		
20		122		136		138		124		212		226		228		214		129		137		130		123		219		227		220		213		167		172		173		168		
20		124		138		140		126		214		228		230		216		130		139		131		125		220		229		221		215		168		173		174		169		
20		132		146		148		134		222		236		238		224		141		147		142		133		231		237		232		223		170		175		176		171		
20		134		148		150		136		224		238		240		226		142		149		143		135		232		239		233		225		171		176		177		172		
20		136		150		152		138		226		240		242		228		143		151		144		137		233		241		234		227		172		177		178		173		
20		138		152		154		140		228		242		244		230		144		153		145		139		234		243		235		229		173		178		179		174		
20		180		194		196		182		270		284		286		272		189		195		190		181		279		285		280		271		245		250		251		246		
20		182		196		198		184		272		286		288		274		190		197		191		183		280		287		281		273		246		251		252		247		
20		184		198		200		186		274		288		290		276		191		199		192		185		281		289		282		275		247		252		253		248		
20		186		200		202		188		276		290		292		278		192		201		193		187		282		291		283		277		248		253		254		249		
20		194		208		210		196		284		298		300		286		203		209		204		195		293		299		294		285		250		255		256		251		
20		196		210		212		198		286		300		302		288		204		211		205		197		294		301		295		287		251		256		257		252		
20		198		212		214		200		288		302		304		290		205		213		206		199		295		303		296		289		252		257		258		253		
20		200		214		216		202		290		304		306		292		206		215		207		201		296		305		297		291		253		258		259		254		
20		208		222		224		210		298		312		314		300		217		223		218		209		307		313		308		299		255		260		261		256		
20		210		224		226		212		300		314		316		302		218		225		219		211		308		315		309		301		256		261		262		257		
20		212		226		228		214		302		316		318		304		219		227		220		213		309		317		310		303		257		262		263		258		
20		214		228		230		216		304		318		320		306		220		229		221		215		310		319		311		305		258		263		264		259		
20		222		236		238		224		312		326		328		314		231		237		232		223		321		327		322		313		260		265		266		261		
20		224		238		240		226		314		328		330		316		232		239		233		225		322		329		323		315		261		266		267		262		
20		226		240		242		228		316		330		332		318		233		241		234		227		323		331		324		317		262		267		268		263		
20		228		242		244		230		318		332		334		320		234		243		235		229		324		333		325		319		263		268		269		264		
20		270		284		286		272		360		374		376		362		279		285		280		271		369		375		370		361		335		340		341		336		
20		272		286		288		274		362		376		378		364		280		287		281		273		370		377		371		363		336		341		342		337		
20		274		288		290		276		364		378		380		366		281		289		282		275		371		379		372		365		337		342		343		338		
20		276		290		292		278		366		380		382		368		282		291		283		277		372		381		373		367		338		343		344		339		
20		284		298		300		286		374		388		390		376		293		299		294		285		383		389		384		375		340		345		346		341		
20		286		300		302		288		376		390		392		378		294		301		295		287		384		391		385		377		341		346		347		342		
20		288		302		304		290		378		392		394		380		295		303		296		289		385		393		386		379		342		347		348		343		
20		290		304		306		292		380		394		396		382		296		305		297		291		386		395		387		381		343		348		349		344		
20		298		312		314		300		388		402		404		390		307		313		308		299		397		403		398		389		345		350		351		346		
20		300		314		316		302		390		404		406		392		308		315		309		301		398		405		399		391		346		351		352		347		
20		302		316		318		304		392		406		408		394		309		317		310		303		399		407		400		393		347		352		353		348		
20		304		318		320		306		394		408		410		396		310		319		311		305		400		409		401		395		348		353		354		349		
20		312		326		328		314		402		416		418		404		321		327		322		313		411		417		412		403		350		355		356		351		
20		314		328		330		316		404		418		420		406		322		329		323		315		412		419		413		405		351		356		357		352		
20		316		330		332		318		406		420		422		408		323		331		324		317		413		421		414		407		352		357		358		353		
20		318		332		334		320		408		422		424		410		324		333		325		319		414		423		415		409		353		358		359		354		
20		360		374		376		362		450		464		466		452		369		375		370		361		459		465		460		451		425		430		431		426		
20		362		376		378		364		452		466		468		454		370		377		371		363		460		467		461		453		426		431		432		427		
20		364		378		380		366		454		468		470		456		371		379		372		365		461		469		462		455		427		432		433		428		
20		366		380		382		368		456		470		472		458		372		381		373		367		462		471		463		457		428		433		434		429		
20		374		388		390		376		464		478		480		466		383		389		384		375		473		479		474		465		430		435		436		431		
20		376		390		392		378		466		480		482		468		384		391		385		377		474		481		475		467		431		436		437		432		
20		378		392		394		380		468		482		484		470		385		393		386		379		475		483		476		469		432		437		438		433		
20		380		394		396		382		470		484		486		472		386		395		387		381		476		485		477		471		433		438		439		434		
20		388		402		404		390		478		492		494		480		397		403		398		389		487		493		488		479		435		440		441		436		
20		390		404		406		392		480		494		496		482		398		405		399		391		488		495		489		481		436		441		442		437		
20		392		406		408		394		482		496		498		484		399		407		400		393		489		497		490		483		437		442		443		438		
20		394		408		410		396		484		498		500		486		400		409		401		395		490		499		491		485		438		443		444		439		
20		402		416		418		404		492		506		508		494		411		417		412		403		501		507		502		493		440		445		446		441		
20		404		418		420		406		494		508		510		496		412		419		413		405		502		509		503		495		441		446		447		442		
20		406		420		422		408		496		510		512		498		413		421		414		407		503		511		504		497		442		447		448		443		
20		408		422		424		410		498		512		514		500		414		423		415		409		504		513		505		499		443		448		449		444		
20		450		464		466		452		540		554		556		542		459		465		460		451		549		555		550		541		515		520		521		516		
20		452		466		468		454		542		556		558		544		460		467		461		453		550		557		551		543		516		521		522		517		
20		454		468		470		456		544		558		560		546		461		469		462		455		551		559		552		545		517		522		523		518		
20		456		470		472		458		546		560		562		548		462		471		463		457		552		561		553		547		518		523		524		519		
20		464		478		480		466		554		568		570		556		473		479		474		465		563		569		564		555		520		525		526		521		
20		466		480		482		468		556		570		572		558		474		481		475		467		564		571		565		557		521		526		527		522		
20		468		482		484		470		558		572		574		560		475		483		476		469		565		573		566		559		522		527		528		523		
20		470		484		486		472		560		574		576		562		476		485		477		471		566		575		567		561		523		528		529		524		
20		478		492		494		480		568		582		584		570		487		493		488		479		577		583		578		569		525		530		531		526		
20		480		494		496		482		570		584		586		572		488		495		489		481		578		585		579		571		526		531		532		527		
20		482		496		498		484		572		586		588		574		489		497		490		483		579		587		580		573		527		532		533		528		
20		484		498		500		486		574		588		590		576		490		499		491		485		580		589		581		575		528		533		534		529		
20		492		506		508		494		582		596		598		584		501		507		502		493		591		597		592		583		530		535		536		531		
20		494		508		510		496		584		598		600		586		502		509		503		495		592		599		593		585		531		536		537		532		
20		496		510		512		498		586		600		602		588		503		511		504		497		593		601		594		587		532		537		538		533		
20		498		512		514		500		588		602		604		590		504		513		505		499		594		603		595		589		533		538		539		534		
20		540		554		556		542		630		644		646		632		549		555		550		541		639		645		640		631		605		610		611		606		
20		542		556		558		544		632		646		648		634		550		557		551		543		640		647		641		633		606		611		612		607		
20		544		558		560		546		634		648		650		636		551		559		552		545		641		649		642		635		607		612		613		608		
20		546		560		562		548		636		650		652		638		552		561		553		547		642		651		643		637		608		613		614		609		
20		554		568		570		556		644		658		660		646		563		569		564		555		653		659		654		645		610		615		616		611		
20		556		570		572		558		646		660		662		648		564		571		565		557		654		661		655		647		611		616		617		612		
20		558		572		574		560		648		662		664		650		565		573		566		559		655		663		656		649		612		617		618		613		
20		560		574		576		562		650		664		666		652		566		575		567		561		656		665		657		651		613		618		619		614		
20		568		582		584		570		658		672		674		660		577		583		578		569		667		673		668		659		615		620		621		616		
20		570		584		586		572		660		674		676		662		578		585		579		571		668		675		669		661		616		621		622		617		
20		572		586		588		574		662		676		678		664		579		587		580		573		669		677		670		663		617		622		623		618		
20		574		588		590		576		664		678		680		666		580		589		581		575		670		679		671		665		618		623		624		619		
20		582		596		598		584		672		686		688		674		591		597		592		583		681		687		682		673		620		625		626		621		
20		584		598		600		586		674		688		690		676		592		599		593		585		682		689		683		675		621		626		627		622		
20		586		600		602		588		676		690		692		678		593		601		594		587		683		691		684		677		622		627		628		623		
20		588		602		604		590		678		692		694		680		594		603		595		589		684		693		685		679		623		628		629		624		
20		630		644		646		632		720		734		736		722		639		645		640		631		729		735		730		721		695		700		701		696		
20		632		646		648		634		722		736		738		724		640		647		641		633		730		737		731		723		696		701		702		697		
20		634		648		650		636		724		738		740		726		641		649		642		635		731		739		732		725		697		702		703		698		
20		636		650		652		638		726		740		742		728		642		651		643		637		732		741		733		727		698		703		704		699		
20		644		658		660		646		734		748		750		736		653		659		654		645		743		749		744		735		700		705		706		701		
20		646		660		662		648		736		750		752		738		654		661		655		647		744		751		745		737		701		706		707		702		
20		648		662		664		650		738		752		754		740		655		663		656		649		745		753		746		739		702		707		708		703		
20		650		664		666		652		740		754		756		742		656		665		657		651		746		755		747		741		703		708		709		704		
20		658		672		674		660		748		762		764		750		667		673		668		659		757		763		758		749		705		710		711		706		
20		660		674		676		662		750		764		766		752		668		675		669		661		758		765		759		751		706		711		712		707		
20		662		676		678		664		752		766		768		754		669		677		670		663		759		767		760		753		707		712		713		708		
20		664		678		680		666		754		768		770		756		670		679		671		665		760		769		761		755		708		713		714		709		
20		672		686		688		674		762		776		778		764		681		687		682		673		771		777		772		763		710		715		716		711		
20		674		688		690		676		764		778		780		766		682		689		683		675		772		779		773		765		711		716		717		712		
20		676		690		692		678		766		780		782		768		683		691		684		677		773		781		774		767		712		717		718		713		
20		678		692		694		680		768		782		784		770		684		693		685		679		774		783		775		769		713		718		719		714		
20		720		734		736		722		810		824		826		812		729		735		730		721		819		825		820		811		785		790		791		786		
20		722		736		738		724		812		826		828		814		730		737		731		723		820		827		821		813		786		791		792		787		
20		724		738		740		726		814		828		830		816		731		739		732		725		821		829		822		815		787		792		793		788		
20		726		740		742		728		816		830		832		818		732		741		733		727		822		831		823		817		788		793		794		789		
20		734		748		750		736		824		838		840		826		743		749		744		735		833		839		834		825		790		795		796		791		
20		736		750		752		738		826		840		842		828		744		751		745		737		834		841		835		827		791		796		797		792		
20		738		752		754		740		828		842		844		830		745		753		746		739		835		843		836		829		792		797		798		793		
20		740		754		756		742		830		844		846		832		746		755		747		741		836		845		837		831		793		798		799		794		
20		748		762		764		750		838		852		854		840		757		763		758		749		847		853		848		839		795		800		801		796		
20		750		764		766		752		840		854		856		842		758		765		759		751		848		855		849		841		796		801		802		797		
20		752		766		768		754		842		856		858		844		759		767		760		753		849		857		850		843		797		802		803		798		
20		754		768		770		756		844		858		860		846		760		769		761		755		850		859		851		845		798		803		804		799		
20		762		776		778		764		852		866		868		854		771		777		772		763		861		867		862		853		800		805		806		801		
20		764		778		780		766		854		868		870		856		772		779		773		765		862		869		863		855		801		806		807		802		
20		766		780		782		768		856		870		872		858		773		781		774		767		863		871		864		857		802		807		808		803		
20		768		782		784		770		858		872		874		860		774		783		775		769		864		873		865		859		803		808		809		804		
20		810		824		826		812		900		914		916		902		819		825		820		811		909		915		910		901		875		880		881		876		
20		812		826		828		814		902		916		918		904		820		827		821		813		910		917		911		903		876		881		882		877		
20		814		828		830		816		904		918		920		906		821		829		822		815		911		919		912		905		877		882		883		878		
20		816		830		832		818		906		920		922		908		822		831		823		817		912		921		913		907		878		883		884		879		
20		824		838		840		826		914		928		930		916		833		839		834		825		923		929		924		915		880		885		886		881		
20		826		840		842		828		916		930		932		918		834		841		835		827		924		931		925		917		881		886		887		882		
20		828		842		844		830		918		932		934		920		835		843		836		829		925		933		926		919		882		887		888		883		
20		830		844		846		832		920		934		936		922		836		845		837		831		926		935		927		921		883		888		889		884		
20		838		852		854		840		928		942		944		930		847		853		848		839		937		943		938		929		885		890		891		886		
20		840		854		856		842		930		944		946		932		848		855		849		841		938		945		939		931		886		891		892		887		
20		842		856		858		844		932		946		948		934		849		857		850		843		939		947		940		933		887		892		893		888		
20		844		858		860		846		934		948		950		936		850		859		851		845		940		949		941		935		888		893		894		889		
20		852		866		868		854		942		956		958		944		861		867		862		853		951		957		952		943		890		895		896		891		
20		854		868		870		856		944		958		960		946		862		869		863		855		952		959		953		945		891		896		897		892		
20		856		870		872		858		946		960		962		948		863		871		864		857		953		961		954		947		892		897		898		893		
20		858		872		874		860		948		962		964		950		864		873		865		859		954		963		955		949		893		898		899		894		
20		900		914		916		902		990		1004		1006		992		909		915		910		901		999		1005		1000		991		965		970		971		966		
20		902		916		918		904		992		1006		1008		994		910		917		911		903		1000		1007		1001		993		966		971		972		967		
20		904		918		920		906		994		1008		1010		996		911		919		912		905		1001		1009		1002		995		967		972		973		968		
20		906		920		922		908		996		1010		1012		998		912		921		913		907		1002		1011		1003		997		968		973		974		969		
20		914		928		930		916		1004		1018		1020		1006		923		929		924		915		1013		1019		1014		1005		970		975		976		971		
20		916		930		932		918		1006		1020		1022		1008		924		931		925		917		1014		1021		1015		1007		971		976		977		972		
20		918		932		934		920		1008		1022		1024		1010		925		933		926		919		1015		1023		1016		1009		972		977		978		973		
20		920		934		936		922		1010		1024		1026		1012		926		935		927		921		1016		1025		1017		1011		973		978		979		974		
20		928		942		944		930		1018		1032		1034		1020		937		943		938		929		1027		1033		1028		1019		975		980		981		976		
20		930		944		946		932		1020		1034		1036		1022		938		945		939		931		1028		1035		1029		1021		976		981		982		977		
20		932		946		948		934		1022		1036		1038		1024		939		947		940		933		1029		1037		1030		1023		977		982		983		978		
20		934		948		950		936		1024		1038		1040		1026		940		949		941		935		1030		1039		1031		1025		978		983		984		979		
20		942		956		958		944		1032		1046		1048		1034		951		957		952		943		1041		1047		1042		1033		980		985		986		981		
20		944		958		960		946		1034		1048		1050		1036		952		959		953		945		1042		1049		1043		1035		981		986		987		982		
20		946		960		962		948		1036		1050		1052		1038		953		961		954		947		1043		1051		1044		1037		982		987		988		983		
20		948		962		964		950		1038		1052		1054		1040		954		963		955		949		1044		1053		1045		1039		983		988		989		984		
20		990		1004		1006		992		1080		1094		1096		1082		999		1005		1000		991		1089		1095		1090		1081		1055		1060		1061		1056		
20		992		1006		1008		994		1082		1096		1098		1084		1000		1007		1001		993		1090		1097		1091		1083		1056		1061		1062		1057		
20		994		1008		1010		996		1084		1098		1100		1086		1001		1009		1002		995		1091		1099		1092		1085		1057		1062		1063		1058		
20		996		1010		1012		998		1086		1100		1102		1088		1002		1011		1003		997		1092		1101		1093		1087		1058		1063		1064		1059		
20		1004		1018		1020		1006		1094		1108		1110		1096		1013		1019		1014		1005		1103		1109		1104		1095		1060		1065		1066		1061		
20		1006		1020		1022		1008		1096		1110		1112		1098		1014		1021		1015		1007		1104		1111		1105		1097		1061		1066		1067		1062		
20		1008		1022		1024		1010		1098		1112		1114		1100		1015		1023		1016		1009		1105		1113		1106		1099		1062		1067		1068		1063		
20		1010		1024		1026		1012		1100		1114		1116		1102		1016		1025		1017		1011		1106		1115		1107		1101		1063		1068		1069		1064		
20		1018		1032		1034		1020		1108		1122		1124		1110		1027		1033		1028		1019		1117		1123		1118		1109		1065		1070		1071		1066		
20		1020		1034		1036		1022		1110		1124		1126		1112		1028		1035		1029		1021		1118		1125		1119		1111		1066		1071		1072		1067		
20		1022		1036		1038		1024		1112		1126		1128		1114		1029		1037		1030		1023		1119		1127		1120		1113		1067		1072		1073		1068		
20		1024		1038		1040		1026		1114		1128		1130		1116		1030		1039		1031		1025		1120		1129		1121		1115		1068		1073		1074		1069		
20		1032		1046		1048		1034		1122		1136		1138		1124		1041		1047		1042		1033		1131		1137		1132		1123		1070		1075		1076		1071		
20		1034		1048		1050		1036		1124		1138		1140		1126		1042		1049		1043		1035		1132		1139		1133		1125		1071		1076		1077		1072		
20		1036		1050		1052		1038		1126		1140		1142		1128		1043		1051		1044		1037		1133		1141		1134		1127		1072		1077		1078		1073		
20		1038		1052		1054		1040		1128		1142		1144		1130		1044		1053		1045		1039		1134		1143		1135		1129		1073		1078		1079		1074		
20		1080		1094		1096		1082		1170		1184		1186		1172		1089		1095		1090		1081		1179		1185		1180		1171		1145		1150		1151		1146		
20		1082		1096		1098		1084		1172		1186		1188		1174		1090		1097		1091		1083		1180		1187		1181		1173		1146		1151		1152		1147		
20		1084		1098		1100		1086		1174		1188		1190		1176		1091		1099		1092		1085		1181		1189		1182		1175		1147		1152		1153		1148		
20		1086		1100		1102		1088		1176		1190		1192		1178		1092		1101		1093		1087		1182		1191		1183		1177		1148		1153		1154		1149		
20		1094		1108		1110		1096		1184		1198		1200		1186		1103		1109		1104		1095		1193		1199		1194		1185		1150		1155		1156		1151		
20		1096		1110		1112		1098		1186		1200		1202		1188		1104		1111		1105		1097		1194		1201		1195		1187		1151		1156		1157		1152		
20		1098		1112		1114		1100		1188		1202		1204		1190		1105		1113		1106		1099		1195		1203		1196		1189		1152		1157		1158		1153		
20		1100		1114		1116		1102		1190		1204		1206		1192		1106		1115		1107		1101		1196		1205		1197		1191		1153		1158		1159		1154		
20		1108		1122		1124		1110		1198		1212		1214		1200		1117		1123		1118		1109		1207		1213		1208		1199		1155		1160		1161		1156		
20		1110		1124		1126		1112		1200		1214		1216		1202		1118		1125		1119		1111		1208		1215		1209		1201		1156		1161		1162		1157		
20		1112		1126		1128		1114		1202		1216		1218		1204		1119		1127		1120		1113		1209		1217		1210		1203		1157		1162		1163		1158		
20		1114		1128		1130		1116		1204		1218		1220		1206		1120		1129		1121		1115		1210		1219		1211		1205		1158		1163		1164		1159		
20		1122		1136		1138		1124		1212		1226		1228		1214		1131		1137		1132		1123		1221		1227		1222		1213		1160		1165		1166		1161		
20		1124		1138		1140		1126		1214		1228		1230		1216		1132		1139		1133		1125		1222		1229		1223		1215		1161		1166		1167		1162		
20		1126		1140		1142		1128		1216		1230		1232		1218		1133		1141		1134		1127		1223		1231		1224		1217		1162		1167		1168		1163		
20		1128		1142		1144		1130		1218		1232		1234		1220		1134		1143		1135		1129		1224		1233		1225		1219		1163		1168		1169		1164		
20		1170		1184		1186		1172		1260		1274		1276		1262		1179		1185		1180		1171		1269		1275		1270		1261		1235		1240		1241		1236		
20		1172		1186		1188		1174		1262		1276		1278		1264		1180		1187		1181		1173		1270		1277		1271		1263		1236		1241		1242		1237		
20		1174		1188		1190		1176		1264		1278		1280		1266		1181		1189		1182		1175		1271		1279		1272		1265		1237		1242		1243		1238		
20		1176		1190		1192		1178		1266		1280		1282		1268		1182		1191		1183		1177		1272		1281		1273		1267		1238		1243		1244		1239		
20		1184		1198		1200		1186		1274		1288		1290		1276		1193		1199		1194		1185		1283		1289		1284		1275		1240		1245		1246		1241		
20		1186		1200		1202		1188		1276		1290		1292		1278		1194		1201		1195		1187		1284		1291		1285		1277		1241		1246		1247		1242		
20		1188		1202		1204		1190		1278		1292		1294		1280		1195		1203		1196		1189		1285		1293		1286		1279		1242		1247		1248		1243		
20		1190		1204		1206		1192		1280		1294		1296		1282		1196		1205		1197		1191		1286		1295		1287		1281		1243		1248		1249		1244		
20		1198		1212		1214		1200		1288		1302		1304		1290		1207		1213		1208		1199		1297		1303		1298		1289		1245		1250		1251		1246		
20		1200		1214		1216		1202		1290		1304		1306		1292		1208		1215		1209		1201		1298		1305		1299		1291		1246		1251		1252		1247		
20		1202		1216		1218		1204		1292		1306		1308		1294		1209		1217		1210		1203		1299		1307		1300		1293		1247		1252		1253		1248		
20		1204		1218		1220		1206		1294		1308		1310		1296		1210		1219		1211		1205		1300		1309		1301		1295		1248		1253		1254		1249		
20		1212		1226		1228		1214		1302		1316		1318		1304		1221		1227		1222		1213		1311		1317		1312		1303		1250		1255		1256		1251		
20		1214		1228		1230		1216		1304		1318		1320		1306		1222		1229		1223		1215		1312		1319		1313		1305		1251		1256		1257		1252		
20		1216		1230		1232		1218		1306		1320		1322		1308		1223		1231		1224		1217		1313		1321		1314		1307		1252		1257		1258		1253		
20		1218		1232		1234		1220		1308		1322		1324		1310		1224		1233		1225		1219		1314		1323		1315		1309		1253		1258		1259		1254		
CELL_TYPES 224
25
25
25
25
25
25
25
25
25
25
25
25
25
25
25
25
25
25
25
25
25
25
25
25
25
25
25
25
25
25
25
25
25
25
25
25
25
25
25
25
25
25
25
25
25
25
25
25
25
25
25
25
25
25
25
25
25
25
25
25
25
25
25
25
25
25
25
25
25
25
25
25
25
25
25
25
25
25
25
25
25
25
25
25
25
25
25
25
25
25
25
25
25
25
25
25
25
25
25
25
25
25
25
25
25
25
25
25
25
25
25
25
25
25
25
25
25
25
25
25
25
25
25
25
25
25
25
25
25
25
25
25
25
25
25
25
25
25
25
25
25
25
25
25
25
25
25
25
25
25
25
25
25
25
25
25
25
25
25
25
25
25
25
25
25
25
25
25
25
25
25
25
25
25
25
25
25
25
25
25
25
25
25
25
25
25
25
25
25
25
25
25
25
25
25
25
25
25
25
25
25
25
25
25
25
25
25
25
25
25
25
25
25
25
25
25
25
25
25
25
25
25
25
25
POINT_DATA 1325
SCALARS node_id double 1
LOOKUP_TABLE default
0.000000
1.000000
2.000000
3.000000
4.000000
5.000000
6.000000
7.000000
8.000000
9.000000
10.000000
11.000000
12.000000
13.000000
14.000000
15.000000
16.000000
17.000000
18.000000
19.000000
20.000000
21.000000
22.000000
23.000000
24.000000
25.000000
26.000000
27.000000
28.000000
29.000000
30.000000
31.000000
32.000000
33.000000
34.000000
35.000000
36.000000
37.000000
38.000000
39.000000
40.000000
41.000000
42.000000
43.000000
44.000000
45.000000
46.000000
47.000000
48.000000
49.000000
50.000000
51.000000
52.000000
53.000000
54.000000
55.000000
56.000000
57.000000
58.000000
59.000000
60.000000
61.000000
62.000000
63.000000
64.000000
65.000000
66.000000
67.000000
68.000000
69.000000
70.000000
71.000000
72.000000
73.000000
74.000000
75.000000
76.000000
77.000000
78.000000
79.000000
80.000000
81.000000
82.000000
83.000000
84.000000
85.000000
86.000000
87.000000
88.000000
89.000000
90.000000
91.000000
92.000000
93.000000
94.000000
95.000000
96.000000
97.000000
98.000000
99.000000
100.000000
101.000000
102.000000
103.000000
104.000000
105.000000
106.000000
107.000000
108.000000
109.000000
110.000000
111.000000
112.000000
113.000000
114.000000
115.000000
116.000000
117.000000
118.000000
119.000000
120.000000
121.000000
122.000000
123.000000
124.000000
125.000000
126.000000
127.000000
128.000000
129.000000
130.000000
131.000000
132.000000
133.000000
134.000000
135.000000
136.000000
137.000000
138.000000
139.000000
140.000000
141.000000
142.000000
143.000000
144.000000
145.000000
146.000000
147.000000
148.000000
149.000000
150.000000
151.000000
152.000000
153.000000
154.000000
155.000000
156.000000
157.000000
158.000000
159.000000
160.000000
161.000000
162.000000
163.000000
164.000000
165.000000
166.000000
167.000000
168.000000
169.000000
170.000000
171.000000
172.000000
173.000000
174.000000
175.000000
176.000000
177.000000
178.000000
179.000000
180.000000
181.000000
182.000000
183.000000
184.000000
185.000000
186.000000
187.000000
188.000000
189.000000
190.000000
191.000000
192.000000
193.000000
194.000000
195.000000
196.000000
197.000000
198.000000
199.000000
200.000000
201.000000
202.000000
203.000000
204.000000
205.000000
206.000000
207.000000
208.000000
209.000000
210.000000
211.000000
212.000000
213.000000
214.000000
215.000000
216.000000
217.000000
218.000000
219.000000
220.000000
221.000000
222.000000
223.000000
224.000000
225.000000
226.000000
227.000000
228.000000
229.000000
230.000000
231.000000
232.000000
233.000000
234.000000
235.000000
236.000000
237.000000
238.000000
239.000000
240.000000
241.000000
242.000000
243.000000
244.000000
245.000000
246.000000
247.000000
248.000000
249.000000
250.000000
251.000000
252.000000
253.000000
254.000000
255.000000
256.000000
257.000000
258.000000
259.000000
260.000000
261.000000
262.000000
263.000000
264.000000
265.000000
266.000000
267.000000
268.000000
269.000000
270.000000
271.000000
272.000000
273.000000
274.000000
275.000000
276.000000
277.000000
278.000000
279.000000
280.000000
281.000000
282.000000
283.000000
284.000000
285.000000
286.000000
287.000000
288.000000
289.000000
290.000000
291.000000
292.000000
293.000000
294.000000
295.000000
296.000000
297.000000
298.000000
299.000000
300.000000
301.000000
302.000000
303.000000
304.000000
305.000000
306.000000
307.000000
308.000000
309.000000
310.000000
311.000000
312.000000
313.000000
314.000000
315.000000
316.000000
317.000000
318.000000
319.000000
320.000000
321.000000
322.000000
323.000000
324.000000
325.000000
326.000000
327.000000
328.000000
329.000000
330.000000
331.000000
332.000000
333.000000
334.000000
335.000000
336.000000
337.000000
338.000000
339.000000
340.000000
341.000000
342.000000
343.000000
344.000000
345.000000
346.000000
347.000000
348.000000
349.000000
350.000000
351.000000
352.000000
353.000000
354.000000
355.000000
356.000000
357.000000
358.000000
359.000000
360.000000
361.000000
362.000000
363.000000
364.000000
365.000000
366.000000
367.000000
368.000000
369.000000
370.000000
371.000000
372.000000
373.000000
374.000000
375.000000
376.000000
377.000000
378.000000
379.000000
380.000000
381.000000
382.000000
383.000000
384.000000
385.000000
386.000000
387.000000
388.000000
389.000000
390.000000
391.000000
392.000000
393.000000
394.000000
395.000000
396.000000
397.000000
398.000000
399.000000
400.000000
401.000000
402.000000
403.000000
404.000000
405.000000
406.000000
407.000000
408.000000
409.000000
410.000000
411.000000
412.000000
413.000000
414.000000
415.000000
416.000000
417.000000
418.000000
419.000000
420.000000
421.000000
422.000000
423.000000
424.000000
425.000000
426.000000
427.000000
428.000000
429.000000
430.000000
431.000000
432.000000
433.000000
434.000000
435.000000
436.000000
437.000000
438.000000
439.000000
440.000000
441.000000
442.000000
443.000000
444.000000
445.000000
446.000000
447.000000
448.000000
449.000000
450.000000
451.000000
452.000000
453.000000
454.000000
455.000000
456.000000
457.000000
458.000000
459.000000
460.000000
461.000000
462.000000
463.000000
464.000000
465.000000
466.000000
467.000000
468.000000
469.000000
470.000000
471.000000
472.000000
473.000000
474.000000
475.000000
476.000000
477.000000
478.000000
479.000000
480.000000
481.000000
482.000000
483.000000
484.000000
485.000000
486.000000
487.000000
488.000000
489.000000
490.000000
491.000000
492.000000
493.000000
494.000000
495.000000
496.000000
497.000000
498.000000
499.000000
500.000000
501.000000
502.000000
503.000000
504.000000
505.000000
506.000000
507.000000
508.000000
509.000000
510.000000
511.000000
512.000000
513.000000
514.000000
515.000000
516.000000
517.000000
518.000000
519.000000
520.000000
521.000000
522.000000
523.000000
524.000000
525.000000
526.000000
527.000000
528.000000
529.000000
530.000000
531.000000
532.000000
533.000000
534.000000
535.000000
536.000000
537.000000
538.000000
539.000000
540.000000
541.000000
542.000000
543.000000
544.000000
545.000000
546.000000
547.000000
548.000000
549.000000
550.000000
551.000000
552.000000
553.000000
554.000000
555.000000
556.000000
557.000000
558.000000
559.000000
560.000000
561.000000
562.000000
563.000000
564.000000
565.000000
566.000000
567.000000
568.000000
569.000000
570.000000
571.000000
572.000000
573.000000
574.000000
575.000000
576.000000
577.000000
578.000000
579.000000
580.000000
581.000000
582.000000
583.000000
584.000000
585.000000
586.000000
587.000000
588.000000
589.000000
590.000000
591.000000
592.000000
593.000000
594.000000
595.000000
596.000000
597.000000
598.000000
599.000000
600.000000
601.000000
602.000000
603.000000
604.000000
605.000000
606.000000
607.000000
608.000000
609.000000
610.000000
611.000000
612.000000
613.000000
614.000000
615.000000
616.000000
617.000000
618.000000
619.000000
620.000000
621.000000
622.000000
623.000000
624.000000
625.000000
626.000000
627.000000
628.000000
629.000000
630.000000
631.000000
632.000000
633.000000
634.000000
635.000000
636.000000
637.000000
638.000000
639.000000
640.000000
641.000000
642.000000
643.000000
644.000000
645.000000
646.000000
647.000000
648.000000
649.000000
650.000000
651.000000
652.000000
653.000000
654.000000
655.000000
656.000000
657.000000
658.000000
659.000000
660.000000
661.000000
662.000000
663.000000
664.000000
665.000000
666.000000
667.000000
668.000000
669.000000
670.000000
671.000000
672.000000
673.000000
674.000000
675.000000
676.000000
677.000000
678.000000
679.000000
680.000000
681.000000
682.000000
683.000000
684.000000
685.000000
686.000000
687.000000
688.000000
689.000000
690.000000
691.000000
692.000000
693.000000
694.000000
695.000000
696.000000
697.000000
698.000000
699.000000
700.000000
701.000000
702.000000
703.000000
704.000000
705.000000
706.000000
707.000000
708.000000
709.000000
710.000000
711.000000
712.000000
713.000000
714.000000
715.000000
716.000000
717.000000
718.000000
719.000000
720.000000
721.000000
722.000000
723.000000
724.000000
725.000000
726.000000
727.000000
728.000000
729.000000
730.000000
731.000000
732.000000
733.000000
734.000000
735.000000
736.000000
737.000000
738.000000
739.000000
740.000000
741.000000
742.000000
743.000000
744.000000
745.000000
746.000000
747.000000
748.000000
749.000000
750.000000
751.000000
752.000000
753.000000
754.000000
755.000000
756.000000
757.000000
758.000000
759.000000
760.000000
761.000000
762.000000
763.000000
764.000000
765.000000
766.000000
767.000000
768.000000
769.000000
770.000000
771.000000
772.000000
773.000000
774.000000
775.000000
776.000000
777.000000
778.000000
779.000000
780.000000
781.000000
782.000000
783.000000
784.000000
785.000000
786.000000
787.000000
788.000000
789.000000
790.000000
791.000000
792.000000
793.000000
794.000000
795.000000
796.000000
797.000000
798.000000
799.000000
800.000000
801.000000
802.000000
803.000000
804.000000
805.000000
806.000000
807.000000
808.000000
809.000000
810.000000
811.000000
812.000000
813.000000
814.000000
815.000000
816.000000
817.000000
818.000000
819.000000
820.000000
821.000000
822.000000
823.000000
824.000000
825.000000
826.000000
827.000000
828.000000
829.000000
830.000000
831.000000
832.000000
833.000000
834.000000
835.000000
836.000000
837.000000
838.000000
839.000000
840.000000
841.000000
842.000000
843.000000
844.000000
845.000000
846.000000
847.000000
848.000000
849.000000
850.000000
851.000000
852.000000
853.000000
854.000000
855.000000
856.000000
857.000000
858.000000
859.000000
860.000000
861.000000
862.000000
863.000000
864.000000
865.000000
866.000000
867.000000
868.000000
869.000000
870.000000
871.000000
872.000000
873.000000
874.000000
875.000000
876.000000
877.000000
878.000000
879.000000
880.000000
881.000000
882.000000
883.000000
884.000000
885.000000
886.000000
887.000000
888.000000
889.000000
890.000000
891.000000
892.000000
893.000000
894.000000
895.000000
896.000000
897.000000
898.000000
899.000000
900.000000
901.000000
902.000000
903.000000
904.000000
905.000000
906.000000
907.000000
908.000000
909.000000
910.000000
911.000000
912.000000
913.000000
914.000000
915.000000
916.000000
917.000000
918.000000
919.000000
920.000000
921.000000
922.000000
923.000000
924.000000
925.000000
926.000000
927.000000
928.000000
929.000000
930.000000
931.000000
932.000000
933.000000
934.000000
935.000000
936.000000
937.000000
938.000000
939.000000
940.000000
941.000000
942.000000
943.000000
944.000000
945.000000
946.000000
947.000000
948.000000
949.000000
950.000000
951.000000
952.000000
953.000000
954.000000
955.000000
956.000000
957.000000
958.000000
959.000000
960.000000
961.000000
962.000000
963.000000
964.000000
965.000000
966.000000
967.000000
968.000000
969.000000
970.000000
971.000000
972.000000
973.000000
974.000000
975.000000
976.000000
977.000000
978.000000
979.000000
980.000000
981.000000
982.000000
983.000000
984.000000
985.000000
986.000000
987.000000
988.000000
989.000000
990.000000
991.000000
992.000000
993.000000
994.000000
995.000000
996.000000
997.000000
998.000000
999.000000
1000.000000
1001.000000
1002.000000
1003.000000
1004.000000
1005.000000
1006.000000
1007.000000
1008.000000
1009.000000
1010.000000
1011.000000
1012.000000
1013.000000
1014.000000
1015.000000
1016.000000
1017.000000
1018.000000
1019.000000
1020.000000
1021.000000
1022.000000
1023.000000
1024.000000
1025.000000
1026.000000
1027.000000
1028.000000
1029.000000
1030.000000
1031.000000
1032.000000
1033.000000
1034.000000
1035.000000
1036.000000
1037.000000
1038.000000
1039.000000
1040.000000
1041.000000
1042.000000
1043.000000
1044.000000
1045.000000
1046.000000
1047.000000
1048.000000
1049.000000
1050.000000
1051.000000
1052.000000
1053.000000
1054.000000
1055.000000
1056.000000
1057.000000
1058.000000
1059.000000
1060.000000
1061.000000
1062.000000
1063.000000
1064.000000
1065.000000
1066.000000
1067.000000
1068.000000
1069.000000
1070.000000
1071.000000
1072.000000
1073.000000
1074.000000
1075.000000
1076.000000
1077.000000
1078.000000
1079.000000
1080.000000
1081.000000
1082.000000
1083.000000
1084.000000
1085.000000
1086.000000
1087.000000
1088.000000
1089.000000
1090.000000
1091.000000
1092.000000
1093.000000
1094.000000
1095.000000
1096.000000
1097.000000
1098.000000
1099.000000
1100.000000
1101.000000
1102.000000
1103.000000
1104.000000
1105.000000
1106.000000
1107.000000
1108.000000
1109.000000
1110.000000
1111.000000
1112.000000
1113.000000
1114.000000
1115.000000
1116.000000
1117.000000
1118.000000
1119.000000
1120.000000
1121.000000
1122.000000
1123.000000
1124.000000
1125.000000
1126.000000
1127.000000
1128.000000
1129.000000
1130.000000
1131.000000
1132.000000
1133.000000
1134.000000
1135.000000
1136.000000
1137.000000
1138.000000
1139.000000
1140.000000
1141.000000
1142.000000
1143.000000
1144.000000
1145.000000
1146.000000
1147.000000
1148.000000
1149.000000
1150.000000
1151.000000
1152.000000
1153.000000
1154.000000
1155.000000
1156.000000
1157.000000
1158.000000
1159.000000
1160.000000
1161.000000
1162.000000
1163.000000
1164.000000
1165.000000
1166.000000
1167.000000
1168.000000
1169.000000
1170.000000
1171.000000
1172.000000
1173.000000
1174.000000
1175.000000
1176.000000
1177.000000
1178.000000
1179.000000
1180.000000
1181.000000
1182.000000
1183.000000
1184.000000
1185.000000
1186.000000
1187.000000
1188.000000
1189.000000
1190.000000
1191.000000
1192.000000
1193.000000
1194.000000
1195.000000
1196.000000
1197.000000
1198.000000
1199.000000
1200.000000
1201.000000
1202.000000
1203.000000
1204.000000
1205.000000
1206.000000
1207.000000
1208.000000
1209.000000
1210.000000
1211.000000
1212.000000
1213.000000
1214.000000
1215.000000
1216.000000
1217.000000
1218.000000
1219.000000
1220.000000
1221.000000
1222.000000
1223.000000
1224.000000
1225.000000
1226.000000
1227.000000
1228.000000
1229.000000
1230.000000
1231.000000
1232.000000
1233.000000
1234.000000
1235.000000
1236.000000
1237.000000
1238.000000
1239.000000
1240.000000
1241.000000
1242.000000
1243.000000
1244.000000
1245.000000
1246.000000
1247.000000
1248.000000
1249.000000
1250.000000
1251.000000
1252.000000
1253.000000
1254.000000
1255.000000
1256.000000
1257.000000
1258.000000
1259.000000
1260.000000
1261.000000
1262.000000
1263.000000
1264.000000
1265.000000
1266.000000
1267.000000
1268.000000
1269.000000
1270.000000
1271.000000
1272.000000
1273.000000
1274.000000
1275.000000
1276.000000
1277.000000
1278.000000
1279.000000
1280.000000
1281.000000
1282.000000
1283.000000
1284.000000
1285.000000
1286.000000
1287.000000
1288.000000
1289.000000
1290.000000
1291.000000
1292.000000
1293.000000
1294.000000
1295.000000
1296.000000
1297.000000
1298.000000
1299.000000
1300.000000
1301.000000
1302.000000
1303.000000
1304.000000
1305.000000
1306.000000
1307.000000
1308.000000
1309.000000
1310.000000
1311.000000
1312.000000
1313.000000
1314.000000
1315.000000
1316.000000
1317.000000
1318.000000
1319.000000
1320.000000
1321.000000
1322.000000
1323.000000
1324.000000
VECTORS displacement double
0.000000e+00		0.000000e+00		0.000000e+00
0.000000e+00		0.000000e+00		0.000000e+00
0.000000e+00		0.000000e+00		0.000000e+00
0.000000e+00		0.000000e+00		0.000000e+00
0.000000e+00		0.000000e+00		0.000000e+00
0.000000e+00		0.000000e+00		0.000000e+00
0.000000e+00		0.000000e+00		0.000000e+00
0.000000e+00		0.000000e+00		0.000000e+00
0.000000e+00		0.000000e+00		0.000000e+00
0.000000e+00		0.000000e+00		0.000000e+00
0.000000e+00		0.000000e+00		0.000000e+00
0.000000e+00		0.000000e+00		0.000000e+00
0.000000e+00		0.000000e+00		0.000000e+00
0.000000e+00		0.000000e+00		0.000000e+00
0.000000e+00		0.000000e+00		0.000000e+00
0.000000e+00		0.000000e+00		0.000000e+00
0.000000e+00		0.000000e+00		0.000000e+00
0.000000e+00		0.000000e+00		0.000000e+00
0.000000e+00		0.000000e+00		0.000000e+00
0.000000e+00		0.000000e+00		0.000000e+00
0.000000e+00		0.000000e+00		0.000000e+00
0.000000e+00		0.000000e+00		0.000000e+00
0.000000e+00		0.000000e+00		0.000000e+00
0.000000e+00		0.000000e+00		0.000000e+00
0.000000e+00		0.000000e+00		0.000000e+00
0.000000e+00		0.000000e+00		0.000000e+00
0.000000e+00		0.000000e+00		0.000000e+00
0.000000e+00		0.000000e+00		0.000000e+00
0.000000e+00		0.000000e+00		0.000000e+00
0.000000e+00		0.000000e+00		0.000000e+00
0.000000e+00		0.000000e+00		0.000000e+00
0.000000e+00		0.000000e+00		0.000000e+00
0.000000e+00		0.000000e+00		0.000000e+00
0.000000e+00		0.000000e+00		0.000000e+00
0.000000e+00		0.000000e+00		0.000000e+00
0.000000e+00		0.000000e+00		0.000000e+00
0.000000e+00		0.000000e+00		0.000000e+00
0.000000e+00		0.000000e+00		0.000000e+00
0.000000e+00		0.000000e+00		0.000000e+00
0.000000e+00		0.000000e+00		0.000000e+00
0.000000e+00		0.000000e+00		0.000000e+00
0.000000e+00		0.000000e+00		0.000000e+00
0.000000e+00		0.000000e+00		0.000000e+00
0.000000e+00		0.000000e+00		0.000000e+00
0.000000e+00		0.000000e+00		0.000000e+00
0.000000e+00		0.000000e+00		0.000000e+00
0.000000e+00		0.000000e+00		0.000000e+00
0.000000e+00		0.000000e+00		0.000000e+00
0.000000e+00		0.000000e+00		0.000000e+00
0.000000e+00		0.000000e+00		0.000000e+00
0.000000e+00		0.000000e+00		0.000000e+00
0.000000e+00		0.000000e+00		0.000000e+00
0.000000e+00		0.000000e+00		0.000000e+00
0.000000e+00		0.000000e+00		0.000000e+00
0.000000e+00		0.000000e+00		0.000000e+00
0.000000e+00		0.000000e+00		0.000000e+00
0.000000e+00		0.000000e+00		0.000000e+00
0.000000e+00		0.000000e+00		0.000000e+00
0.000000e+00		0.000000e+00		0.000000e+00
0.000000e+00		0.000000e+00		0.000000e+00
0.000000e+00		0.000000e+00		0.000000e+00
0.000000e+00		0.000000e+00		0.000000e+00
0.000000e+00		0.000000e+00		0.000000e+00
0.000000e+00		0.000000e+00		0.000000e+00
0.000000e+00		0.000000e+00		0.000000e+00
6.788702e-03		7.941817e-03		1.613756e-02
8.863038e-03		2.119759e-03		1.403871e-02
9.364479e-03		9.495811e-16		1.453489e-02
8.863038e-03		-2.119759e-03		1.403871e-02
6.788702e-03		-7.941817e-03		1.613756e-02
1.307387e-03		4.035971e-03		6.630638e-03
3.242682e-03		1.071257e-03		4.903464e-03
3.482666e-03		9.550872e-16		4.980789e-03
3.242682e-03		-1.071257e-03		4.903464e-03
1.307387e-03		-4.035971e-03		6.630638e-03
7.399807e-04		-2.328624e-15		1.014271e-15
2.698665e-03		-1.057761e-15		-6.734251e-16
2.944235e-03		4.552483e-16		-1.002310e-15
2.698665e-03		1.849939e-15		-5.287540e-16
7.399807e-04		2.696977e-15		1.252373e-15
1.307387e-03		-4.035971e-03		-6.630638e-03
3.242682e-03		-1.071257e-03		-4.903464e-03
3.482666e-03		-1.844572e-16		-4.980789e-03
3.242682e-03		1.071257e-03		-4.903464e-03
1.307387e-03		4.035971e-03		-6.630638e-03
6.788702e-03		-7.941817e-03		-1.613756e-02
8.863038e-03		-2.119759e-03		-1.403871e-02
9.364479e-03		-6.575671e-16		-1.453489e-02
8.863038e-03		2.119759e-03		-1.403871e-02
6.788702e-03		7.941817e-03		-1.613756e-02
1.381005e-02		1.176176e-02		3.043504e-02
1.638118e-02		7.306919e-03		2.843941e-02
1.797949e-02		4.432541e-03		2.846257e-02
1.873057e-02		1.925000e-03		2.825904e-02
1.896354e-02		-3.061410e-15		2.826950e-02
1.873057e-02		-1.925000e-03		2.825904e-02
1.797949e-02		-4.432541e-03		2.846257e-02
1.638118e-02		-7.306919e-03		2.843941e-02
1.381005e-02		-1.176176e-02		3.043504e-02
9.553518e-03		9.005271e-03		2.109239e-02
1.287356e-02		3.342467e-03		1.856472e-02
1.368123e-02		1.980525e-15		1.811611e-02
1.287356e-02		-3.342467e-03		1.856472e-02
9.553518e-03		-9.005271e-03		2.109239e-02
7.462096e-03		6.313274e-03		1.341626e-02
9.593190e-03		3.886514e-03		1.201501e-02
1.053092e-02		2.299480e-03		1.167507e-02
1.106651e-02		9.737628e-04		1.137150e-02
1.123497e-02		-2.807186e-15		1.131832e-02
1.106651e-02		-9.737628e-04		1.137150e-02
1.053092e-02		-2.299480e-03		1.167507e-02
9.593190e-03		-3.886514e-03		1.201501e-02
7.462096e-03		-6.313274e-03		1.341626e-02
5.962103e-03		3.225746e-03		6.368744e-03
9.029366e-03		1.173291e-03		5.456279e-03
9.625715e-03		1.288213e-15		5.258059e-03
9.029366e-03		-1.173291e-03		5.456279e-03
5.962103e-03		-3.225746e-03		6.368744e-03
5.443483e-03		1.035350e-14		-4.148624e-16
7.716866e-03		-4.248423e-15		-5.313446e-16
8.556189e-03		6.492561e-15		9.005289e-16
9.007958e-03		-1.161182e-15		-1.383443e-15
9.134724e-03		-1.264807e-15		1.602648e-15
9.007958e-03		2.827128e-15		-1.266781e-15
8.556189e-03		-8.564592e-15		7.518960e-16
7.716866e-03		5.523554e-15		-2.613023e-16
5.443483e-03		-1.152672e-14		-7.280772e-16
5.962103e-03		-3.225746e-03		-6.368744e-03
9.029366e-03		-1.173291e-03		-5.456279e-03
9.625715e-03		1.543618e-16		-5.258059e-03
9.029366e-03		1.173291e-03		-5.456279e-03
5.962103e-03		3.225746e-03		-6.368744e-03
7.462096e-03		-6.313274e-03		-1.341626e-02
9.593190e-03		-3.886514e-03		-1.201501e-02
1.053092e-02		-2.299480e-03		-1.167507e-02
1.106651e-02		-9.737628e-04		-1.137150e-02
1.123497e-02		7.189399e-16		-1.131832e-02
1.106651e-02		9.737628e-04		-1.137150e-02
1.053092e-02		2.299480e-03		-1.167507e-02
9.593190e-03		3.886514e-03		-1.201501e-02
7.462096e-03		6.313274e-03		-1.341626e-02
9.553518e-03		-9.005271e-03		-2.109239e-02
1.287356e-02		-3.342467e-03		-1.856472e-02
1.368123e-02		-9.624861e-16		-1.811611e-02
1.287356e-02		3.342467e-03		-1.856472e-02
9.553518e-03		9.005271e-03		-2.109239e-02
1.381005e-02		-1.176176e-02		-3.043504e-02
1.638118e-02		-7.306919e-03		-2.843941e-02
1.797949e-02		-4.432541e-03		-2.846257e-02
1.873057e-02		-1.925000e-03		-2.825904e-02
1.896354e-02		1.566856e-15		-2.826950e-02
1.873057e-02		1.925000e-03		-2.825904e-02
1.797949e-02		4.432541e-03		-2.846257e-02
1.638118e-02		7.306919e-03		-2.843941e-02
1.381005e-02		1.176176e-02		-3.043504e-02
2.301097e-02		1.340673e-02		4.214988e-02
2.791687e-02		5.564202e-03		4.074766e-02
2.928782e-02		2.047994e-15		4.054067e-02
2.791687e-02		-5.564202e-03		4.074766e-02
2.301097e-02		-1.340673e-02		4.214988e-02
1.654674e-02		7.058226e-03		1.907918e-02
2.033764e-02		2.901301e-03		1.794947e-02
2.122561e-02		2.145556e-15		1.760972e-02
2.033764e-02		-2.901301e-03		1.794947e-02
1.654674e-02		-7.058226e-03		1.907918e-02
1.428370e-02		-6.641589e-15		1.806250e-15
1.813072e-02		-3.477396e-15		5.199773e-16
1.886970e-02		9.196627e-16		-2.224808e-17
1.813072e-02		5.020160e-15		-3.871182e-17
1.428370e-02		6.621556e-15		5.221981e-16
1.654674e-02		-7.058226e-03		-1.907918e-02
2.033764e-02		-2.901301e-03		-1.794947e-02
2.122561e-02		-7.116118e-16		-1.760972e-02
2.033764e-02		2.901301e-03		-1.794947e-02
1.654674e-02		7.058226e-03		-1.907918e-02
2.301097e-02		-1.340673e-02		-4.214988e-02
2.791687e-02		-5.564202e-03		-4.074766e-02
2.928782e-02		-1.685193e-15		-4.054067e-02
2.791687e-02		5.564202e-03		-4.074766e-02
2.301097e-02		1.340673e-02		-4.214988e-02
3.456962e-02		1.356567e-02		5.249696e-02
3.751275e-02		9.888116e-03		5.244180e-02
3.952066e-02		6.093691e-03		5.202683e-02
4.066786e-02		2.947387e-03		5.190226e-02
4.102652e-02		-1.914287e-15		5.182539e-02
4.066786e-02		-2.947387e-03		5.190226e-02
3.952066e-02		-6.093691e-03		5.202683e-02
3.751275e-02		-9.888116e-03		5.244180e-02
3.456962e-02		-1.356567e-02		5.249696e-02
3.129473e-02		1.026418e-02		3.792485e-02
3.576938e-02		4.625748e-03		3.756391e-02
3.704053e-02		2.084941e-15		3.731745e-02
3.576938e-02		-4.625748e-03		3.756391e-02
3.129473e-02		-1.026418e-02		3.792485e-02
2.857693e-02		6.957186e-03		2.433786e-02
3.120687e-02		5.133796e-03		2.436265e-02
3.277292e-02		3.163262e-03		2.403130e-02
3.357889e-02		1.520458e-03		2.388826e-02
3.381986e-02		-1.830177e-15		2.382501e-02
3.357889e-02		-1.520458e-03		2.388826e-02
3.277292e-02		-3.163262e-03		2.403130e-02
3.120687e-02		-5.133796e-03		2.436265e-02
2.857693e-02		-6.957186e-03		2.433786e-02
2.691866e-02		3.561912e-03		1.195000e-02
3.109963e-02		1.616640e-03		1.178547e-02
3.202095e-02		1.248455e-15		1.166162e-02
3.109963e-02		-1.616640e-03		1.178547e-02
2.691866e-02		-3.561912e-03		1.195000e-02
2.633022e-02		1.596863e-14		-1.441169e-15
2.909263e-02		-6.832354e-15		1.445950e-15
3.055214e-02		1.093508e-14		-1.636475e-15
3.125341e-02		-2.390564e-15		9.186114e-16
3.146087e-02		-2.413477e-16		-1.554558e-15
3.125341e-02		3.509586e-15		4.455847e-16
3.055214e-02		-1.098651e-14		-8.803818e-16
2.909263e-02		7.571243e-15		-1.361798e-16
2.633022e-02		-1.536966e-14		-3.124390e-16
2.691866e-02		-3.561912e-03		-1.195000e-02
3.109963e-02		-1.616640e-03		-1.178547e-02
3.202095e-02		-2.058960e-16		-1.166162e-02
3.109963e-02		1.616640e-03		-1.178547e-02
2.691866e-02		3.561912e-03		-1.195000e-02
2.857693e-02		-6.957186e-03		-2.433786e-02
3.120687e-02		-5.133796e-03		-2.436265e-02
3.277292e-02		-3.163262e-03		-2.403130e-02
3.357889e-02		-1.520458e-03		-2.388826e-02
3.381986e-02		1.798428e-15		-2.382501e-02
3.357889e-02		1.520458e-03		-2.388826e-02
3.277292e-02		3.163262e-03		-2.403130e-02
3.120687e-02		5.133796e-03		-2.436265e-02
2.857693e-02		6.957186e-03		-2.433786e-02
3.129473e-02		-1.026418e-02		-3.792485e-02
3.576938e-02		-4.625748e-03		-3.756391e-02
3.704053e-02		-1.621120e-15		-3.731745e-02
3.576938e-02		4.625748e-03		-3.756391e-02
3.129473e-02		1.026418e-02		-3.792485e-02
3.456962e-02		-1.356567e-02		-5.249696e-02
3.751275e-02		-9.888116e-03		-5.244180e-02
3.952066e-02		-6.093691e-03		-5.202683e-02
4.066786e-02		-2.947387e-03		-5.190226e-02
4.102652e-02		2.429631e-15		-5.182539e-02
4.066786e-02		2.947387e-03		-5.190226e-02
3.952066e-02		6.093691e-03		-5.202683e-02
3.751275e-02		9.888116e-03		-5.244180e-02
3.456962e-02		1.356567e-02		-5.249696e-02
4.879868e-02		1.316013e-02		6.250830e-02
5.358125e-02		6.218987e-03		6.282701e-02
5.508666e-02		1.152500e-15		6.261440e-02
5.358125e-02		-6.218987e-03		6.282701e-02
4.879868e-02		-1.316013e-02		6.250830e-02
4.331518e-02		6.647615e-03		2.952454e-02
4.762374e-02		3.218800e-03		2.979702e-02
4.877501e-02		1.252478e-15		2.967856e-02
4.762374e-02		-3.218800e-03		2.979702e-02
4.331518e-02		-6.647615e-03		2.952454e-02
4.123040e-02		-5.941437e-15		1.001599e-15
4.551719e-02		-3.998833e-15		1.939097e-15
4.655143e-02		2.918615e-16		2.176683e-15
4.551719e-02		4.372164e-15		1.209218e-15
4.123040e-02		6.412795e-15		-6.629716e-16
4.331518e-02		-6.647615e-03		-2.952454e-02
4.762374e-02		-3.218800e-03		-2.979702e-02
4.877501e-02		-8.737658e-16		-2.967856e-02
4.762374e-02		3.218800e-03		-2.979702e-02
4.331518e-02		6.647615e-03		-2.952454e-02
4.879868e-02		-1.316013e-02		-6.250830e-02
5.358125e-02		-6.218987e-03		-6.282701e-02
5.508666e-02		-1.242424e-15		-6.261440e-02
5.358125e-02		6.218987e-03		-6.282701e-02
4.879868e-02		1.316013e-02		-6.250830e-02
6.531328e-02		1.229128e-02		7.178798e-02
6.796952e-02		9.066762e-03		7.249577e-02
6.979431e-02		5.935035e-03		7.261116e-02
7.085957e-02		2.924133e-03		7.255448e-02
7.121572e-02		1.910315e-15		7.252270e-02
7.085957e-02		-2.924133e-03		7.255448e-02
6.979431e-02		-5.935035e-03		7.261116e-02
6.796952e-02		-9.066762e-03		7.249577e-02
6.531328e-02		-1.229128e-02		7.178798e-02
6.245776e-02		9.226520e-03		5.230982e-02
6.673378e-02		4.511068e-03		5.318536e-02
6.801731e-02		6.343131e-16		5.318244e-02
6.673378e-02		-4.511068e-03		5.318536e-02
6.245776e-02		-9.226520e-03		5.230982e-02
6.039692e-02		6.176641e-03		3.419119e-02
6.293293e-02		4.620182e-03		3.465252e-02
6.455372e-02		3.052531e-03		3.482424e-02
6.545420e-02		1.506222e-03		3.484421e-02
6.573122e-02		1.473568e-15		3.483977e-02
6.545420e-02		-1.506222e-03		3.484421e-02
6.455372e-02		-3.052531e-03		3.482424e-02
6.293293e-02		-4.620182e-03		3.465252e-02
6.039692e-02		-6.176641e-03		3.419119e-02
5.906369e-02		3.107510e-03		1.686724e-02
6.318900e-02		1.546153e-03		1.720004e-02
6.429577e-02		2.973099e-16		1.720752e-02
6.318900e-02		-1.546153e-03		1.720004e-02
5.906369e-02		-3.107510e-03		1.686724e-02
5.860765e-02		1.159553e-14		1.357254e-15
6.116581e-02		-4.659806e-15		1.191549e-15
6.274288e-02		8.681355e-15		-1.604984e-15
6.358075e-02		-1.921919e-15		1.986692e-15
6.383189e-02		1.432424e-15		-3.495616e-15
6.358075e-02		1.911511e-15		1.635204e-15
6.274288e-02		-5.664703e-15		-1.918053e-15
6.116581e-02		4.580495e-15		1.085054e-16
5.860765e-02		-8.754786e-15		6.628176e-16
5.906369e-02		-3.107510e-03		-1.686724e-02
6.318900e-02		-1.546153e-03		-1.720004e-02
6.429577e-02		-1.683818e-16		-1.720752e-02
6.318900e-02		1.546153e-03		-1.720004e-02
5.906369e-02		3.107510e-03		-1.686724e-02
6.039692e-02		-6.176641e-03		-3.419119e-02
6.293293e-02		-4.620182e-03		-3.465252e-02
6.455372e-02		-3.052531e-03		-3.482424e-02
6.545420e-02		-1.506222e-03		-3.484421e-02
6.573122e-02		1.184578e-15		-3.483977e-02
6.545420e-02		1.506222e-03		-3.484421e-02
6.455372e-02		3.052531e-03		-3.482424e-02
6.293293e-02		4.620182e-03		-3.465252e-02
6.039692e-02		6.176641e-03		-3.419119e-02
6.245776e-02		-9.226520e-03		-5.230982e-02
6.673378e-02		-4.511068e-03		-5.318536e-02
6.801731e-02		-4.975848e-16		-5.318244e-02
6.673378e-02		4.511068e-03		-5.318536e-02
6.245776e-02		9.226520e-03		-5.230982e-02
6.531328e-02		-1.229128e-02		-7.178798e-02
6.796952e-02		-9.066762e-03		-7.249577e-02
6.979431e-02		-5.935035e-03		-7.261116e-02
7.085957e-02		-2.924133e-03		-7.255448e-02
7.121572e-02		4.561750e-16		-7.252270e-02
7.085957e-02		2.924133e-03		-7.255448e-02
6.979431e-02		5.935035e-03		-7.261116e-02
6.796952e-02		9.066762e-03		-7.249577e-02
6.531328e-02		1.229128e-02		-7.178798e-02
8.386945e-02		1.106697e-02		8.015807e-02
8.792978e-02		5.411616e-03		8.127185e-02
8.921792e-02		5.817196e-16		8.129506e-02
8.792978e-02		-5.411616e-03		8.127185e-02
8.386945e-02		-1.106697e-02		8.015807e-02
7.956811e-02		5.549454e-03		3.830833e-02
8.341466e-02		2.768004e-03		3.917300e-02
8.455366e-02		3.589197e-16		3.929739e-02
8.341466e-02		-2.768004e-03		3.917300e-02
7.956811e-02		-5.549454e-03		3.830833e-02
7.804975e-02		-1.462623e-15		-1.976891e-15
8.188167e-02		-1.184747e-15		8.780924e-16
8.296612e-02		1.861121e-16		2.172265e-15
8.188167e-02		1.420300e-15		9.422858e-16
7.804975e-02		2.658629e-15		-2.043400e-15
7.956811e-02		-5.549454e-03		-3.830833e-02
8.341466e-02		-2.768004e-03		-3.917300e-02
8.455366e-02		3.198667e-16		-3.929739e-02
8.341466e-02		2.768004e-03		-3.917300e-02
7.956811e-02		5.549454e-03		-3.830833e-02
8.386945e-02		-1.106697e-02		-8.015807e-02
8.792978e-02		-5.411616e-03		-8.127185e-02
8.921792e-02		6.908451e-16		-8.129506e-02
8.792978e-02		5.411616e-03		-8.127185e-02
8.386945e-02		1.106697e-02		-8.015807e-02
1.042679e-01		9.658421e-03		8.750500e-02
1.063655e-01		7.199986e-03		8.850941e-02
1.078208e-01		4.748416e-03		8.880675e-02
1.086745e-01		2.363904e-03		8.891085e-02
1.089550e-01		2.985561e-15		8.889667e-02
1.086745e-01		-2.363904e-03		8.891085e-02
1.078208e-01		-4.748416e-03		8.880675e-02
1.063655e-01		-7.199986e-03		8.850941e-02
1.042679e-01		-9.658421e-03		8.750500e-02
1.021158e-01		7.250596e-03		6.393586e-02
1.055845e-01		3.597015e-03		6.532488e-02
1.066664e-01		7.431898e-16		6.552616e-02
1.055845e-01		-3.597015e-03		6.532488e-02
1.021158e-01		-7.250596e-03		6.393586e-02
1.005690e-01		4.841473e-03		4.190699e-02
1.026126e-01		3.640426e-03		4.256761e-02
1.039901e-01		2.419709e-03		4.291718e-02
1.047779e-01		1.209695e-03		4.307974e-02
1.050304e-01		2.361506e-15		4.310551e-02
1.047779e-01		-1.209695e-03		4.307974e-02
1.039901e-01		-2.419709e-03		4.291718e-02
1.026126e-01		-3.640426e-03		4.256761e-02
1.005690e-01		-4.841473e-03		4.190699e-02
9.962728e-02		2.428114e-03		2.074329e-02
1.030370e-01		1.218263e-03		2.127553e-02
1.040522e-01		5.359271e-16		2.138813e-02
1.030370e-01		-1.218263e-03		2.127553e-02
9.962728e-02		-2.428114e-03		2.074329e-02
9.929767e-02		-5.995682e-17		6.036808e-15
1.013483e-01		1.326255e-15		-6.895309e-16
1.027076e-01		1.749977e-16		2.057675e-15
1.034735e-01		9.573762e-16		9.741814e-16
1.037153e-01		1.127764e-15		-7.349160e-16
1.034735e-01		2.215793e-16		9.908386e-16
1.027076e-01		2.206241e-15		8.943442e-16
1.013483e-01		-2.818420e-16		-6.057929e-16
9.929767e-02		2.393115e-15		3.698491e-15
9.962728e-02		-2.428114e-03		-2.074329e-02
1.030370e-01		-1.218263e-03		-2.127553e-02
1.040522e-01		8.855003e-16		-2.138813e-02
1.030370e-01		1.218263e-03		-2.127553e-02
9.962728e-02		2.428114e-03		-2.074329e-02
1.005690e-01		-4.841473e-03		-4.190699e-02
1.026126e-01		-3.640426e-03		-4.256761e-02
1.039901e-01		-2.419709e-03		-4.291718e-02
1.047779e-01		-1.209695e-03		-4.307974e-02
1.050304e-01		-9.855445e-16		-4.310551e-02
1.047779e-01		1.209695e-03		-4.307974e-02
1.039901e-01		2.419709e-03		-4.291718e-02
1.026126e-01		3.640426e-03		-4.256761e-02
1.005690e-01		4.841473e-03		-4.190699e-02
1.021158e-01		-7.250596e-03		-6.393586e-02
1.055845e-01		-3.597015e-03		-6.532488e-02
1.066664e-01		1.475363e-15		-6.552616e-02
1.055845e-01		3.597015e-03		-6.532488e-02
1.021158e-01		7.250596e-03		-6.393586e-02
1.042679e-01		-9.658421e-03		-8.750500e-02
1.063655e-01		-7.199986e-03		-8.850941e-02
1.078208e-01		-4.748416e-03		-8.880675e-02
1.086745e-01		-2.363904e-03		-8.891085e-02
1.089550e-01		-2.768517e-15		-8.889667e-02
1.086745e-01		2.363904e-03		-8.891085e-02
1.078208e-01		4.748416e-03		-8.880675e-02
1.063655e-01		7.199986e-03		-8.850941e-02
1.042679e-01		9.658421e-03		-8.750500e-02
1.262257e-01		8.147375e-03		9.374964e-02
1.292293e-01		4.022931e-03		9.518244e-02
1.301962e-01		2.340402e-15		9.531835e-02
1.292293e-01		-4.022931e-03		9.518244e-02
1.262257e-01		-8.147375e-03		9.374964e-02
1.231284e-01		4.083874e-03		4.498743e-02
1.260568e-01		2.042960e-03		4.609568e-02
1.269678e-01		1.231680e-15		4.633128e-02
1.260568e-01		-2.042960e-03		4.609568e-02
1.231284e-01		-4.083874e-03		4.498743e-02
1.220857e-01		3.109146e-15		-3.802003e-15
1.250086e-01		3.217250e-15		-1.343561e-15
1.259025e-01		9.539914e-16		-2.053447e-16
1.250086e-01		-1.355561e-15		-1.455773e-15
1.220857e-01		-1.208510e-15		-3.939145e-15
1.231284e-01		-4.083874e-03		-4.498743e-02
1.260568e-01		-2.042960e-03		-4.609568e-02
1.269678e-01		1.304497e-15		-4.633128e-02
1.260568e-01		2.042960e-03		-4.609568e-02
1.231284e-01		4.083874e-03		-4.498743e-02
1.262257e-01		-8.147375e-03		-9.374964e-02
1.292293e-01		-4.022931e-03		-9.518244e-02
1.301962e-01		1.241034e-15		-9.531835e-02
1.292293e-01		4.022931e-03		-9.518244e-02
1.262257e-01		8.147375e-03		-9.374964e-02
1.494643e-01		6.566448e-03		9.890262e-02
1.508884e-01		4.905532e-03		1.000298e-01
1.518885e-01		3.250815e-03		1.004092e-01
1.524784e-01		1.619935e-03		1.005592e-01
1.526736e-01		1.448113e-15		1.005697e-01
1.524784e-01		-1.619935e-03		1.005592e-01
1.518885e-01		-3.250815e-03		1.004092e-01
1.508884e-01		-4.905532e-03		1.000298e-01
1.494643e-01		-6.566448e-03		9.890262e-02
1.480129e-01		4.931035e-03		7.241121e-02
1.504095e-01		2.455423e-03		7.400837e-02
1.511751e-01		2.509921e-15		7.429462e-02
1.504095e-01		-2.455423e-03		7.400837e-02
1.480129e-01		-4.931035e-03		7.241121e-02
1.469785e-01		3.293252e-03		4.752716e-02
1.483881e-01		2.472990e-03		4.826876e-02
1.493604e-01		1.647045e-03		4.869261e-02
1.499282e-01		8.228503e-04		4.890356e-02
1.501121e-01		1.172890e-15		4.895275e-02
1.499282e-01		-8.228503e-04		4.890356e-02
1.493604e-01		-1.647045e-03		4.869261e-02
1.483881e-01		-2.472990e-03		4.826876e-02
1.469785e-01		-3.293252e-03		4.752716e-02
1.463550e-01		1.649535e-03		2.354048e-02
1.487342e-01		8.272486e-04		2.415515e-02
1.494778e-01		1.552761e-15		2.430770e-02
1.487342e-01		-8.272486e-04		2.415515e-02
1.463550e-01		-1.649535e-03		2.354048e-02
1.461473e-01		-9.967617e-15		7.023178e-15
1.475611e-01		6.533523e-15		-1.150737e-15
1.485279e-01		-7.598416e-15		5.054162e-15
1.490886e-01		3.636173e-15		-3.030448e-16
1.492696e-01		3.900457e-16		3.828366e-15
1.490886e-01		-9.145977e-16		-5.118661e-16
1.485279e-01		8.410157e-15		5.230080e-15
1.475611e-01		-3.882600e-15		-1.706925e-15
1.461473e-01		1.079569e-14		6.885187e-15
1.463550e-01		-1.649535e-03		-2.354048e-02
1.487342e-01		-8.272486e-04		-2.415515e-02
1.494778e-01		1.221421e-15		-2.430770e-02
1.487342e-01		8.272486e-04		-2.415515e-02
1.463550e-01		1.649535e-03		-2.354048e-02
1.469785e-01		-3.293252e-03		-4.752716e-02
1.483881e-01		-2.472990e-03		-4.826876e-02
1.493604e-01		-1.647045e-03		-4.869261e-02
1.499282e-01		-8.228503e-04		-4.890356e-02
1.501121e-01		-1.132634e-15		-4.895275e-02
1.499282e-01		8.228503e-04		-4.890356e-02
1.493604e-01		1.647045e-03		-4.869261e-02
1.483881e-01		2.472990e-03		-4.826876e-02
1.469785e-01		3.293252e-03		-4.752716e-02
1.480129e-01		-4.931035e-03		-7.241121e-02
1.504095e-01		-2.455423e-03		-7.400837e-02
1.511751e-01		1.020666e-15		-7.429462e-02
1.504095e-01		2.455423e-03		-7.400837e-02
1.480129e-01		4.931035e-03		-7.241121e-02
1.494643e-01		-6.566448e-03		-9.890262e-02
1.508884e-01		-4.905532e-03		-1.000298e-01
1.518885e-01		-3.250815e-03		-1.004092e-01
1.524784e-01		-1.619935e-03		-1.005592e-01
1.526736e-01		-2.325445e-15		-1.005697e-01
1.524784e-01		1.619935e-03		-1.005592e-01
1.518885e-01		3.250815e-03		-1.004092e-01
1.508884e-01		4.905532e-03		-1.000298e-01
1.494643e-01		6.566448e-03		-9.890262e-02
1.737157e-01		4.946280e-03		1.029125e-01
1.755460e-01		2.453835e-03		1.044600e-01
1.761421e-01		4.285323e-15		1.046340e-01
1.755460e-01		-2.453835e-03		1.044600e-01
1.737157e-01		-4.946280e-03		1.029125e-01
1.718463e-01		2.480779e-03		4.951639e-02
1.736540e-01		1.240705e-03		5.071541e-02
1.742313e-01		2.281015e-15		5.099054e-02
1.736540e-01		-1.240705e-03		5.071541e-02
1.718463e-01		-2.480779e-03		4.951639e-02
1.712224e-01		5.190655e-15		-2.187921e-15
1.730307e-01		5.509325e-15		-1.845964e-15
1.736027e-01		1.264283e-15		-1.937582e-15
1.730307e-01		-2.901450e-15		-2.581474e-15
1.712224e-01		-2.417721e-15		-3.507707e-15
1.718463e-01		-2.480779e-03		-4.951639e-02
1.736540e-01		-1.240705e-03		-5.071541e-02
1.742313e-01		4.658134e-16		-5.099054e-02
1.736540e-01		1.240705e-03		-5.071541e-02
1.718463e-01		2.480779e-03		-4.951639e-02
1.737157e-01		-4.946280e-03		-1.029125e-01
1.755460e-01		-2.453835e-03		-1.044600e-01
1.761421e-01		-1.047885e-15		-1.046340e-01
1.755460e-01		2.453835e-03		-1.044600e-01
1.737157e-01		4.946280e-03		-1.029125e-01
1.987253e-01		3.305732e-03		1.057942e-01
1.994428e-01		2.473016e-03		1.069578e-01
1.999495e-01		1.641828e-03		1.073622e-01
2.002501e-01		8.189362e-04		1.075283e-01
2.003494e-01		1.974415e-15		1.075418e-01
2.002501e-01		-8.189362e-04		1.075283e-01
1.999495e-01		-1.641828e-03		1.073622e-01
1.994428e-01		-2.473016e-03		1.069578e-01
1.987253e-01		-3.305732e-03		1.057942e-01
1.979970e-01		2.482943e-03		7.755338e-02
1.992135e-01		1.237861e-03		7.921726e-02
1.996074e-01		3.124626e-15		7.952985e-02
1.992135e-01		-1.237861e-03		7.921726e-02
1.979970e-01		-2.482943e-03		7.755338e-02
1.974768e-01		1.658270e-03		5.094211e-02
1.981909e-01		1.244680e-03		5.171001e-02
1.986897e-01		8.291942e-04		5.215849e-02
1.989832e-01		4.143978e-04		5.238659e-02
1.990793e-01		1.682939e-15		5.244080e-02
1.989832e-01		-4.143978e-04		5.238659e-02
1.986897e-01		-8.291942e-04		5.215849e-02
1.981909e-01		-1.244680e-03		5.171001e-02
1.974768e-01		-1.658270e-03		5.094211e-02
1.971646e-01		8.306635e-04		2.524326e-02
1.983778e-01		4.159871e-04		2.588491e-02
1.987651e-01		1.713797e-15		2.605016e-02
1.983778e-01		-4.159871e-04		2.588491e-02
1.971646e-01		-8.306635e-04		2.524326e-02
1.970599e-01		-1.171475e-14		2.862230e-15
1.977766e-01		7.337150e-15		4.921500e-16
1.982739e-01		-8.680991e-15		3.611748e-15
1.985655e-01		3.893167e-15		1.151266e-19
1.986606e-01		1.213253e-15		4.179143e-15
1.985655e-01		-1.514933e-15		-4.760302e-17
1.982739e-01		1.080090e-14		4.048168e-15
1.977766e-01		-4.749015e-15		1.315683e-16
1.970599e-01		1.333968e-14		3.521497e-15
1.971646e-01		-8.306635e-04		-2.524326e-02
1.983778e-01		-4.159871e-04		-2.588491e-02
1.987651e-01		4.687031e-16		-2.605016e-02
1.983778e-01		4.159871e-04		-2.588491e-02
1.971646e-01		8.306635e-04		-2.524326e-02
1.974768e-01		-1.658270e-03		-5.094211e-02
1.981909e-01		-1.244680e-03		-5.171001e-02
1.986897e-01		-8.291942e-04		-5.215849e-02
1.989832e-01		-4.143978e-04		-5.238659e-02
1.990793e-01		8.494558e-16		-5.244080e-02
1.989832e-01		4.143978e-04		-5.238659e-02
1.986897e-01		8.291942e-04		-5.215849e-02
1.981909e-01		1.244680e-03		-5.171001e-02
1.974768e-01		1.658270e-03		-5.094211e-02
1.979970e-01		-2.482943e-03		-7.755338e-02
1.992135e-01		-1.237861e-03		-7.921726e-02
1.996074e-01		-1.102255e-15		-7.952985e-02
1.992135e-01		1.237861e-03		-7.921726e-02
1.979970e-01		2.482943e-03		-7.755338e-02
1.987253e-01		-3.305732e-03		-1.057942e-01
1.994428e-01		-2.473016e-03		-1.069578e-01
1.999495e-01		-1.641828e-03		-1.073622e-01
2.002501e-01		-8.189362e-04		-1.075283e-01
2.003494e-01		6.304638e-16		-1.075418e-01
2.002501e-01		8.189362e-04		-1.075283e-01
1.999495e-01		1.641828e-03		-1.073622e-01
1.994428e-01		2.473016e-03		-1.069578e-01
1.987253e-01		3.305732e-03		-1.057942e-01
2.242371e-01		1.655190e-03		1.075139e-01
2.248508e-01		8.225946e-04		1.090930e-01
2.250518e-01		4.044386e-15		1.092761e-01
2.248508e-01		-8.225946e-04		1.090930e-01
2.242371e-01		-1.655190e-03		1.075139e-01
2.236121e-01		8.302229e-04		5.180150e-02
2.242212e-01		4.150904e-04		5.302709e-02
2.244177e-01		1.984180e-15		5.331382e-02
2.242212e-01		-4.150904e-04		5.302709e-02
2.236121e-01		-8.302229e-04		5.180150e-02
2.234033e-01		4.818956e-15		1.539755e-15
2.240130e-01		4.687359e-15		1.804351e-16
2.242085e-01		1.111563e-15		-4.039494e-16
2.240130e-01		-2.521987e-15		3.982586e-16
2.234033e-01		-2.234074e-15		1.485316e-15
2.236121e-01		-8.302229e-04		-5.180150e-02
2.242212e-01		-4.150904e-04		-5.302709e-02
2.244177e-01		-1.621012e-16		-5.331382e-02
2.242212e-01		4.150904e-04		-5.302709e-02
2.236121e-01		8.302229e-04		-5.180150e-02
2.242371e-01		-1.655190e-03		-1.075139e-01
2.248508e-01		-8.225946e-04		-1.090930e-01
2.250518e-01		-2.750792e-15		-1.092761e-01
2.248508e-01		8.225946e-04		-1.090930e-01
2.242371e-01		1.655190e-03		-1.075139e-01
2.500000e-01		-7.313934e-13		1.080963e-01
2.500000e-01		-3.551256e-13		1.092681e-01
2.500000e-01		-5.515783e-14		1.096782e-01
2.500000e-01		4.016010e-15		1.098470e-01
2.500000e-01		5.218898e-15		1.098617e-01
2.500000e-01		2.565714e-15		1.098470e-01
2.500000e-01		6.329851e-14		1.096782e-01
2.500000e-01		3.638342e-13		1.092681e-01
2.500000e-01		7.354086e-13		1.080963e-01
2.500000e-01		-6.385993e-14		7.927460e-02
2.500000e-01		-3.169364e-14		8.095362e-02
2.500000e-01		2.056513e-15		8.127236e-02
2.500000e-01		3.707354e-14		8.095362e-02
2.500000e-01		7.176968e-14		7.927460e-02
2.500000e-01		2.283722e-13		5.208669e-02
2.500000e-01		1.469305e-13		5.286044e-02
2.500000e-01		5.960168e-15		5.331463e-02
2.500000e-01		-2.944828e-14		5.354646e-02
2.500000e-01		3.883662e-15		5.360224e-02
2.500000e-01		3.287435e-14		5.354646e-02
2.500000e-01		1.182954e-16		5.331463e-02
2.500000e-01		-1.420391e-13		5.286044e-02
2.500000e-01		-2.248777e-13		5.208669e-02
2.500000e-01		1.620163e-13		2.581477e-02
2.500000e-01		-2.257485e-15		2.646269e-02
2.500000e-01		1.354080e-15		2.663089e-02
2.500000e-01		5.244114e-15		2.646269e-02
2.500000e-01		-1.581434e-13		2.581477e-02
2.500000e-01		-7.090139e-15		-3.688110e-15
2.500000e-01		4.707437e-15		2.721042e-15
2.500000e-01		-4.713274e-15		-1.426695e-15
2.500000e-01		2.671026e-15		1.683251e-15
2.500000e-01		1.665264e-15		-3.259655e-16
2.500000e-01		-6.479525e-16		2.223676e-15
2.500000e-01		8.221204e-15		-2.661277e-15
2.500000e-01		-2.980560e-15		4.002015e-15
2.500000e-01		1.073626e-14		-5.154492e-15
2.500000e-01		-1.560362e-13		-2.581477e-02
2.500000e-01		8.516029e-15		-2.646269e-02
2.500000e-01		6.609745e-16		-2.663089e-02
2.500000e-01		-7.763749e-15		-2.646269e-02
2.500000e-01		1.557742e-13		-2.581477e-02
2.500000e-01		-2.418648e-13		-5.208669e-02
2.500000e-01		-1.375101e-13		-5.286044e-02
2.500000e-01		-1.493534e-14		-5.331463e-02
2.500000e-01		3.453164e-14		-5.354646e-02
2.500000e-01		1.182533e-16		-5.360224e-02
2.500000e-01		-3.454989e-14		-5.354646e-02
2.500000e-01		1.695813e-14		-5.331463e-02
2.500000e-01		1.358656e-13		-5.286044e-02
2.500000e-01		2.457734e-13		-5.208669e-02
2.500000e-01		6.882415e-14		-7.927460e-02
2.500000e-01		3.788429e-14		-8.095362e-02
2.500000e-01		-8.417984e-16		-8.127236e-02
2.500000e-01		-4.066362e-14		-8.095362e-02
2.500000e-01		-7.109667e-14		-7.927460e-02
2.500000e-01		7.179683e-13		-1.080963e-01
2.500000e-01		3.641723e-13		-1.092681e-01
2.500000e-01		4.704499e-14		-1.096782e-01
2.500000e-01		6.298756e-16		-1.098470e-01
2.500000e-01		-3.643842e-16		-1.098617e-01
2.500000e-01		-4.870937e-15		-1.098470e-01
2.500000e-01		-4.557419e-14		-1.096782e-01
2.500000e-01		-3.696373e-13		-1.092681e-01
2.500000e-01		-7.134003e-13		-1.080963e-01
2.757629e-01		-1.655190e-03		1.075139e-01
2.751492e-01		-8.225946e-04		1.090930e-01
2.749482e-01		2.572332e-15		1.092761e-01
2.751492e-01		8.225946e-04		1.090930e-01
2.757629e-01		1.655190e-03		1.075139e-01
2.763879e-01		-8.302229e-04		5.180150e-02
2.757788e-01		-4.150904e-04		5.302709e-02
2.755823e-01		1.273122e-15		5.331382e-02
2.757788e-01		4.150904e-04		5.302709e-02
2.763879e-01		8.302229e-04		5.180150e-02
2.765967e-01		3.847129e-15		4.784400e-15
2.759870e-01		2.519118e-15		2.930798e-15
2.757915e-01		1.413175e-15		2.349035e-15
2.759870e-01		-1.678435e-16		4.031331e-15
2.765967e-01		-2.904788e-15		6.207505e-15
2.763879e-01		8.302229e-04		-5.180150e-02
2.757788e-01		4.150904e-04		-5.302709e-02
2.755823e-01		1.163566e-15		-5.331382e-02
2.757788e-01		-4.150904e-04		-5.302709e-02
2.763879e-01		-8.302229e-04		-5.180150e-02
2.757629e-01		1.655190e-03		-1.075139e-01
2.751492e-01		8.225946e-04		-1.090930e-01
2.749482e-01		-1.071553e-15		-1.092761e-01
2.751492e-01		-8.225946e-04		-1.090930e-01
2.757629e-01		-1.655190e-03		-1.075139e-01
3.012747e-01		-3.305732e-03		1.057942e-01
3.005572e-01		-2.473016e-03		1.069578e-01
3.000505e-01		-1.641828e-03		1.073622e-01
2.997499e-01		-8.189362e-04		1.075283e-01
2.996506e-01		6.828845e-15		1.075418e-01
2.997499e-01		8.189362e-04		1.075283e-01
3.000505e-01		1.641828e-03		1.073622e-01
3.005572e-01		2.473016e-03		1.069578e-01
3.012747e-01		3.305732e-03		1.057942e-01
3.020030e-01		-2.482943e-03		7.755338e-02
3.007865e-01		-1.237861e-03		7.921726e-02
3.003926e-01		1.441943e-15		7.952985e-02
3.007865e-01		1.237861e-03		7.921726e-02
3.020030e-01		2.482943e-03		7.755338e-02
3.025232e-01		-1.658270e-03		5.094211e-02
3.018091e-01		-1.244680e-03		5.171001e-02
3.013103e-01		-8.291942e-04		5.215849e-02
3.010168e-01		-4.143978e-04		5.238659e-02
3.009207e-01		4.608765e-15		5.244080e-02
3.010168e-01		4.143978e-04		5.238659e-02
3.013103e-01		8.291942e-04		5.215849e-02
3.018091e-01		1.244680e-03		5.171001e-02
3.025232e-01		1.658270e-03		5.094211e-02
3.028354e-01		-8.306635e-04		2.524326e-02
3.016222e-01		-4.159871e-04		2.588491e-02
3.012349e-01		1.370068e-15		2.605016e-02
3.016222e-01		4.159871e-04		2.588491e-02
3.028354e-01		8.306635e-04		2.524326e-02
3.029401e-01		-9.020002e-16		-7.435674e-15
3.022234e-01		1.528681e-15		3.433064e-15
3.017261e-01		2.174407e-16		-4.905704e-15
3.014345e-01		1.401362e-15		2.201027e-15
3.013394e-01		6.765042e-16		-3.058292e-15
3.014345e-01		1.387782e-15		2.422099e-15
3.017261e-01		2.098918e-15		-5.080821e-15
3.022234e-01		3.684457e-16		4.075969e-15
3.029401e-01		4.657214e-15		-7.717557e-15
3.028354e-01		8.306635e-04		-2.524326e-02
3.016222e-01		4.159871e-04		-2.588491e-02
3.012349e-01		1.770716e-15		-2.605016e-02
3.016222e-01		-4.159871e-04		-2.588491e-02
3.028354e-01		-8.306635e-04		-2.524326e-02
3.025232e-01		1.658270e-03		-5.094211e-02
3.018091e-01		1.244680e-03		-5.171001e-02
3.013103e-01		8.291942e-04		-5.215849e-02
3.010168e-01		4.143978e-04		-5.238659e-02
3.009207e-01		-2.841466e-15		-5.244080e-02
3.010168e-01		-4.143978e-04		-5.238659e-02
3.013103e-01		-8.291942e-04		-5.215849e-02
3.018091e-01		-1.244680e-03		-5.171001e-02
3.025232e-01		-1.658270e-03		-5.094211e-02
3.020030e-01		2.482943e-03		-7.755338e-02
3.007865e-01		1.237861e-03		-7.921726e-02
3.003926e-01		1.446576e-15		-7.952985e-02
3.007865e-01		-1.237861e-03		-7.921726e-02
3.020030e-01		-2.482943e-03		-7.755338e-02
3.012747e-01		3.305732e-03		-1.057942e-01
3.005572e-01		2.473016e-03		-1.069578e-01
3.000505e-01		1.641828e-03		-1.073622e-01
2.997499e-01		8.189362e-04		-1.075283e-01
2.996506e-01		-4.497087e-15		-1.075418e-01
2.997499e-01		-8.189362e-04		-1.075283e-01
3.000505e-01		-1.641828e-03		-1.073622e-01
3.005572e-01		-2.473016e-03		-1.069578e-01
3.012747e-01		-3.305732e-03		-1.057942e-01
3.262843e-01		-4.946280e-03		1.029125e-01
3.244540e-01		-2.453835e-03		1.044600e-01
3.238579e-01		2.185961e-15		1.046340e-01
3.244540e-01		2.453835e-03		1.044600e-01
3.262843e-01		4.946280e-03		1.029125e-01
3.281537e-01		-2.480779e-03		4.951639e-02
3.263460e-01		-1.240705e-03		5.071541e-02
3.257687e-01		1.228497e-15		5.099054e-02
3.263460e-01		1.240705e-03		5.071541e-02
3.281537e-01		2.480779e-03		4.951639e-02
3.287776e-01		3.068614e-15		4.890634e-15
3.269693e-01		1.781111e-16		3.390042e-15
3.263973e-01		1.518496e-15		2.373475e-15
3.269693e-01		2.517708e-15		3.053673e-15
3.287776e-01		-1.908891e-15		5.218434e-15
3.281537e-01		2.480779e-03		-4.951639e-02
3.263460e-01		1.240705e-03		-5.071541e-02
3.257687e-01		1.962430e-15		-5.099054e-02
3.263460e-01		-1.240705e-03		-5.071541e-02
3.281537e-01		-2.480779e-03		-4.951639e-02
3.262843e-01		4.946280e-03		-1.029125e-01
3.244540e-01		2.453835e-03		-1.044600e-01
3.238579e-01		9.452345e-16		-1.046340e-01
3.244540e-01		-2.453835e-03		-1.044600e-01
3.262843e-01		-4.946280e-03		-1.029125e-01
3.505357e-01		-6.566448e-03		9.890262e-02
3.491116e-01		-4.905532e-03		1.000298e-01
3.481115e-01		-3.250815e-03		1.004092e-01
3.475216e-01		-1.619935e-03		1.005592e-01
3.473264e-01		4.616829e-15		1.005697e-01
3.475216e-01		1.619935e-03		1.005592e-01
3.481115e-01		3.250815e-03		1.004092e-01
3.491116e-01		4.905532e-03		1.000298e-01
3.505357e-01		6.566448e-03		9.890262e-02
3.519871e-01		-4.931035e-03		7.241121e-02
3.495905e-01		-2.455423e-03		7.400837e-02
3.488249e-01		1.896597e-15		7.429462e-02
3.495905e-01		2.455423e-03		7.400837e-02
3.519871e-01		4.931035e-03		7.241121e-02
3.530215e-01		-3.293252e-03		4.752716e-02
3.516119e-01		-2.472990e-03		4.826876e-02
3.506396e-01		-1.647045e-03		4.869261e-02
3.500718e-01		-8.228503e-04		4.890356e-02
3.498879e-01		3.102435e-15		4.895275e-02
3.500718e-01		8.228503e-04		4.890356e-02
3.506396e-01		1.647045e-03		4.869261e-02
3.516119e-01		2.472990e-03		4.826876e-02
3.530215e-01		3.293252e-03		4.752716e-02
3.536450e-01		-1.649535e-03		2.354048e-02
3.512658e-01		-8.272486e-04		2.415515e-02
3.505222e-01		1.288755e-15		2.430770e-02
3.512658e-01		8.272486e-04		2.415515e-02
3.536450e-01		1.649535e-03		2.354048e-02
3.538527e-01		4.787327e-15		-4.893735e-15
3.524389e-01		-1.323691e-15		1.166523e-15
3.514721e-01		4.824053e-15		-2.856805e-15
3.509114e-01		-1.649195e-16		2.591039e-16
3.507304e-01		5.248899e-16		-7.547752e-16
3.509114e-01		2.668138e-15		-3.673672e-16
3.514721e-01		-3.455476e-15		-2.537829e-16
3.524389e-01		3.764413e-15		-2.374594e-16
3.538527e-01		-2.899025e-15		-9.969114e-16
3.536450e-01		1.649535e-03		-2.354048e-02
3.512658e-01		8.272486e-04		-2.415515e-02
3.505222e-01		1.287232e-15		-2.430770e-02
3.512658e-01		-8.272486e-04		-2.415515e-02
3.536450e-01		-1.649535e-03		-2.354048e-02
3.530215e-01		3.293252e-03		-4.752716e-02
3.516119e-01		2.472990e-03		-4.826876e-02
3.506396e-01		1.647045e-03		-4.869261e-02
3.500718e-01		8.228503e-04		-4.890356e-02
3.498879e-01		-2.508251e-15		-4.895275e-02
3.500718e-01		-8.228503e-04		-4.890356e-02
3.506396e-01		-1.647045e-03		-4.869261e-02
3.516119e-01		-2.472990e-03		-4.826876e-02
3.530215e-01		-3.293252e-03		-4.752716e-02
3.519871e-01		4.931035e-03		-7.241121e-02
3.495905e-01		2.455423e-03		-7.400837e-02
3.488249e-01		1.187299e-15		-7.429462e-02
3.495905e-01		-2.455423e-03		-7.400837e-02
3.519871e-01		-4.931035e-03		-7.241121e-02
3.505357e-01		6.566448e-03		-9.890262e-02
3.491116e-01		4.905532e-03		-1.000298e-01
3.481115e-01		3.250815e-03		-1.004092e-01
3.475216e-01		1.619935e-03		-1.005592e-01
3.473264e-01		-4.620875e-15		-1.005697e-01
3.475216e-01		-1.619935e-03		-1.005592e-01
3.481115e-01		-3.250815e-03		-1.004092e-01
3.491116e-01		-4.905532e-03		-1.000298e-01
3.505357e-01		-6.566448e-03		-9.890262e-02
3.737743e-01		-8.147375e-03		9.374964e-02
3.707707e-01		-4.022931e-03		9.518244e-02
3.698038e-01		2.957159e-15		9.531835e-02
3.707707e-01		4.022931e-03		9.518244e-02
3.737743e-01		8.147375e-03		9.374964e-02
3.768716e-01		-4.083874e-03		4.498743e-02
3.739432e-01		-2.042960e-03		4.609568e-02
3.730322e-01		1.628239e-15		4.633128e-02
3.739432e-01		2.042960e-03		4.609568e-02
3.768716e-01		4.083874e-03		4.498743e-02
3.779143e-01		5.777056e-16		1.527813e-15
3.749914e-01		-1.999478e-15		6.922923e-16
3.740975e-01		6.153885e-16		2.302755e-16
3.749914e-01		3.618852e-15		-8.937407e-17
3.779143e-01		2.609437e-15		8.319750e-16
3.768716e-01		4.083874e-03		-4.498743e-02
3.739432e-01		2.042960e-03		-4.609568e-02
3.730322e-01		1.772671e-16		-4.633128e-02
3.739432e-01		-2.042960e-03		-4.609568e-02
3.768716e-01		-4.083874e-03		-4.498743e-02
3.737743e-01		8.147375e-03		-9.374964e-02
3.707707e-01		4.022931e-03		-9.518244e-02
3.698038e-01		-2.529833e-17		-9.531835e-02
3.707707e-01		-4.022931e-03		-9.518244e-02
3.737743e-01		-8.147375e-03		-9.374964e-02
3.957321e-01		-9.658421e-03		8.750500e-02
3.936345e-01		-7.199986e-03		8.850941e-02
3.921792e-01		-4.748416e-03		8.880675e-02
3.913255e-01		-2.363904e-03		8.891085e-02
3.910450e-01		8.335209e-16		8.889667e-02
3.913255e-01		2.363904e-03		8.891085e-02
3.921792e-01		4.748416e-03		8.880675e-02
3.936345e-01		7.199986e-03		8.850941e-02
3.957321e-01		9.658421e-03		8.750500e-02
3.978842e-01		-7.250596e-03		6.393586e-02
3.944155e-01		-3.597015e-03		6.532488e-02
3.933336e-01		2.666725e-15		6.552616e-02
3.944155e-01		3.597015e-03		6.532488e-02
3.978842e-01		7.250596e-03		6.393586e-02
3.994310e-01		-4.841473e-03		4.190699e-02
3.973874e-01		-3.640426e-03		4.256761e-02
3.960099e-01		-2.419709e-03		4.291718e-02
3.952221e-01		-1.209695e-03		4.307974e-02
3.949696e-01		7.549908e-16		4.310551e-02
3.952221e-01		1.209695e-03		4.307974e-02
3.960099e-01		2.419709e-03		4.291718e-02
3.973874e-01		3.640426e-03		4.256761e-02
3.994310e-01		4.841473e-03		4.190699e-02
4.003727e-01		-2.428114e-03		2.074329e-02
3.969630e-01		-1.218263e-03		2.127553e-02
3.959478e-01		9.449681e-16		2.138813e-02
3.969630e-01		1.218263e-03		2.127553e-02
4.003727e-01		2.428114e-03		2.074329e-02
4.007023e-01		8.983279e-15		2.079931e-15
3.986517e-01		-3.592277e-15		-2.334649e-15
3.972924e-01		7.757367e-15		2.317751e-15
3.965265e-01		-1.513242e-15		-1.714086e-15
3.962847e-01		1.309148e-15		2.569515e-15
3.965265e-01		2.356044e-15		-1.669161e-15
3.972924e-01		-5.742567e-15		3.636869e-15
3.986517e-01		5.326203e-15		-2.263084e-15
4.007023e-01		-8.401994e-15		4.286061e-15
4.003727e-01		2.428114e-03		-2.074329e-02
3.969630e-01		1.218263e-03		-2.127553e-02
3.959478e-01		-4.855607e-16		-2.138813e-02
3.969630e-01		-1.218263e-03		-2.127553e-02
4.003727e-01		-2.428114e-03		-2.074329e-02
3.994310e-01		4.841473e-03		-4.190699e-02
3.973874e-01		3.640426e-03		-4.256761e-02
3.960099e-01		2.419709e-03		-4.291718e-02
3.952221e-01		1.209695e-03		-4.307974e-02
3.949696e-01		8.594357e-16		-4.310551e-02
3.952221e-01		-1.209695e-03		-4.307974e-02
3.960099e-01		-2.419709e-03		-4.291718e-02
3.973874e-01		-3.640426e-03		-4.256761e-02
3.994310e-01		-4.841473e-03		-4.190699e-02
3.978842e-01		7.250596e-03		-6.393586e-02
3.944155e-01		3.597015e-03		-6.532488e-02
3.933336e-01		-1.340377e-15		-6.552616e-02
3.944155e-01		-3.597015e-03		-6.532488e-02
3.978842e-01		-7.250596e-03		-6.393586e-02
3.957321e-01		9.658421e-03		-8.750500e-02
3.936345e-01		7.199986e-03		-8.850941e-02
3.921792e-01		4.748416e-03		-8.880675e-02
3.913255e-01		2.363904e-03		-8.891085e-02
3.910450e-01		-3.853755e-16		-8.889667e-02
3.913255e-01		-2.363904e-03		-8.891085e-02
3.921792e-01		-4.748416e-03		-8.880675e-02
3.936345e-01		-7.199986e-03		-8.850941e-02
3.957321e-01		-9.658421e-03		-8.750500e-02
4.161305e-01		-1.106697e-02		8.015807e-02
4.120702e-01		-5.411616e-03		8.127185e-02
4.107821e-01		3.490552e-15		8.129506e-02
4.120702e-01		5.411616e-03		8.127185e-02
4.161305e-01		1.106697e-02		8.015807e-02
4.204319e-01		-5.549454e-03		3.830833e-02
4.165853e-01		-2.768004e-03		3.917300e-02
4.154463e-01		2.032575e-15		3.929739e-02
4.165853e-01		2.768004e-03		3.917300e-02
4.204319e-01		5.549454e-03		3.830833e-02
4.219502e-01		-3.322169e-15		-2.385687e-15
4.181183e-01		-2.614702e-15		-1.680931e-15
4.170339e-01		9.211334e-17		-5.923167e-16
4.181183e-01		3.115746e-15		-4.772520e-16
4.219502e-01		6.319453e-15		-8.204167e-16
4.204319e-01		5.549454e-03		-3.830833e-02
4.165853e-01		2.768004e-03		-3.917300e-02
4.154463e-01		-1.352098e-15		-3.929739e-02
4.165853e-01		-2.768004e-03		-3.917300e-02
4.204319e-01		-5.549454e-03		-3.830833e-02
4.161305e-01		1.106697e-02		-8.015807e-02
4.120702e-01		5.411616e-03		-8.127185e-02
4.107821e-01		-1.740164e-15		-8.129506e-02
4.120702e-01		-5.411616e-03		-8.127185e-02
4.161305e-01		-1.106697e-02		-8.015807e-02
4.346867e-01		-1.229128e-02		7.178798e-02
4.320305e-01		-9.066762e-03		7.249577e-02
4.302057e-01		-5.935035e-03		7.261116e-02
4.291404e-01		-2.924133e-03		7.255448e-02
4.287843e-01		-1.126240e-15		7.252270e-02
4.291404e-01		2.924133e-03		7.255448e-02
4.302057e-01		5.935035e-03		7.261116e-02
4.320305e-01		9.066762e-03		7.249577e-02
4.346867e-01		1.229128e-02		7.178798e-02
4.375422e-01		-9.226520e-03		5.230982e-02
4.332662e-01		-4.511068e-03		5.318536e-02
4.319827e-01		2.894221e-15		5.318244e-02
4.332662e-01		4.511068e-03		5.318536e-02
4.375422e-01		9.226520e-03		5.230982e-02
4.396031e-01		-6.176641e-03		3.419119e-02
4.370671e-01		-4.620182e-03		3.465252e-02
4.354463e-01		-3.052531e-03		3.482424e-02
4.345458e-01		-1.506222e-03		3.484421e-02
4.342688e-01		-6.705684e-16		3.483977e-02
4.345458e-01		1.506222e-03		3.484421e-02
4.354463e-01		3.052531e-03		3.482424e-02
4.370671e-01		4.620182e-03		3.465252e-02
4.396031e-01		6.176641e-03		3.419119e-02
4.409363e-01		-3.107510e-03		1.686724e-02
4.368110e-01		-1.546153e-03		1.720004e-02
4.357042e-01		1.224989e-15		1.720752e-02
4.368110e-01		1.546153e-03		1.720004e-02
4.409363e-01		3.107510e-03		1.686724e-02
4.413923e-01		1.012747e-14		5.706658e-15
4.388342e-01		-3.581457e-15		-3.147574e-15
4.372571e-01		6.887018e-15		4.282201e-15
4.364193e-01		-1.134096e-15		-1.225811e-15
4.361681e-01		8.435724e-16		2.385900e-15
4.364193e-01		1.858653e-15		-2.438190e-18
4.372571e-01		-4.951300e-15		2.570441e-15
4.388342e-01		4.259440e-15		-5.296123e-17
4.413923e-01		-8.335424e-15		3.804731e-15
4.409363e-01		3.107510e-03		-1.686724e-02
4.368110e-01		1.546153e-03		-1.720004e-02
4.357042e-01		-4.501619e-16		-1.720752e-02
4.368110e-01		-1.546153e-03		-1.720004e-02
4.409363e-01		-3.107510e-03		-1.686724e-02
4.396031e-01		6.176641e-03		-3.419119e-02
4.370671e-01		4.620182e-03		-3.465252e-02
4.354463e-01		3.052531e-03		-3.482424e-02
4.345458e-01		1.506222e-03		-3.484421e-02
4.342688e-01		1.952729e-15		-3.483977e-02
4.345458e-01		-1.506222e-03		-3.484421e-02
4.354463e-01		-3.052531e-03		-3.482424e-02
4.370671e-01		-4.620182e-03		-3.465252e-02
4.396031e-01		-6.176641e-03		-3.419119e-02
4.375422e-01		9.226520e-03		-5.230982e-02
4.332662e-01		4.511068e-03		-5.318536e-02
4.319827e-01		-1.720425e-15		-5.318244e-02
4.332662e-01		-4.511068e-03		-5.318536e-02
4.375422e-01		-9.226520e-03		-5.230982e-02
4.346867e-01		1.229128e-02		-7.178798e-02
4.320305e-01		9.066762e-03		-7.249577e-02
4.302057e-01		5.935035e-03		-7.261116e-02
4.291404e-01		2.924133e-03		-7.255448e-02
4.287843e-01		1.666454e-15		-7.252270e-02
4.291404e-01		-2.924133e-03		-7.255448e-02
4.302057e-01		-5.935035e-03		-7.261116e-02
4.320305e-01		-9.066762e-03		-7.249577e-02
4.346867e-01		-1.229128e-02		-7.178798e-02
4.512013e-01		-1.316013e-02		6.250830e-02
4.464187e-01		-6.218987e-03		6.282701e-02
4.449133e-01		2.642600e-15		6.261440e-02
4.464187e-01		6.218987e-03		6.282701e-02
4.512013e-01		1.316013e-02		6.250830e-02
4.566848e-01		-6.647615e-03		2.952454e-02
4.523763e-01		-3.218800e-03		2.979702e-02
4.512250e-01		2.010682e-15		2.967856e-02
4.523763e-01		3.218800e-03		2.979702e-02
4.566848e-01		6.647615e-03		2.952454e-02
4.587696e-01		-5.561955e-15		-2.818657e-15
4.544828e-01		-1.174534e-15		-1.396329e-15
4.534486e-01		7.291685e-16		2.451287e-16
4.544828e-01		2.111452e-15		4.766891e-16
4.587696e-01		5.263112e-15		-6.816704e-16
4.566848e-01		6.647615e-03		-2.952454e-02
4.523763e-01		3.218800e-03		-2.979702e-02
4.512250e-01		-4.778181e-16		-2.967856e-02
4.523763e-01		-3.218800e-03		-2.979702e-02
4.566848e-01		-6.647615e-03		-2.952454e-02
4.512013e-01		1.316013e-02		-6.250830e-02
4.464187e-01		6.218987e-03		-6.282701e-02
4.449133e-01		-1.439111e-15		-6.261440e-02
4.464187e-01		-6.218987e-03		-6.282701e-02
4.512013e-01		-1.316013e-02		-6.250830e-02
4.654304e-01		-1.356567e-02		5.249696e-02
4.624872e-01		-9.888116e-03		5.244180e-02
4.604793e-01		-6.093691e-03		5.202683e-02
4.593321e-01		-2.947387e-03		5.190226e-02
4.589735e-01		-5.194202e-16		5.182539e-02
4.593321e-01		2.947387e-03		5.190226e-02
4.604793e-01		6.093691e-03		5.202683e-02
4.624872e-01		9.888116e-03		5.244180e-02
4.654304e-01		1.356567e-02		5.249696e-02
4.687053e-01		-1.026418e-02		3.792485e-02
4.642306e-01		-4.625748e-03		3.756391e-02
4.629595e-01		1.783622e-15		3.731745e-02
4.642306e-01		4.625748e-03		3.756391e-02
4.687053e-01		1.026418e-02		3.792485e-02
4.714231e-01		-6.957186e-03		2.433786e-02
4.687931e-01		-5.133796e-03		2.436265e-02
4.672271e-01		-3.163262e-03		2.403130e-02
4.664211e-01		-1.520458e-03		2.388826e-02
4.661801e-01		-8.091774e-16		2.382501e-02
4.664211e-01		1.520458e-03		2.388826e-02
4.672271e-01		3.163262e-03		2.403130e-02
4.687931e-01		5.133796e-03		2.436265e-02
4.714231e-01		6.957186e-03		2.433786e-02
4.730813e-01		-3.561912e-03		1.195000e-02
4.689004e-01		-1.616640e-03		1.178547e-02
4.679790e-01		1.354354e-15		1.166162e-02
4.689004e-01		1.616640e-03		1.178547e-02
4.730813e-01		3.561912e-03		1.195000e-02
4.736698e-01		7.062244e-15		3.091472e-15
4.709074e-01		-1.927264e-15		-4.175114e-16
4.694479e-01		3.294651e-15		1.929485e-15
4.687466e-01		1.673082e-16		5.549281e-16
4.685391e-01		-5.141281e-16		9.317626e-16
4.687466e-01		1.339918e-15		1.167970e-15
4.694479e-01		-2.617027e-15		1.468544e-15
4.709074e-01		2.279156e-15		1.060974e-15
4.736698e-01		-4.010839e-15		2.578193e-15
4.730813e-01		3.561912e-03		-1.195000e-02
4.689004e-01		1.616640e-03		-1.178547e-02
4.679790e-01		6.457624e-16		-1.166162e-02
4.689004e-01		-1.616640e-03		-1.178547e-02
4.730813e-01		-3.561912e-03		-1.195000e-02
4.714231e-01		6.957186e-03		-2.433786e-02
4.687931e-01		5.133796e-03		-2.436265e-02
4.672271e-01		3.163262e-03		-2.403130e-02
4.664211e-01		1.520458e-03		-2.388826e-02
4.661801e-01		-7.091956e-17		-2.382501e-02
4.664211e-01		-1.520458e-03		-2.388826e-02
4.672271e-01		-3.163262e-03		-2.403130e-02
4.687931e-01		-5.133796e-03		-2.436265e-02
4.714231e-01		-6.957186e-03		-2.433786e-02
4.687053e-01		1.026418e-02		-3.792485e-02
4.642306e-01		4.625748e-03		-3.756391e-02
4.629595e-01		-6.562512e-17		-3.731745e-02
4.642306e-01		-4.625748e-03		-3.756391e-02
4.687053e-01		-1.026418e-02		-3.792485e-02
4.654304e-01		1.356567e-02		-5.249696e-02
4.624872e-01		9.888116e-03		-5.244180e-02
4.604793e-01		6.093691e-03		-5.202683e-02
4.593321e-01		2.947387e-03		-5.190226e-02
4.589735e-01		-9.725942e-17		-5.182539e-02
4.593321e-01		-2.947387e-03		-5.190226e-02
4.604793e-01		-6.093691e-03		-5.202683e-02
4.624872e-01		-9.888116e-03		-5.244180e-02
4.654304e-01		-1.356567e-02		-5.249696e-02
4.769890e-01		-1.340673e-02		4.214988e-02
4.720831e-01		-5.564202e-03		4.074766e-02
4.707122e-01		1.099223e-15		4.054067e-02
4.720831e-01		5.564202e-03		4.074766e-02
4.769890e-01		1.340673e-02		4.214988e-02
4.834533e-01		-7.058226e-03		1.907918e-02
4.796624e-01		-2.901301e-03		1.794947e-02
4.787744e-01		1.138607e-15		1.760972e-02
4.796624e-01		2.901301e-03		1.794947e-02
4.834533e-01		7.058226e-03		1.907918e-02
4.857163e-01		-4.349197e-15		-4.977779e-16
4.818693e-01		1.454398e-16		4.659567e-16
4.811303e-01		9.189593e-16		4.905604e-16
4.818693e-01		1.067155e-15		-9.482415e-17
4.857163e-01		2.813862e-15		-6.474607e-16
4.834533e-01		7.058226e-03		-1.907918e-02
4.796624e-01		2.901301e-03		-1.794947e-02
4.787744e-01		5.212629e-16		-1.760972e-02
4.796624e-01		-2.901301e-03		-1.794947e-02
4.834533e-01		-7.058226e-03		-1.907918e-02
4.769890e-01		1.340673e-02		-4.214988e-02
4.720831e-01		5.564202e-03		-4.074766e-02
4.707122e-01		-5.741739e-16		-4.054067e-02
4.720831e-01		-5.564202e-03		-4.074766e-02
4.769890e-01		-1.340673e-02		-4.214988e-02
4.861900e-01		-1.176176e-02		3.043504e-02
4.836188e-01		-7.306919e-03		2.843941e-02
4.820205e-01		-4.432541e-03		2.846257e-02
4.812694e-01		-1.925000e-03		2.825904e-02
4.810365e-01		8.896992e-16		2.826950e-02
4.812694e-01		1.925000e-03		2.825904e-02
4.820205e-01		4.432541e-03		2.846257e-02
4.836188e-01		7.306919e-03		2.843941e-02
4.861900e-01		1.176176e-02		3.043504e-02
4.904465e-01		-9.005271e-03		2.109239e-02
4.871264e-01		-3.342467e-03		1.856472e-02
4.863188e-01		4.447136e-16		1.811611e-02
4.871264e-01		3.342467e-03		1.856472e-02
4.904465e-01		9.005271e-03		2.109239e-02
4.925379e-01		-6.313274e-03		1.341626e-02
4.904068e-01		-3.886514e-03		1.201501e-02
4.894691e-01		-2.299480e-03		1.167507e-02
4.889335e-01		-9.737628e-04		1.137150e-02
4.887650e-01		-2.761112e-17		1.131832e-02
4.889335e-01		9.737628e-04		1.137150e-02
4.894691e-01		2.299480e-03		1.167507e-02
4.904068e-01		3.886514e-03		1.201501e-02
4.925379e-01		6.313274e-03		1.341626e-02
4.940379e-01		-3.225746e-03		6.368744e-03
4.909706e-01		-1.173291e-03		5.456279e-03
4.903743e-01		4.604955e-16		5.258059e-03
4.909706e-01		1.173291e-03		5.456279e-03
4.940379e-01		3.225746e-03		6.368744e-03
4.945565e-01		2.941440e-15		-8.643599e-16
4.922831e-01		-5.163028e-16		2.147899e-15
4.914438e-01		8.428722e-16		-9.245550e-16
4.909920e-01		3.151774e-16		1.528652e-15
4.908653e-01		-5.720983e-16		-2.819782e-17
4.909920e-01		5.051909e-16		8.111964e-16
4.914438e-01		-5.814653e-16		1.245787e-15
4.922831e-01		7.115648e-16		5.460918e-16
4.945565e-01		-7.417308e-16		2.302937e-15
4.940379e-01		3.225746e-03		-6.368744e-03
4.909706e-01		1.173291e-03		-5.456279e-03
4.903743e-01		4.648562e-16		-5.258059e-03
4.909706e-01		-1.173291e-03		-5.456279e-03
4.940379e-01		-3.225746e-03		-6.368744e-03
4.925379e-01		6.313274e-03		-1.341626e-02
4.904068e-01		3.886514e-03		-1.201501e-02
4.894691e-01		2.299480e-03		-1.167507e-02
4.889335e-01		9.737628e-04		-1.137150e-02
4.887650e-01		-7.759239e-16		-1.131832e-02
4.889335e-01		-9.737628e-04		-1.137150e-02
4.894691e-01		-2.299480e-03		-1.167507e-02
4.904068e-01		-3.886514e-03		-1.201501e-02
4.925379e-01		-6.313274e-03		-1.341626e-02
4.904465e-01		9.005271e-03		-2.109239e-02
4.871264e-01		3.342467e-03		-1.856472e-02
4.863188e-01		2.493988e-16		-1.811611e-02
4.871264e-01		-3.342467e-03		-1.856472e-02
4.904465e-01		-9.005271e-03		-2.109239e-02
4.861900e-01		1.176176e-02		-3.043504e-02
4.836188e-01		7.306919e-03		-2.843941e-02
4.820205e-01		4.432541e-03		-2.846257e-02
4.812694e-01		1.925000e-03		-2.825904e-02
4.810365e-01		-7.805819e-16		-2.826950e-02
4.812694e-01		-1.925000e-03		-2.825904e-02
4.820205e-01		-4.432541e-03		-2.846257e-02
4.836188e-01		-7.306919e-03		-2.843941e-02
4.861900e-01		-1.176176e-02		-3.043504e-02
4.932113e-01		-7.941817e-03		1.613756e-02
4.911370e-01		-2.119759e-03		1.403871e-02
4.906355e-01		2.247106e-16		1.453489e-02
4.911370e-01		2.119759e-03		1.403871e-02
4.932113e-01		7.941817e-03		1.613756e-02
4.986926e-01		-4.035971e-03		6.630638e-03
4.967573e-01		-1.071257e-03		4.903464e-03
4.965173e-01		1.485346e-16		4.980789e-03
4.967573e-01		1.071257e-03		4.903464e-03
4.986926e-01		4.035971e-03		6.630638e-03
4.992600e-01		-9.376925e-16		6.866272e-16
4.973013e-01		3.928377e-17		7.504767e-16
4.970558e-01		1.110069e-16		3.604785e-16
4.973013e-01		1.315823e-16		-6.575806e-17
4.992600e-01		1.203748e-15		-2.519092e-16
4.986926e-01		4.035971e-03		-6.630638e-03
4.967573e-01		1.071257e-03		-4.903464e-03
4.965173e-01		-2.477690e-18		-4.980789e-03
4.967573e-01		-1.071257e-03		-4.903464e-03
4.986926e-01		-4.035971e-03		-6.630638e-03
4.932113e-01		7.941817e-03		-1.613756e-02
4.911370e-01		2.119759e-03		-1.403871e-02
4.906355e-01		-4.898942e-16		-1.453489e-02
4.911370e-01		-2.119759e-03		-1.403871e-02
4.932113e-01		-7.941817e-03		-1.613756e-02
5.000000e-01		0.000000e+00		0.000000e+00
5.000000e-01		0.000000e+00		0.000000e+00
5.000000e-01		0.000000e+00		0.000000e+00
5.000000e-01		0.000000e+00		0.000000e+00
5.000000e-01		0.000000e+00		0.000000e+00
5.000000e-01		0.000000e+00		0.000000e+00
5.000000e-01		0.000000e+00		0.000000e+00
5.000000e-01		0.000000e+00		0.000000e+00
5.000000e-01		0.000000e+00		0.000000e+00
5.000000e-01		0.000000e+00		0.000000e+00
5.000000e-01		0.000000e+00		0.000000e+00
5.000000e-01		0.000000e+00		0.000000e+00
5.000000e-01		0.000000e+00		0.000000e+00
5.000000e-01		0.000000e+00		0.000000e+00
5.000000e-01		0.000000e+00		0.000000e+00
5.000000e-01		0.000000e+00		0.000000e+00
5.000000e-01		0.000000e+00		0.000000e+00
5.000000e-01		0.000000e+00		0.000000e+00
5.000000e-01		0.000000e+00		0.000000e+00
5.000000e-01		0.000000e+00		0.000000e+00
5.000000e-01		0.000000e+00		0.000000e+00
5.000000e-01		0.000000e+00		0.000000e+00
5.000000e-01		0.000000e+00		0.000000e+00
5.000000e-01		0.000000e+00		0.000000e+00
5.000000e-01		0.000000e+00		0.000000e+00
5.000000e-01		0.000000e+00		0.000000e+00
5.000000e-01		0.000000e+00		0.000000e+00
5.000000e-01		0.000000e+00		0.000000e+00
5.000000e-01		0.000000e+00		0.000000e+00
5.000000e-01		0.000000e+00		0.000000e+00
5.000000e-01		0.000000e+00		0.000000e+00
5.000000e-01		0.000000e+00		0.000000e+00
5.000000e-01		0.000000e+00		0.000000e+00
5.000000e-01		0.000000e+00		0.000000e+00
5.000000e-01		0.000000e+00		0.000000e+00
5.000000e-01		0.000000e+00		0.000000e+00
5.000000e-01		0.000000e+00		0.000000e+00
5.000000e-01		0.000000e+00		0.000000e+00
5.000000e-01		0.000000e+00		0.000000e+00
5.000000e-01		0.000000e+00		0.000000e+00
5.000000e-01		0.000000e+00		0.000000e+00
5.000000e-01		0.000000e+00		0.000000e+00
5.000000e-01		0.000000e+00		0.000000e+00
5.000000e-01		0.000000e+00		0.000000e+00
5.000000e-01		0.000000e+00		0.000000e+00
5.000000e-01		0.000000e+00		0.000000e+00
5.000000e-01		0.000000e+00		0.000000e+00
5.000000e-01		0.000000e+00		0.000000e+00
5.000000e-01		0.000000e+00		0.000000e+00
5.000000e-01		0.000000e+00		0.000000e+00
5.000000e-01		0.000000e+00		0.000000e+00
5.000000e-01		0.000000e+00		0.000000e+00
5.000000e-01		0.000000e+00		0.000000e+00
5.000000e-01		0.000000e+00		0.000000e+00
5.000000e-01		0.000000e+00		0.000000e+00
5.000000e-01		0.000000e+00		0.000000e+00
5.000000e-01		0.000000e+00		0.000000e+00
5.000000e-01		0.000000e+00		0.000000e+00
5.000000e-01		0.000000e+00		0.000000e+00
5.000000e-01		0.000000e+00		0.000000e+00
5.000000e-01		0.000000e+00		0.000000e+00
5.000000e-01		0.000000e+00		0.000000e+00
5.000000e-01		0.000000e+00		0.000000e+00
5.000000e-01		0.000000e+00		0.000000e+00
5.000000e-01		0.000000e+00		0.000000e+00
VECTORS force double
-3.778611e+07		-3.308515e+07		1.211239e+07
-1.799739e+08		-6.387590e+07		-5.247175e+08
-6.737997e+07		1.095432e+07		8.202554e+07
-2.017050e+08		-3.266005e+07		-5.697097e+08
-6.747586e+07		-2.959520e-04		8.431886e+07
-2.017050e+08		3.266005e+07		-5.697097e+08
-6.737997e+07		-1.095432e+07		8.202554e+07
-1.799739e+08		6.387590e+07		-5.247175e+08
-3.778611e+07		3.308515e+07		1.211239e+07
1.941202e+06		-1.810897e+08		-4.678578e+08
-5.773652e+07		-1.057093e+08		-7.267565e+08
-7.238231e+07		7.195771e-05		-7.359466e+08
-5.773652e+07		1.057093e+08		-7.267565e+08
1.941202e+06		1.810897e+08		-4.678578e+08
1.000739e+07		-1.797908e+07		7.909712e+07
-5.116961e+07		-7.426742e+07		-4.706006e+08
1.078847e+07		2.277699e+07		2.382397e+08
-1.034122e+08		-3.747146e+07		-4.914257e+08
2.330846e+07		-5.429260e-04		2.473873e+08
-1.034122e+08		3.747146e+07		-4.914257e+08
1.078847e+07		-2.277699e+07		2.382397e+08
-5.116961e+07		7.426742e+07		-4.706006e+08
1.000739e+07		1.797908e+07		7.909712e+07
7.613523e+06		-5.735728e+07		-1.580305e+08
-6.062965e+07		-3.327049e+07		-2.428118e+08
-8.579172e+07		3.284454e-05		-2.441246e+08
-6.062965e+07		3.327049e+07		-2.428118e+08
7.613523e+06		5.735728e+07		-1.580305e+08
1.770182e+07		7.968955e-04		-5.828589e-05
-1.360173e+07		-2.817959e-04		-2.785921e-04
2.699385e+07		9.377673e-04		4.523918e-04
-7.368873e+07		-9.023771e-05		-2.196319e-04
4.591588e+07		-2.476647e-04		6.307736e-04
-7.368873e+07		2.102517e-04		-1.720935e-04
2.699385e+07		-1.365207e-03		3.465936e-04
-1.360173e+07		3.721043e-04		-1.440570e-04
1.770182e+07		-9.288565e-04		-1.469404e-04
7.613523e+06		5.735728e+07		1.580305e+08
-6.062965e+07		3.327049e+07		2.428118e+08
-8.579172e+07		-8.419156e-06		2.441246e+08
-6.062965e+07		-3.327049e+07		2.428118e+08
7.613523e+06		-5.735728e+07		1.580305e+08
1.000739e+07		1.797908e+07		-7.909712e+07
-5.116961e+07		7.426742e+07		4.706006e+08
1.078847e+07		-2.277699e+07		-2.382397e+08
-1.034122e+08		3.747146e+07		4.914257e+08
2.330846e+07		1.152605e-04		-2.473873e+08
-1.034122e+08		-3.747146e+07		4.914257e+08
1.078847e+07		2.277699e+07		-2.382397e+08
-5.116961e+07		-7.426742e+07		4.706006e+08
1.000739e+07		-1.797908e+07		-7.909712e+07
1.941202e+06		1.810897e+08		4.678578e+08
-5.773652e+07		1.057093e+08		7.267565e+08
-7.238231e+07		-4.088879e-05		7.359466e+08
-5.773652e+07		-1.057093e+08		7.267565e+08
1.941202e+06		-1.810897e+08		4.678578e+08
-3.778611e+07		3.308515e+07		-1.211239e+07
-1.799739e+08		6.387590e+07		5.247175e+08
-6.737997e+07		-1.095432e+07		-8.202554e+07
-2.017050e+08		3.266005e+07		5.697097e+08
-6.747586e+07		1.510186e-04		-8.431886e+07
-2.017050e+08		-3.266005e+07		5.697097e+08
-6.737997e+07		1.095432e+07		-8.202554e+07
-1.799739e+08		-6.387590e+07		5.247175e+08
-3.778611e+07		-3.308515e+07		-1.211239e+07
0.000000e+00		0.000000e+00		0.000000e+00
0.000000e+00		0.000000e+00		0.000000e+00
0.000000e+00		0.000000e+00		0.000000e+00
0.000000e+00		0.000000e+00		0.000000e+00
0.000000e+00		0.000000e+00		0.000000e+00
0.000000e+00		0.000000e+00		0.000000e+00
0.000000e+00		0.000000e+00		0.000000e+00
0.000000e+00		0.000000e+00		0.000000e+00
0.000000e+00		0.000000e+00		0.000000e+00
0.000000e+00		0.000000e+00		0.000000e+00
0.000000e+00		0.000000e+00		0.000000e+00
0.000000e+00		0.000000e+00		0.000000e+00
0.000000e+00		0.000000e+00		0.000000e+00
0.000000e+00		0.000000e+00		0.000000e+00
0.000000e+00		0.000000e+00		0.000000e+00
0.000000e+00		0.000000e+00		0.000000e+00
0.000000e+00		0.000000e+00		0.000000e+00
0.000000e+00		0.000000e+00		0.000000e+00
0.000000e+00		0.000000e+00		0.000000e+00
0.000000e+00		0.000000e+00		0.000000e+00
0.000000e+00		0.000000e+00		0.000000e+00
0.000000e+00		0.000000e+00		0.000000e+00
0.000000e+00		0.000000e+00		0.000000e+00
0.000000e+00		0.000000e+00		0.000000e+00
0.000000e+00		0.000000e+00		0.000000e+00
0.000000e+00		0.000000e+00		0.000000e+00
0.000000e+00		0.000000e+00		0.000000e+00
0.000000e+00		0.000000e+00		0.000000e+00
0.000000e+00		0.000000e+00		0.000000e+00
0.000000e+00		0.000000e+00		0.000000e+00
0.000000e+00		0.000000e+00		0.000000e+00
0.000000e+00		0.000000e+00		0.000000e+00
0.000000e+00		0.000000e+00		0.000000e+00
0.000000e+00		0.000000e+00		0.000000e+00
0.000000e+00		0.000000e+00		0.000000e+00
0.000000e+00		0.000000e+00		0.000000e+00
0.000000e+00		0.000000e+00		0.000000e+00
0.000000e+00		0.000000e+00		0.000000e+00
0.000000e+00		0.000000e+00		0.000000e+00
0.000000e+00		0.000000e+00		0.000000e+00
0.000000e+00		0.000000e+00		0.000000e+00
0.000000e+00		0.000000e+00		0.000000e+00
0.000000e+00		0.000000e+00		0.000000e+00
0.000000e+00		0.000000e+00		0.000000e+00
0.000000e+00		0.000000e+00		0.000000e+00
0.000000e+00		0.000000e+00		0.000000e+00
0.000000e+00		0.000000e+00		0.000000e+00
0.000000e+00		0.000000e+00		0.000000e+00
0.000000e+00		0.000000e+00		0.000000e+00
0.000000e+00		0.000000e+00		0.000000e+00
0.000000e+00		0.000000e+00		0.000000e+00
0.000000e+00		0.000000e+00		0.000000e+00
0.000000e+00		0.000000e+00		0.000000e+00
0.000000e+00		0.000000e+00		0.000000e+00
0.000000e+00		0.000000e+00		0.000000e+00
0.000000e+00		0.000000e+00		0.000000e+00
0.000000e+00		0.000000e+00		0.000000e+00
0.000000e+00		0.000000e+00		0.000000e+00
0.000000e+00		0.000000e+00		0.000000e+00
0.000000e+00		0.000000e+00		0.000000e+00
0.000000e+00		0.000000e+00		0.000000e+00
0.000000e+00		0.000000e+00		0.000000e+00
0.000000e+00		0.000000e+00		0.000000e+00
0.000000e+00		0.000000e+00		0.000000e+00
0.000000e+00		0.000000e+00		0.000000e+00
0.000000e+00		0.000000e+00		0.000000e+00
0.000000e+00		0.000000e+00		0.000000e+00
0.000000e+00		0.000000e+00		0.000000e+00
0.000000e+00		0.000000e+00		0.000000e+00
0.000000e+00		0.000000e+00		0.000000e+00
0.000000e+00		0.000000e+00		0.000000e+00
0.000000e+00		0.000000e+00		0.000000e+00
0.000000e+00		0.000000e+00		0.000000e+00
0.000000e+00		0.000000e+00		0.000000e+00
0.000000e+00		0.000000e+00		0.000000e+00
0.000000e+00		0.000000e+00		0.000000e+00
0.000000e+00		0.000000e+00		0.000000e+00
0.000000e+00		0.000000e+00		0.000000e+00
0.000000e+00		0.000000e+00		0.000000e+00
0.000000e+00		0.000000e+00		0.000000e+00
0.000000e+00		0.000000e+00		0.000000e+00
0.000000e+00		0.000000e+00		0.000000e+00
0.000000e+00		0.000000e+00		0.000000e+00
0.000000e+00		0.000000e+00		0.000000e+00
0.000000e+00		0.000000e+00		0.000000e+00
0.000000e+00		0.000000e+00		0.000000e+00
0.000000e+00		0.000000e+00		0.000000e+00
0.000000e+00		0.000000e+00		0.000000e+00
0.000000e+00		0.000000e+00		0.000000e+00
0.000000e+00		0.000000e+00		0.000000e+00
0.000000e+00		0.000000e+00		0.000000e+00
0.000000e+00		0.000000e+00		0.000000e+00
0.000000e+00		0.000000e+00		0.000000e+00
0.000000e+00		0.000000e+00		0.000000e+00
0.000000e+00		0.000000e+00		0.000000e+00
0.000000e+00		0.000000e+00		0.000000e+00
0.000000e+00		0.000000e+00		0.000000e+00
0.000000e+00		0.000000e+00		0.000000e+00
0.000000e+00		0.000000e+00		0.000000e+00
0.000000e+00		0.000000e+00		0.000000e+00
0.000000e+00		0.000000e+00		0.000000e+00
0.000000e+00		0.000000e+00		0.000000e+00
0.000000e+00		0.000000e+00		0.000000e+00
0.000000e+00		0.000000e+00		0.000000e+00
0.000000e+00		0.000000e+00		0.000000e+00
0.000000e+00		0.000000e+00		0.000000e+00
0.000000e+00		0.000000e+00		0.000000e+00
0.000000e+00		0.000000e+00		0.000000e+00
0.000000e+00		0.000000e+00		0.000000e+00
0.000000e+00		0.000000e+00		0.000000e+00
0.000000e+00		0.000000e+00		0.000000e+00
0.000000e+00		0.000000e+00		0.000000e+00
0.000000e+00		0.000000e+00		0.000000e+00
0.000000e+00		0.000000e+00		0.000000e+00
0.000000e+00		0.000000e+00		0.000000e+00
0.000000e+00		0.000000e+00		0.000000e+00
0.000000e+00		0.000000e+00		0.000000e+00
0.000000e+00		0.000000e+00		0.000000e+00
0.000000e+00		0.000000e+00		0.000000e+00
0.000000e+00		0.000000e+00		0.000000e+00
0.000000e+00		0.000000e+00		0.000000e+00
0.000000e+00		0.000000e+00		0.000000e+00
0.000000e+00		0.000000e+00		0.000000e+00
0.000000e+00		0.000000e+00		0.000000e+00
0.000000e+00		0.000000e+00		0.000000e+00
0.000000e+00		0.000000e+00		0.000000e+00
0.000000e+00		0.000000e+00		0.000000e+00
0.000000e+00		0.000000e+00		0.000000e+00
0.000000e+00		0.000000e+00		0.000000e+00
0.000000e+00		0.000000e+00		0.000000e+00
0.000000e+00		0.000000e+00		0.000000e+00
0.000000e+00		0.000000e+00		0.000000e+00
0.000000e+00		0.000000e+00		0.000000e+00
0.000000e+00		0.000000e+00		0.000000e+00
0.000000e+00		0.000000e+00		0.000000e+00
0.000000e+00		0.000000e+00		0.000000e+00
0.000000e+00		0.000000e+00		0.000000e+00
0.000000e+00		0.000000e+00		0.000000e+00
0.000000e+00		0.000000e+00		0.000000e+00
0.000000e+00		0.000000e+00		0.000000e+00
0.000000e+00		0.000000e+00		0.000000e+00
0.000000e+00		0.000000e+00		0.000000e+00
0.000000e+00		0.000000e+00		0.000000e+00
0.000000e+00		0.000000e+00		0.000000e+00
0.000000e+00		0.000000e+00		0.000000e+00
0.000000e+00		0.000000e+00		0.000000e+00
0.000000e+00		0.000000e+00		0.000000e+00
0.000000e+00		0.000000e+00		0.000000e+00
0.000000e+00		0.000000e+00		0.000000e+00
0.000000e+00		0.000000e+00		0.000000e+00
0.000000e+00		0.000000e+00		0.000000e+00
0.000000e+00		0.000000e+00		0.000000e+00
0.000000e+00		0.000000e+00		0.000000e+00
0.000000e+00		0.000000e+00		0.000000e+00
0.000000e+00		0.000000e+00		0.000000e+00
0.000000e+00		0.000000e+00		0.000000e+00
0.000000e+00		0.000000e+00		0.000000e+00
0.000000e+00		0.000000e+00		0.000000e+00
0.000000e+00		0.000000e+00		0.000000e+00
0.000000e+00		0.000000e+00		0.000000e+00
0.000000e+00		0.000000e+00		0.000000e+00
0.000000e+00		0.000000e+00		0.000000e+00
0.000000e+00		0.000000e+00		0.000000e+00
0.000000e+00		0.000000e+00		0.000000e+00
0.000000e+00		0.000000e+00		0.000000e+00
0.000000e+00		0.000000e+00		0.000000e+00
0.000000e+00		0.000000e+00		0.000000e+00
0.000000e+00		0.000000e+00		0.000000e+00
0.000000e+00		0.000000e+00		0.000000e+00
0.000000e+00		0.000000e+00		0.000000e+00
0.000000e+00		0.000000e+00		0.000000e+00
0.000000e+00		0.000000e+00		0.000000e+00
0.000000e+00		0.000000e+00		0.000000e+00
0.000000e+00		0.000000e+00		0.000000e+00
0.000000e+00		0.000000e+00		0.000000e+00
0.000000e+00		0.000000e+00		0.000000e+00
0.000000e+00		0.000000e+00		0.000000e+00
0.000000e+00		0.000000e+00		0.000000e+00
0.000000e+00		0.000000e+00		0.000000e+00
0.000000e+00		0.000000e+00		0.000000e+00
0.000000e+00		0.000000e+00		0.000000e+00
0.000000e+00		0.000000e+00		0.000000e+00
0.000000e+00		0.000000e+00		0.000000e+00
0.000000e+00		0.000000e+00		0.000000e+00
0.000000e+00		0.000000e+00		0.000000e+00
0.000000e+00		0.000000e+00		0.000000e+00
0.000000e+00		0.000000e+00		0.000000e+00
0.000000e+00		0.000000e+00		0.000000e+00
0.000000e+00		0.000000e+00		0.000000e+00
0.000000e+00		0.000000e+00		0.000000e+00
0.000000e+00		0.000000e+00		0.000000e+00
0.000000e+00		0.000000e+00		0.000000e+00
0.000000e+00		0.000000e+00		0.000000e+00
0.000000e+00		0.000000e+00		0.000000e+00
0.000000e+00		0.000000e+00		0.000000e+00
0.000000e+00		0.000000e+00		0.000000e+00
0.000000e+00		0.000000e+00		0.000000e+00
0.000000e+00		0.000000e+00		0.000000e+00
0.000000e+00		0.000000e+00		0.000000e+00
0.000000e+00		0.000000e+00		0.000000e+00
0.000000e+00		0.000000e+00		0.000000e+00
0.000000e+00		0.000000e+00		0.000000e+00
0.000000e+00		0.000000e+00		0.000000e+00
0.000000e+00		0.000000e+00		0.000000e+00
0.000000e+00		0.000000e+00		0.000000e+00
0.000000e+00		0.000000e+00		0.000000e+00
0.000000e+00		0.000000e+00		0.000000e+00
0.000000e+00		0.000000e+00		0.000000e+00
0.000000e+00		0.000000e+00		0.000000e+00
0.000000e+00		0.000000e+00		0.000000e+00
0.000000e+00		0.000000e+00		0.000000e+00
0.000000e+00		0.000000e+00		0.000000e+00
0.000000e+00		0.000000e+00		0.000000e+00
0.000000e+00		0.000000e+00		0.000000e+00
0.000000e+00		0.000000e+00		0.000000e+00
0.000000e+00		0.000000e+00		0.000000e+00
0.000000e+00		0.000000e+00		0.000000e+00
0.000000e+00		0.000000e+00		0.000000e+00
0.000000e+00		0.000000e+00		0.000000e+00
0.000000e+00		0.000000e+00		0.000000e+00
0.000000e+00		0.000000e+00		0.000000e+00
0.000000e+00		0.000000e+00		0.000000e+00
0.000000e+00		0.000000e+00		0.000000e+00
0.000000e+00		0.000000e+00		0.000000e+00
0.000000e+00		0.000000e+00		0.000000e+00
0.000000e+00		0.000000e+00		0.000000e+00
0.000000e+00		0.000000e+00		0.000000e+00
0.000000e+00		0.000000e+00		0.000000e+00
0.000000e+00		0.000000e+00		0.000000e+00
0.000000e+00		0.000000e+00		0.000000e+00
0.000000e+00		0.000000e+00		0.000000e+00
0.000000e+00		0.000000e+00		0.000000e+00
0.000000e+00		0.000000e+00		0.000000e+00
0.000000e+00		0.000000e+00		0.000000e+00
0.000000e+00		0.000000e+00		0.000000e+00
0.000000e+00		0.000000e+00		0.000000e+00
0.000000e+00		0.000000e+00		0.000000e+00
0.000000e+00		0.000000e+00		0.000000e+00
0.000000e+00		0.000000e+00		0.000000e+00
0.000000e+00		0.000000e+00		0.000000e+00
0.000000e+00		0.000000e+00		0.000000e+00
0.000000e+00		0.000000e+00		0.000000e+00
0.000000e+00		0.000000e+00		0.000000e+00
0.000000e+00		0.000000e+00		0.000000e+00
0.000000e+00		0.000000e+00		0.000000e+00
0.000000e+00		0.000000e+00		0.000000e+00
0.000000e+00		0.000000e+00		0.000000e+00
0.000000e+00		0.000000e+00		0.000000e+00
0.000000e+00		0.000000e+00		0.000000e+00
0.000000e+00		0.000000e+00		0.000000e+00
0.000000e+00		0.000000e+00		0.000000e+00
0.000000e+00		0.000000e+00		0.000000e+00
0.000000e+00		0.000000e+00		0.000000e+00
0.000000e+00		0.000000e+00		0.000000e+00
0.000000e+00		0.000000e+00		0.000000e+00
0.000000e+00		0.000000e+00		0.000000e+00
0.000000e+00		0.000000e+00		0.000000e+00
0.000000e+00		0.000000e+00		0.000000e+00
0.000000e+00		0.000000e+00		0.000000e+00
0.000000e+00		0.000000e+00		0.000000e+00
0.000000e+00		0.000000e+00		0.000000e+00
0.000000e+00		0.000000e+00		0.000000e+00
0.000000e+00		0.000000e+00		0.000000e+00
0.000000e+00		0.000000e+00		0.000000e+00
0.000000e+00		0.000000e+00		0.000000e+00
0.000000e+00		0.000000e+00		0.000000e+00
0.000000e+00		0.000000e+00		0.000000e+00
0.000000e+00		0.000000e+00		0.000000e+00
0.000000e+00		0.000000e+00		0.000000e+00
0.000000e+00		0.000000e+00		0.000000e+00
0.000000e+00		0.000000e+00		0.000000e+00
0.000000e+00		0.000000e+00		0.000000e+00
0.000000e+00		0.000000e+00		0.000000e+00
0.000000e+00		0.000000e+00		0.000000e+00
0.000000e+00		0.000000e+00		0.000000e+00
0.000000e+00		0.000000e+00		0.000000e+00
0.000000e+00		0.000000e+00		0.000000e+00
0.000000e+00		0.000000e+00		0.000000e+00
0.000000e+00		0.000000e+00		0.000000e+00
0.000000e+00		0.000000e+00		0.000000e+00
0.000000e+00		0.000000e+00		0.000000e+00
0.000000e+00		0.000000e+00		0.000000e+00
0.000000e+00		0.000000e+00		0.000000e+00
0.000000e+00		0.000000e+00		0.000000e+00
0.000000e+00		0.000000e+00		0.000000e+00
0.000000e+00		0.000000e+00		0.000000e+00
0.000000e+00		0.000000e+00		0.000000e+00
0.000000e+00		0.000000e+00		0.000000e+00
0.000000e+00		0.000000e+00		0.000000e+00
0.000000e+00		0.000000e+00		0.000000e+00
0.000000e+00		0.000000e+00		0.000000e+00
0.000000e+00		0.000000e+00		0.000000e+00
0.000000e+00		0.000000e+00		0.000000e+00
0.000000e+00		0.000000e+00		0.000000e+00
0.000000e+00		0.000000e+00		0.000000e+00
0.000000e+00		0.000000e+00		0.000000e+00
0.000000e+00		0.000000e+00		0.000000e+00
0.000000e+00		0.000000e+00		0.000000e+00
0.000000e+00		0.000000e+00		0.000000e+00
0.000000e+00		0.000000e+00		0.000000e+00
0.000000e+00		0.000000e+00		0.000000e+00
0.000000e+00		0.000000e+00		0.000000e+00
0.000000e+00		0.000000e+00		0.000000e+00
0.000000e+00		0.000000e+00		0.000000e+00
0.000000e+00		0.000000e+00		0.000000e+00
0.000000e+00		0.000000e+00		0.000000e+00
0.000000e+00		0.000000e+00		0.000000e+00
0.000000e+00		0.000000e+00		0.000000e+00
0.000000e+00		0.000000e+00		0.000000e+00
0.000000e+00		0.000000e+00		0.000000e+00
0.000000e+00		0.000000e+00		0.000000e+00
0.000000e+00		0.000000e+00		0.000000e+00
0.000000e+00		0.000000e+00		0.000000e+00
0.000000e+00		0.000000e+00		0.000000e+00
0.000000e+00		0.000000e+00		0.000000e+00
0.000000e+00		0.000000e+00		0.000000e+00
0.000000e+00		0.000000e+00		0.000000e+00
0.000000e+00		0.000000e+00		0.000000e+00
0.000000e+00		0.000000e+00		0.000000e+00
0.000000e+00		0.000000e+00		0.000000e+00
0.000000e+00		0.000000e+00		0.000000e+00
0.000000e+00		0.000000e+00		0.000000e+00
0.000000e+00		0.000000e+00		0.000000e+00
0.000000e+00		0.000000e+00		0.000000e+00
0.000000e+00		0.000000e+00		0.000000e+00
0.000000e+00		0.000000e+00		0.000000e+00
0.000000e+00		0.000000e+00		0.000000e+00
0.000000e+00		0.000000e+00		0.000000e+00
0.000000e+00		0.000000e+00		0.000000e+00
0.000000e+00		0.000000e+00		0.000000e+00
0.000000e+00		0.000000e+00		0.000000e+00
0.000000e+00		0.000000e+00		0.000000e+00
0.000000e+00		0.000000e+00		0.000000e+00
0.000000e+00		0.000000e+00		0.000000e+00
0.000000e+00		0.000000e+00		0.000000e+00
0.000000e+00		0.000000e+00		0.000000e+00
0.000000e+00		0.000000e+00		0.000000e+00
0.000000e+00		0.000000e+00		0.000000e+00
0.000000e+00		0.000000e+00		0.000000e+00
0.000000e+00		0.000000e+00		0.000000e+00
0.000000e+00		0.000000e+00		0.000000e+00
0.000000e+00		0.000000e+00		0.000000e+00
0.000000e+00		0.000000e+00		0.000000e+00
0.000000e+00		0.000000e+00		0.000000e+00
0.000000e+00		0.000000e+00		0.000000e+00
0.000000e+00		0.000000e+00		0.000000e+00
0.000000e+00		0.000000e+00		0.000000e+00
0.000000e+00		0.000000e+00		0.000000e+00
0.000000e+00		0.000000e+00		0.000000e+00
0.000000e+00		0.000000e+00		0.000000e+00
0.000000e+00		0.000000e+00		0.000000e+00
0.000000e+00		0.000000e+00		0.000000e+00
0.000000e+00		0.000000e+00		0.000000e+00
0.000000e+00		0.000000e+00		0.000000e+00
0.000000e+00		0.000000e+00		0.000000e+00
0.000000e+00		0.000000e+00		0.000000e+00
0.000000e+00		0.000000e+00		0.000000e+00
0.000000e+00		0.000000e+00		0.000000e+00
0.000000e+00		0.000000e+00		0.000000e+00
0.000000e+00		0.000000e+00		0.000000e+00
0.000000e+00		0.000000e+00		0.000000e+00
0.000000e+00		0.000000e+00		0.000000e+00
0.000000e+00		0.000000e+00		0.000000e+00
0.000000e+00		0.000000e+00		0.000000e+00
0.000000e+00		0.000000e+00		0.000000e+00
0.000000e+00		0.000000e+00		0.000000e+00
0.000000e+00		0.000000e+00		0.000000e+00
0.000000e+00		0.000000e+00		0.000000e+00
0.000000e+00		0.000000e+00		0.000000e+00
0.000000e+00		0.000000e+00		0.000000e+00
0.000000e+00		0.000000e+00		0.000000e+00
0.000000e+00		0.000000e+00		0.000000e+00
0.000000e+00		0.000000e+00		0.000000e+00
0.000000e+00		0.000000e+00		0.000000e+00
0.000000e+00		0.000000e+00		0.000000e+00
0.000000e+00		0.000000e+00		0.000000e+00
0.000000e+00		0.000000e+00		0.000000e+00
0.000000e+00		0.000000e+00		0.000000e+00
0.000000e+00		0.000000e+00		0.000000e+00
0.000000e+00		0.000000e+00		0.000000e+00
0.000000e+00		0.000000e+00		0.000000e+00
0.000000e+00		0.000000e+00		0.000000e+00
0.000000e+00		0.000000e+00		0.000000e+00
0.000000e+00		0.000000e+00		0.000000e+00
0.000000e+00		0.000000e+00		0.000000e+00
0.000000e+00		0.000000e+00		0.000000e+00
0.000000e+00		0.000000e+00		0.000000e+00
0.000000e+00		0.000000e+00		0.000000e+00
0.000000e+00		0.000000e+00		0.000000e+00
0.000000e+00		0.000000e+00		0.000000e+00
0.000000e+00		0.000000e+00		0.000000e+00
0.000000e+00		0.000000e+00		0.000000e+00
0.000000e+00		0.000000e+00		0.000000e+00
0.000000e+00		0.000000e+00		0.000000e+00
0.000000e+00		0.000000e+00		0.000000e+00
0.000000e+00		0.000000e+00		0.000000e+00
0.000000e+00		0.000000e+00		0.000000e+00
0.000000e+00		0.000000e+00		0.000000e+00
0.000000e+00		0.000000e+00		0.000000e+00
0.000000e+00		0.000000e+00		0.000000e+00
0.000000e+00		0.000000e+00		0.000000e+00
0.000000e+00		0.000000e+00		0.000000e+00
0.000000e+00		0.000000e+00		0.000000e+00
0.000000e+00		0.000000e+00		0.000000e+00
0.000000e+00		0.000000e+00		0.000000e+00
0.000000e+00		0.000000e+00		0.000000e+00
0.000000e+00		0.000000e+00		0.000000e+00
0.000000e+00		0.000000e+00		0.000000e+00
0.000000e+00		0.000000e+00		0.000000e+00
0.000000e+00		0.000000e+00		0.000000e+00
0.000000e+00		0.000000e+00		0.000000e+00
0.000000e+00		0.000000e+00		0.000000e+00
0.000000e+00		0.000000e+00		0.000000e+00
0.000000e+00		0.000000e+00		0.000000e+00
0.000000e+00		0.000000e+00		0.000000e+00
0.000000e+00		0.000000e+00		0.000000e+00
0.000000e+00		0.000000e+00		0.000000e+00
0.000000e+00		0.000000e+00		0.000000e+00
0.000000e+00		0.000000e+00		0.000000e+00
0.000000e+00		0.000000e+00		0.000000e+00
0.000000e+00		0.000000e+00		0.000000e+00
0.000000e+00		0.000000e+00		0.000000e+00
0.000000e+00		0.000000e+00		0.000000e+00
0.000000e+00		0.000000e+00		0.000000e+00
0.000000e+00		0.000000e+00		0.000000e+00
0.000000e+00		0.000000e+00		0.000000e+00
0.000000e+00		0.000000e+00		0.000000e+00
0.000000e+00		0.000000e+00		0.000000e+00
0.000000e+00		0.000000e+00		0.000000e+00
0.000000e+00		0.000000e+00		0.000000e+00
0.000000e+00		0.000000e+00		0.000000e+00
0.000000e+00		0.000000e+00		0.000000e+00
0.000000e+00		0.000000e+00		0.000000e+00
0.000000e+00		0.000000e+00		0.000000e+00
0.000000e+00		0.000000e+00		0.000000e+00
0.000000e+00		0.000000e+00		0.000000e+00
0.000000e+00		0.000000e+00		0.000000e+00
0.000000e+00		0.000000e+00		0.000000e+00
0.000000e+00		0.000000e+00		0.000000e+00
0.000000e+00		0.000000e+00		0.000000e+00
0.000000e+00		0.000000e+00		0.000000e+00
0.000000e+00		0.000000e+00		0.000000e+00
0.000000e+00		0.000000e+00		0.000000e+00
0.000000e+00		0.000000e+00		0.000000e+00
0.000000e+00		0.000000e+00		0.000000e+00
0.000000e+00		0.000000e+00		0.000000e+00
0.000000e+00		0.000000e+00		0.000000e+00
0.000000e+00		0.000000e+00		0.000000e+00
0.000000e+00		0.000000e+00		0.000000e+00
0.000000e+00		0.000000e+00		0.000000e+00
0.000000e+00		0.000000e+00		0.000000e+00
0.000000e+00		0.000000e+00		0.000000e+00
0.000000e+00		0.000000e+00		0.000000e+00
0.000000e+00		0.000000e+00		0.000000e+00
0.000000e+00		0.000000e+00		0.000000e+00
0.000000e+00		0.000000e+00		0.000000e+00
0.000000e+00		0.000000e+00		0.000000e+00
0.000000e+00		0.000000e+00		0.000000e+00
0.000000e+00		0.000000e+00		0.000000e+00
0.000000e+00		0.000000e+00		0.000000e+00
0.000000e+00		0.000000e+00		0.000000e+00
0.000000e+00		0.000000e+00		0.000000e+00
0.000000e+00		0.000000e+00		0.000000e+00
0.000000e+00		0.000000e+00		0.000000e+00
0.000000e+00		0.000000e+00		0.000000e+00
0.000000e+00		0.000000e+00		0.000000e+00
0.000000e+00		0.000000e+00		0.000000e+00
0.000000e+00		0.000000e+00		0.000000e+00
0.000000e+00		0.000000e+00		0.000000e+00
0.000000e+00		0.000000e+00		0.000000e+00
0.000000e+00		0.000000e+00		0.000000e+00
0.000000e+00		0.000000e+00		0.000000e+00
0.000000e+00		0.000000e+00		0.000000e+00
0.000000e+00		0.000000e+00		0.000000e+00
0.000000e+00		0.000000e+00		0.000000e+00
0.000000e+00		0.000000e+00		0.000000e+00
0.000000e+00		0.000000e+00		0.000000e+00
0.000000e+00		0.000000e+00		0.000000e+00
0.000000e+00		0.000000e+00		0.000000e+00
0.000000e+00		0.000000e+00		0.000000e+00
0.000000e+00		0.000000e+00		0.000000e+00
0.000000e+00		0.000000e+00		0.000000e+00
0.000000e+00		0.000000e+00		0.000000e+00
0.000000e+00		0.000000e+00		0.000000e+00
0.000000e+00		0.000000e+00		0.000000e+00
0.000000e+00		0.000000e+00		0.000000e+00
0.000000e+00		0.000000e+00		0.000000e+00
0.000000e+00		0.000000e+00		0.000000e+00
0.000000e+00		0.000000e+00		0.000000e+00
0.000000e+00		0.000000e+00		0.000000e+00
0.000000e+00		0.000000e+00		0.000000e+00
0.000000e+00		0.000000e+00		0.000000e+00
0.000000e+00		0.000000e+00		0.000000e+00
0.000000e+00		0.000000e+00		0.000000e+00
0.000000e+00		0.000000e+00		0.000000e+00
0.000000e+00		0.000000e+00		0.000000e+00
0.000000e+00		0.000000e+00		0.000000e+00
0.000000e+00		0.000000e+00		0.000000e+00
0.000000e+00		0.000000e+00		0.000000e+00
0.000000e+00		0.000000e+00		0.000000e+00
0.000000e+00		0.000000e+00		0.000000e+00
0.000000e+00		0.000000e+00		0.000000e+00
0.000000e+00		0.000000e+00		0.000000e+00
0.000000e+00		0.000000e+00		0.000000e+00
0.000000e+00		0.000000e+00		0.000000e+00
0.000000e+00		0.000000e+00		0.000000e+00
0.000000e+00		0.000000e+00		0.000000e+00
0.000000e+00		0.000000e+00		0.000000e+00
0.000000e+00		0.000000e+00		0.000000e+00
0.000000e+00		0.000000e+00		0.000000e+00
0.000000e+00		0.000000e+00		0.000000e+00
0.000000e+00		0.000000e+00		0.000000e+00
0.000000e+00		0.000000e+00		0.000000e+00
0.000000e+00		0.000000e+00		0.000000e+00
0.000000e+00		0.000000e+00		0.000000e+00
0.000000e+00		0.000000e+00		0.000000e+00
0.000000e+00		0.000000e+00		0.000000e+00
0.000000e+00		0.000000e+00		0.000000e+00
0.000000e+00		0.000000e+00		0.000000e+00
0.000000e+00		0.000000e+00		0.000000e+00
0.000000e+00		0.000000e+00		0.000000e+00
0.000000e+00		0.000000e+00		0.000000e+00
0.000000e+00		0.000000e+00		0.000000e+00
0.000000e+00		0.000000e+00		0.000000e+00
0.000000e+00		0.000000e+00		0.000000e+00
0.000000e+00		0.000000e+00		0.000000e+00
0.000000e+00		0.000000e+00		0.000000e+00
0.000000e+00		0.000000e+00		0.000000e+00
0.000000e+00		0.000000e+00		0.000000e+00
0.000000e+00		0.000000e+00		0.000000e+00
0.000000e+00		0.000000e+00		0.000000e+00
0.000000e+00		0.000000e+00		0.000000e+00
0.000000e+00		0.000000e+00		0.000000e+00
0.000000e+00		0.000000e+00		0.000000e+00
0.000000e+00		0.000000e+00		0.000000e+00
0.000000e+00		0.000000e+00		0.000000e+00
0.000000e+00		0.000000e+00		0.000000e+00
0.000000e+00		0.000000e+00		0.000000e+00
0.000000e+00		0.000000e+00		0.000000e+00
0.000000e+00		0.000000e+00		0.000000e+00
0.000000e+00		0.000000e+00		0.000000e+00
0.000000e+00		0.000000e+00		0.000000e+00
0.000000e+00		0.000000e+00		0.000000e+00
0.000000e+00		0.000000e+00		0.000000e+00
0.000000e+00		0.000000e+00		0.000000e+00
0.000000e+00		0.000000e+00		0.000000e+00
0.000000e+00		0.000000e+00		0.000000e+00
0.000000e+00		0.000000e+00		0.000000e+00
0.000000e+00		0.000000e+00		0.000000e+00
0.000000e+00		0.000000e+00		0.000000e+00
0.000000e+00		0.000000e+00		0.000000e+00
0.000000e+00		0.000000e+00		0.000000e+00
0.000000e+00		0.000000e+00		0.000000e+00
0.000000e+00		0.000000e+00		0.000000e+00
0.000000e+00		0.000000e+00		0.000000e+00
0.000000e+00		0.000000e+00		0.000000e+00
0.000000e+00		0.000000e+00		0.000000e+00
0.000000e+00		0.000000e+00		0.000000e+00
0.000000e+00		0.000000e+00		0.000000e+00
0.000000e+00		0.000000e+00		0.000000e+00
0.000000e+00		0.000000e+00		0.000000e+00
0.000000e+00		0.000000e+00		0.000000e+00
0.000000e+00		0.000000e+00		0.000000e+00
0.000000e+00		0.000000e+00		0.000000e+00
0.000000e+00		0.000000e+00		0.000000e+00
0.000000e+00		0.000000e+00		0.000000e+00
0.000000e+00		0.000000e+00		0.000000e+00
0.000000e+00		0.000000e+00		0.000000e+00
0.000000e+00		0.000000e+00		0.000000e+00
0.000000e+00		0.000000e+00		0.000000e+00
0.000000e+00		0.000000e+00		0.000000e+00
0.000000e+00		0.000000e+00		0.000000e+00
0.000000e+00		0.000000e+00		0.000000e+00
0.000000e+00		0.000000e+00		0.000000e+00
0.000000e+00		0.000000e+00		0.000000e+00
0.000000e+00		0.000000e+00		0.000000e+00
0.000000e+00		0.000000e+00		0.000000e+00
0.000000e+00		0.000000e+00		0.000000e+00
0.000000e+00		0.000000e+00		0.000000e+00
0.000000e+00		0.000000e+00		0.000000e+00
0.000000e+00		0.000000e+00		0.000000e+00
0.000000e+00		0.000000e+00		0.000000e+00
0.000000e+00		0.000000e+00		0.000000e+00
0.000000e+00		0.000000e+00		0.000000e+00
0.000000e+00		0.000000e+00		0.000000e+00
0.000000e+00		0.000000e+00		0.000000e+00
0.000000e+00		0.000000e+00		0.000000e+00
0.000000e+00		0.000000e+00		0.000000e+00
0.000000e+00		0.000000e+00		0.000000e+00
0.000000e+00		0.000000e+00		0.000000e+00
0.000000e+00		0.000000e+00		0.000000e+00
0.000000e+00		0.000000e+00		0.000000e+00
0.000000e+00		0.000000e+00		0.000000e+00
0.000000e+00		0.000000e+00		0.000000e+00
0.000000e+00		0.000000e+00		0.000000e+00
0.000000e+00		0.000000e+00		0.000000e+00
0.000000e+00		0.000000e+00		0.000000e+00
0.000000e+00		0.000000e+00		0.000000e+00
0.000000e+00		0.000000e+00		0.000000e+00
0.000000e+00		0.000000e+00		0.000000e+00
0.000000e+00		0.000000e+00		0.000000e+00
0.000000e+00		0.000000e+00		0.000000e+00
0.000000e+00		0.000000e+00		0.000000e+00
0.000000e+00		0.000000e+00		0.000000e+00
0.000000e+00		0.000000e+00		0.000000e+00
0.000000e+00		0.000000e+00		0.000000e+00
0.000000e+00		0.000000e+00		0.000000e+00
0.000000e+00		0.000000e+00		0.000000e+00
0.000000e+00		0.000000e+00		0.000000e+00
0.000000e+00		0.000000e+00		0.000000e+00
0.000000e+00		0.000000e+00		0.000000e+00
0.000000e+00		0.000000e+00		0.000000e+00
0.000000e+00		0.000000e+00		0.000000e+00
0.000000e+00		0.000000e+00		0.000000e+00
0.000000e+00		0.000000e+00		0.000000e+00
0.000000e+00		0.000000e+00		0.000000e+00
0.000000e+00		0.000000e+00		0.000000e+00
0.000000e+00		0.000000e+00		0.000000e+00
0.000000e+00		0.000000e+00		0.000000e+00
0.000000e+00		0.000000e+00		0.000000e+00
0.000000e+00		0.000000e+00		0.000000e+00
0.000000e+00		0.000000e+00		0.000000e+00
0.000000e+00		0.000000e+00		0.000000e+00
0.000000e+00		0.000000e+00		0.000000e+00
0.000000e+00		0.000000e+00		0.000000e+00
0.000000e+00		0.000000e+00		0.000000e+00
0.000000e+00		0.000000e+00		0.000000e+00
0.000000e+00		0.000000e+00		0.000000e+00
0.000000e+00		0.000000e+00		0.000000e+00
0.000000e+00		0.000000e+00		0.000000e+00
0.000000e+00		0.000000e+00		0.000000e+00
0.000000e+00		0.000000e+00		0.000000e+00
0.000000e+00		0.000000e+00		0.000000e+00
0.000000e+00		0.000000e+00		0.000000e+00
0.000000e+00		0.000000e+00		0.000000e+00
0.000000e+00		0.000000e+00		0.000000e+00
0.000000e+00		0.000000e+00		0.000000e+00
0.000000e+00		0.000000e+00		0.000000e+00
0.000000e+00		0.000000e+00		0.000000e+00
0.000000e+00		0.000000e+00		0.000000e+00
0.000000e+00		0.000000e+00		0.000000e+00
0.000000e+00		0.000000e+00		0.000000e+00
0.000000e+00		0.000000e+00		0.000000e+00
0.000000e+00		0.000000e+00		0.000000e+00
0.000000e+00		0.000000e+00		0.000000e+00
0.000000e+00		0.000000e+00		0.000000e+00
0.000000e+00		0.000000e+00		0.000000e+00
0.000000e+00		0.000000e+00		0.000000e+00
0.000000e+00		0.000000e+00		0.000000e+00
0.000000e+00		0.000000e+00		0.000000e+00
0.000000e+00		0.000000e+00		0.000000e+00
0.000000e+00		0.000000e+00		0.000000e+00
0.000000e+00		0.000000e+00		0.000000e+00
0.000000e+00		0.000000e+00		0.000000e+00
0.000000e+00		0.000000e+00		0.000000e+00
0.000000e+00		0.000000e+00		0.000000e+00
0.000000e+00		0.000000e+00		0.000000e+00
0.000000e+00		0.000000e+00		0.000000e+00
0.000000e+00		0.000000e+00		0.000000e+00
0.000000e+00		0.000000e+00		0.000000e+00
0.000000e+00		0.000000e+00		0.000000e+00
0.000000e+00		0.000000e+00		0.000000e+00
0.000000e+00		0.000000e+00		0.000000e+00
0.000000e+00		0.000000e+00		0.000000e+00
0.000000e+00		0.000000e+00		0.000000e+00
0.000000e+00		0.000000e+00		0.000000e+00
0.000000e+00		0.000000e+00		0.000000e+00
0.000000e+00		0.000000e+00		0.000000e+00
0.000000e+00		0.000000e+00		0.000000e+00
0.000000e+00		0.000000e+00		0.000000e+00
0.000000e+00		0.000000e+00		0.000000e+00
0.000000e+00		0.000000e+00		0.000000e+00
0.000000e+00		0.000000e+00		0.000000e+00
0.000000e+00		0.000000e+00		0.000000e+00
0.000000e+00		0.000000e+00		0.000000e+00
0.000000e+00		0.000000e+00		0.000000e+00
0.000000e+00		0.000000e+00		0.000000e+00
0.000000e+00		0.000000e+00		0.000000e+00
0.000000e+00		0.000000e+00		0.000000e+00
0.000000e+00		0.000000e+00		0.000000e+00
0.000000e+00		0.000000e+00		0.000000e+00
0.000000e+00		0.000000e+00		0.000000e+00
0.000000e+00		0.000000e+00		0.000000e+00
0.000000e+00		0.000000e+00		0.000000e+00
0.000000e+00		0.000000e+00		0.000000e+00
0.000000e+00		0.000000e+00		0.000000e+00
0.000000e+00		0.000000e+00		0.000000e+00
0.000000e+00		0.000000e+00		0.000000e+00
0.000000e+00		0.000000e+00		0.000000e+00
0.000000e+00		0.000000e+00		0.000000e+00
0.000000e+00		0.000000e+00		0.000000e+00
0.000000e+00		0.000000e+00		0.000000e+00
0.000000e+00		0.000000e+00		0.000000e+00
0.000000e+00		0.000000e+00		0.000000e+00
0.000000e+00		0.000000e+00		0.000000e+00
0.000000e+00		0.000000e+00		0.000000e+00
0.000000e+00		0.000000e+00		0.000000e+00
0.000000e+00		0.000000e+00		0.000000e+00
0.000000e+00		0.000000e+00		0.000000e+00
0.000000e+00		0.000000e+00		0.000000e+00
0.000000e+00		0.000000e+00		0.000000e+00
0.000000e+00		0.000000e+00		0.000000e+00
0.000000e+00		0.000000e+00		0.000000e+00
0.000000e+00		0.000000e+00		0.000000e+00
0.000000e+00		0.000000e+00		0.000000e+00
0.000000e+00		0.000000e+00		0.000000e+00
0.000000e+00		0.000000e+00		0.000000e+00
0.000000e+00		0.000000e+00		0.000000e+00
0.000000e+00		0.000000e+00		0.000000e+00
0.000000e+00		0.000000e+00		0.000000e+00
0.000000e+00		0.000000e+00		0.000000e+00
0.000000e+00		0.000000e+00		0.000000e+00
0.000000e+00		0.000000e+00		0.000000e+00
0.000000e+00		0.000000e+00		0.000000e+00
0.000000e+00		0.000000e+00		0.000000e+00
0.000000e+00		0.000000e+00		0.000000e+00
0.000000e+00		0.000000e+00		0.000000e+00
0.000000e+00		0.000000e+00		0.000000e+00
0.000000e+00		0.000000e+00		0.000000e+00
0.000000e+00		0.000000e+00		0.000000e+00
0.000000e+00		0.000000e+00		0.000000e+00
0.000000e+00		0.000000e+00		0.000000e+00
0.000000e+00		0.000000e+00		0.000000e+00
0.000000e+00		0.000000e+00		0.000000e+00
0.000000e+00		0.000000e+00		0.000000e+00
0.000000e+00		0.000000e+00		0.000000e+00
0.000000e+00		0.000000e+00		0.000000e+00
0.000000e+00		0.000000e+00		0.000000e+00
0.000000e+00		0.000000e+00		0.000000e+00
0.000000e+00		0.000000e+00		0.000000e+00
0.000000e+00		0.000000e+00		0.000000e+00
0.000000e+00		0.000000e+00		0.000000e+00
0.000000e+00		0.000000e+00		0.000000e+00
0.000000e+00		0.000000e+00		0.000000e+00
0.000000e+00		0.000000e+00		0.000000e+00
0.000000e+00		0.000000e+00		0.000000e+00
0.000000e+00		0.000000e+00		0.000000e+00
0.000000e+00		0.000000e+00		0.000000e+00
0.000000e+00		0.000000e+00		0.000000e+00
0.000000e+00		0.000000e+00		0.000000e+00
0.000000e+00		0.000000e+00		0.000000e+00
0.000000e+00		0.000000e+00		0.000000e+00
0.000000e+00		0.000000e+00		0.000000e+00
0.000000e+00		0.000000e+00		0.000000e+00
0.000000e+00		0.000000e+00		0.000000e+00
0.000000e+00		0.000000e+00		0.000000e+00
0.000000e+00		0.000000e+00		0.000000e+00
0.000000e+00		0.000000e+00		0.000000e+00
0.000000e+00		0.000000e+00		0.000000e+00
0.000000e+00		0.000000e+00		0.000000e+00
0.000000e+00		0.000000e+00		0.000000e+00
0.000000e+00		0.000000e+00		0.000000e+00
0.000000e+00		0.000000e+00		0.000000e+00
0.000000e+00		0.000000e+00		0.000000e+00
0.000000e+00		0.000000e+00		0.000000e+00
0.000000e+00		0.000000e+00		0.000000e+00
0.000000e+00		0.000000e+00		0.000000e+00
0.000000e+00		0.000000e+00		0.000000e+00
0.000000e+00		0.000000e+00		0.000000e+00
0.000000e+00		0.000000e+00		0.000000e+00
0.000000e+00		0.000000e+00		0.000000e+00
0.000000e+00		0.000000e+00		0.000000e+00
0.000000e+00		0.000000e+00		0.000000e+00
0.000000e+00		0.000000e+00		0.000000e+00
0.000000e+00		0.000000e+00		0.000000e+00
0.000000e+00		0.000000e+00		0.000000e+00
0.000000e+00		0.000000e+00		0.000000e+00
0.000000e+00		0.000000e+00		0.000000e+00
0.000000e+00		0.000000e+00		0.000000e+00
0.000000e+00		0.000000e+00		0.000000e+00
0.000000e+00		0.000000e+00		0.000000e+00
0.000000e+00		0.000000e+00		0.000000e+00
0.000000e+00		0.000000e+00		0.000000e+00
0.000000e+00		0.000000e+00		0.000000e+00
0.000000e+00		0.000000e+00		0.000000e+00
0.000000e+00		0.000000e+00		0.000000e+00
0.000000e+00		0.000000e+00		0.000000e+00
0.000000e+00		0.000000e+00		0.000000e+00
0.000000e+00		0.000000e+00		0.000000e+00
0.000000e+00		0.000000e+00		0.000000e+00
0.000000e+00		0.000000e+00		0.000000e+00
0.000000e+00		0.000000e+00		0.000000e+00
0.000000e+00		0.000000e+00		0.000000e+00
0.000000e+00		0.000000e+00		0.000000e+00
0.000000e+00		0.000000e+00		0.000000e+00
0.000000e+00		0.000000e+00		0.000000e+00
0.000000e+00		0.000000e+00		0.000000e+00
0.000000e+00		0.000000e+00		0.000000e+00
0.000000e+00		0.000000e+00		0.000000e+00
0.000000e+00		0.000000e+00		0.000000e+00
0.000000e+00		0.000000e+00		0.000000e+00
0.000000e+00		0.000000e+00		0.000000e+00
0.000000e+00		0.000000e+00		0.000000e+00
0.000000e+00		0.000000e+00		0.000000e+00
0.000000e+00		0.000000e+00		0.000000e+00
0.000000e+00		0.000000e+00		0.000000e+00
0.000000e+00		0.000000e+00		0.000000e+00
0.000000e+00		0.000000e+00		0.000000e+00
0.000000e+00		0.000000e+00		0.000000e+00
0.000000e+00		0.000000e+00		0.000000e+00
0.000000e+00		0.000000e+00		0.000000e+00
0.000000e+00		0.000000e+00		0.000000e+00
0.000000e+00		0.000000e+00		0.000000e+00
0.000000e+00		0.000000e+00		0.000000e+00
0.000000e+00		0.000000e+00		0.000000e+00
0.000000e+00		0.000000e+00		0.000000e+00
0.000000e+00		0.000000e+00		0.000000e+00
0.000000e+00		0.000000e+00		0.000000e+00
0.000000e+00		0.000000e+00		0.000000e+00
0.000000e+00		0.000000e+00		0.000000e+00
0.000000e+00		0.000000e+00		0.000000e+00
0.000000e+00		0.000000e+00		0.000000e+00
0.000000e+00		0.000000e+00		0.000000e+00
0.000000e+00		0.000000e+00		0.000000e+00
0.000000e+00		0.000000e+00		0.000000e+00
0.000000e+00		0.000000e+00		0.000000e+00
0.000000e+00		0.000000e+00		0.000000e+00
0.000000e+00		0.000000e+00		0.000000e+00
0.000000e+00		0.000000e+00		0.000000e+00
0.000000e+00		0.000000e+00		0.000000e+00
0.000000e+00		0.000000e+00		0.000000e+00
0.000000e+00		0.000000e+00		0.000000e+00
0.000000e+00		0.000000e+00		0.000000e+00
0.000000e+00		0.000000e+00		0.000000e+00
0.000000e+00		0.000000e+00		0.000000e+00
0.000000e+00		0.000000e+00		0.000000e+00
0.000000e+00		0.000000e+00		0.000000e+00
0.000000e+00		0.000000e+00		0.000000e+00
0.000000e+00		0.000000e+00		0.000000e+00
0.000000e+00		0.000000e+00		0.000000e+00
0.000000e+00		0.000000e+00		0.000000e+00
0.000000e+00		0.000000e+00		0.000000e+00
0.000000e+00		0.000000e+00		0.000000e+00
0.000000e+00		0.000000e+00		0.000000e+00
0.000000e+00		0.000000e+00		0.000000e+00
0.000000e+00		0.000000e+00		0.000000e+00
0.000000e+00		0.000000e+00		0.000000e+00
0.000000e+00		0.000000e+00		0.000000e+00
0.000000e+00		0.000000e+00		0.000000e+00
0.000000e+00		0.000000e+00		0.000000e+00
0.000000e+00		0.000000e+00		0.000000e+00
0.000000e+00		0.000000e+00		0.000000e+00
0.000000e+00		0.000000e+00		0.000000e+00
0.000000e+00		0.000000e+00		0.000000e+00
0.000000e+00		0.000000e+00		0.000000e+00
0.000000e+00		0.000000e+00		0.000000e+00
0.000000e+00		0.000000e+00		0.000000e+00
0.000000e+00		0.000000e+00		0.000000e+00
0.000000e+00		0.000000e+00		0.000000e+00
0.000000e+00		0.000000e+00		0.000000e+00
0.000000e+00		0.000000e+00		0.000000e+00
0.000000e+00		0.000000e+00		0.000000e+00
0.000000e+00		0.000000e+00		0.000000e+00
0.000000e+00		0.000000e+00		0.000000e+00
0.000000e+00		0.000000e+00		0.000000e+00
0.000000e+00		0.000000e+00		0.000000e+00
0.000000e+00		0.000000e+00		0.000000e+00
0.000000e+00		0.000000e+00		0.000000e+00
0.000000e+00		0.000000e+00		0.000000e+00
0.000000e+00		0.000000e+00		0.000000e+00
0.000000e+00		0.000000e+00		0.000000e+00
0.000000e+00		0.000000e+00		0.000000e+00
0.000000e+00		0.000000e+00		0.000000e+00
0.000000e+00		0.000000e+00		0.000000e+00
0.000000e+00		0.000000e+00		0.000000e+00
0.000000e+00		0.000000e+00		0.000000e+00
0.000000e+00		0.000000e+00		0.000000e+00
0.000000e+00		0.000000e+00		0.000000e+00
0.000000e+00		0.000000e+00		0.000000e+00
0.000000e+00		0.000000e+00		0.000000e+00
0.000000e+00		0.000000e+00		0.000000e+00
0.000000e+00		0.000000e+00		0.000000e+00
0.000000e+00		0.000000e+00		0.000000e+00
0.000000e+00		0.000000e+00		0.000000e+00
0.000000e+00		0.000000e+00		0.000000e+00
0.000000e+00		0.000000e+00		0.000000e+00
0.000000e+00		0.000000e+00		0.000000e+00
0.000000e+00		0.000000e+00		0.000000e+00
0.000000e+00		0.000000e+00		0.000000e+00
0.000000e+00		0.000000e+00		0.000000e+00
0.000000e+00		0.000000e+00		0.000000e+00
0.000000e+00		0.000000e+00		0.000000e+00
0.000000e+00		0.000000e+00		0.000000e+00
0.000000e+00		0.000000e+00		0.000000e+00
0.000000e+00		0.000000e+00		0.000000e+00
0.000000e+00		0.000000e+00		0.000000e+00
0.000000e+00		0.000000e+00		0.000000e+00
0.000000e+00		0.000000e+00		0.000000e+00
0.000000e+00		0.000000e+00		0.000000e+00
0.000000e+00		0.000000e+00		0.000000e+00
0.000000e+00		0.000000e+00		0.000000e+00
0.000000e+00		0.000000e+00		0.000000e+00
0.000000e+00		0.000000e+00		0.000000e+00
0.000000e+00		0.000000e+00		0.000000e+00
0.000000e+00		0.000000e+00		0.000000e+00
0.000000e+00		0.000000e+00		0.000000e+00
0.000000e+00		0.000000e+00		0.000000e+00
0.000000e+00		0.000000e+00		0.000000e+00
0.000000e+00		0.000000e+00		0.000000e+00
0.000000e+00		0.000000e+00		0.000000e+00
0.000000e+00		0.000000e+00		0.000000e+00
0.000000e+00		0.000000e+00		0.000000e+00
0.000000e+00		0.000000e+00		0.000000e+00
0.000000e+00		0.000000e+00		0.000000e+00
0.000000e+00		0.000000e+00		0.000000e+00
0.000000e+00		0.000000e+00		0.000000e+00
0.000000e+00		0.000000e+00		0.000000e+00
0.000000e+00		0.000000e+00		0.000000e+00
0.000000e+00		0.000000e+00		0.000000e+00
0.000000e+00		0.000000e+00		0.000000e+00
0.000000e+00		0.000000e+00		0.000000e+00
0.000000e+00		0.000000e+00		0.000000e+00
0.000000e+00		0.000000e+00		0.000000e+00
0.000000e+00		0.000000e+00		0.000000e+00
0.000000e+00		0.000000e+00		0.000000e+00
0.000000e+00		0.000000e+00		0.000000e+00
0.000000e+00		0.000000e+00		0.000000e+00
0.000000e+00		0.000000e+00		0.000000e+00
0.000000e+00		0.000000e+00		0.000000e+00
0.000000e+00		0.000000e+00		0.000000e+00
0.000000e+00		0.000000e+00		0.000000e+00
0.000000e+00		0.000000e+00		0.000000e+00
0.000000e+00		0.000000e+00		0.000000e+00
0.000000e+00		0.000000e+00		0.000000e+00
0.000000e+00		0.000000e+00		0.000000e+00
0.000000e+00		0.000000e+00		0.000000e+00
0.000000e+00		0.000000e+00		0.000000e+00
0.000000e+00		0.000000e+00		0.000000e+00
0.000000e+00		0.000000e+00		0.000000e+00
0.000000e+00		0.000000e+00		0.000000e+00
0.000000e+00		0.000000e+00		0.000000e+00
0.000000e+00		0.000000e+00		0.000000e+00
0.000000e+00		0.000000e+00		0.000000e+00
0.000000e+00		0.000000e+00		0.000000e+00
0.000000e+00		0.000000e+00		0.000000e+00
0.000000e+00		0.000000e+00		0.000000e+00
0.000000e+00		0.000000e+00		0.000000e+00
0.000000e+00		0.000000e+00		0.000000e+00
0.000000e+00		0.000000e+00		0.000000e+00
0.000000e+00		0.000000e+00		0.000000e+00
0.000000e+00		0.000000e+00		0.000000e+00
0.000000e+00		0.000000e+00		0.000000e+00
0.000000e+00		0.000000e+00		0.000000e+00
0.000000e+00		0.000000e+00		0.000000e+00
0.000000e+00		0.000000e+00		0.000000e+00
0.000000e+00		0.000000e+00		0.000000e+00
0.000000e+00		0.000000e+00		0.000000e+00
0.000000e+00		0.000000e+00		0.000000e+00
0.000000e+00		0.000000e+00		0.000000e+00
0.000000e+00		0.000000e+00		0.000000e+00
0.000000e+00		0.000000e+00		0.000000e+00
0.000000e+00		0.000000e+00		0.000000e+00
0.000000e+00		0.000000e+00		0.000000e+00
0.000000e+00		0.000000e+00		0.000000e+00
0.000000e+00		0.000000e+00		0.000000e+00
0.000000e+00		0.000000e+00		0.000000e+00
0.000000e+00		0.000000e+00		0.000000e+00
0.000000e+00		0.000000e+00		0.000000e+00
0.000000e+00		0.000000e+00		0.000000e+00
0.000000e+00		0.000000e+00		0.000000e+00
0.000000e+00		0.000000e+00		0.000000e+00
0.000000e+00		0.000000e+00		0.000000e+00
0.000000e+00		0.000000e+00		0.000000e+00
0.000000e+00		0.000000e+00		0.000000e+00
0.000000e+00		0.000000e+00		0.000000e+00
0.000000e+00		0.000000e+00		0.000000e+00
0.000000e+00		0.000000e+00		0.000000e+00
0.000000e+00		0.000000e+00		0.000000e+00
0.000000e+00		0.000000e+00		0.000000e+00
0.000000e+00		0.000000e+00		0.000000e+00
0.000000e+00		0.000000e+00		0.000000e+00
0.000000e+00		0.000000e+00		0.000000e+00
0.000000e+00		0.000000e+00		0.000000e+00
0.000000e+00		0.000000e+00		0.000000e+00
0.000000e+00		0.000000e+00		0.000000e+00
0.000000e+00		0.000000e+00		0.000000e+00
0.000000e+00		0.000000e+00		0.000000e+00
0.000000e+00		0.000000e+00		0.000000e+00
0.000000e+00		0.000000e+00		0.000000e+00
0.000000e+00		0.000000e+00		0.000000e+00
0.000000e+00		0.000000e+00		0.000000e+00
0.000000e+00		0.000000e+00		0.000000e+00
0.000000e+00		0.000000e+00		0.000000e+00
0.000000e+00		0.000000e+00		0.000000e+00
0.000000e+00		0.000000e+00		0.000000e+00
0.000000e+00		0.000000e+00		0.000000e+00
0.000000e+00		0.000000e+00		0.000000e+00
0.000000e+00		0.000000e+00		0.000000e+00
0.000000e+00		0.000000e+00		0.000000e+00
0.000000e+00		0.000000e+00		0.000000e+00
0.000000e+00		0.000000e+00		0.000000e+00
0.000000e+00		0.000000e+00		0.000000e+00
0.000000e+00		0.000000e+00		0.000000e+00
0.000000e+00		0.000000e+00		0.000000e+00
0.000000e+00		0.000000e+00		0.000000e+00
0.000000e+00		0.000000e+00		0.000000e+00
0.000000e+00		0.000000e+00		0.000000e+00
0.000000e+00		0.000000e+00		0.000000e+00
0.000000e+00		0.000000e+00		0.000000e+00
0.000000e+00		0.000000e+00		0.000000e+00
0.000000e+00		0.000000e+00		0.000000e+00
0.000000e+00		0.000000e+00		0.000000e+00
0.000000e+00		0.000000e+00		0.000000e+00
0.000000e+00		0.000000e+00		0.000000e+00
0.000000e+00		0.000000e+00		0.000000e+00
0.000000e+00		0.000000e+00		0.000000e+00
0.000000e+00		0.000000e+00		0.000000e+00
0.000000e+00		0.000000e+00		0.000000e+00
0.000000e+00		0.000000e+00		0.000000e+00
0.000000e+00		0.000000e+00		0.000000e+00
0.000000e+00		0.000000e+00		0.000000e+00
0.000000e+00		0.000000e+00		0.000000e+00
0.000000e+00		0.000000e+00		0.000000e+00
0.000000e+00		0.000000e+00		0.000000e+00
0.000000e+00		0.000000e+00		0.000000e+00
0.000000e+00		0.000000e+00		0.000000e+00
0.000000e+00		0.000000e+00		0.000000e+00
0.000000e+00		0.000000e+00		0.000000e+00
0.000000e+00		0.000000e+00		0.000000e+00
0.000000e+00		0.000000e+00		0.000000e+00
0.000000e+00		0.000000e+00		0.000000e+00
0.000000e+00		0.000000e+00		0.000000e+00
0.000000e+00		0.000000e+00		0.000000e+00
0.000000e+00		0.000000e+00		0.000000e+00
0.000000e+00		0.000000e+00		0.000000e+00
0.000000e+00		0.000000e+00		0.000000e+00
0.000000e+00		0.000000e+00		0.000000e+00
0.000000e+00		0.000000e+00		0.000000e+00
0.000000e+00		0.000000e+00		0.000000e+00
0.000000e+00		0.000000e+00		0.000000e+00
0.000000e+00		0.000000e+00		0.000000e+00
0.000000e+00		0.000000e+00		0.000000e+00
0.000000e+00		0.000000e+00		0.000000e+00
0.000000e+00		0.000000e+00		0.000000e+00
0.000000e+00		0.000000e+00		0.000000e+00
0.000000e+00		0.000000e+00		0.000000e+00
0.000000e+00		0.000000e+00		0.000000e+00
0.000000e+00		0.000000e+00		0.000000e+00
0.000000e+00		0.000000e+00		0.000000e+00
0.000000e+00		0.000000e+00		0.000000e+00
0.000000e+00		0.000000e+00		0.000000e+00
0.000000e+00		0.000000e+00		0.000000e+00
0.000000e+00		0.000000e+00		0.000000e+00
0.000000e+00		0.000000e+00		0.000000e+00
0.000000e+00		0.000000e+00		0.000000e+00
0.000000e+00		0.000000e+00		0.000000e+00
0.000000e+00		0.000000e+00		0.000000e+00
0.000000e+00		0.000000e+00		0.000000e+00
0.000000e+00		0.000000e+00		0.000000e+00
0.000000e+00		0.000000e+00		0.000000e+00
0.000000e+00		0.000000e+00		0.000000e+00
0.000000e+00		0.000000e+00		0.000000e+00
0.000000e+00		0.000000e+00		0.000000e+00
0.000000e+00		0.000000e+00		0.000000e+00
0.000000e+00		0.000000e+00		0.000000e+00
0.000000e+00		0.000000e+00		0.000000e+00
0.000000e+00		0.000000e+00		0.000000e+00
0.000000e+00		0.000000e+00		0.000000e+00
0.000000e+00		0.000000e+00		0.000000e+00
0.000000e+00		0.000000e+00		0.000000e+00
0.000000e+00		0.000000e+00		0.000000e+00
0.000000e+00		0.000000e+00		0.000000e+00
0.000000e+00		0.000000e+00		0.000000e+00
0.000000e+00		0.000000e+00		0.000000e+00
0.000000e+00		0.000000e+00		0.000000e+00
0.000000e+00		0.000000e+00		0.000000e+00
0.000000e+00		0.000000e+00		0.000000e+00
0.000000e+00		0.000000e+00		0.000000e+00
0.000000e+00		0.000000e+00		0.000000e+00
0.000000e+00		0.000000e+00		0.000000e+00
0.000000e+00		0.000000e+00		0.000000e+00
0.000000e+00		0.000000e+00		0.000000e+00
0.000000e+00		0.000000e+00		0.000000e+00
0.000000e+00		0.000000e+00		0.000000e+00
0.000000e+00		0.000000e+00		0.000000e+00
0.000000e+00		0.000000e+00		0.000000e+00
0.000000e+00		0.000000e+00		0.000000e+00
0.000000e+00		0.000000e+00		0.000000e+00
0.000000e+00		0.000000e+00		0.000000e+00
0.000000e+00		0.000000e+00		0.000000e+00
0.000000e+00		0.000000e+00		0.000000e+00
0.000000e+00		0.000000e+00		0.000000e+00
0.000000e+00		0.000000e+00		0.000000e+00
0.000000e+00		0.000000e+00		0.000000e+00
0.000000e+00		0.000000e+00		0.000000e+00
0.000000e+00		0.000000e+00		0.000000e+00
0.000000e+00		0.000000e+00		0.000000e+00
0.000000e+00		0.000000e+00		0.000000e+00
0.000000e+00		0.000000e+00		0.000000e+00
0.000000e+00		0.000000e+00		0.000000e+00
0.000000e+00		0.000000e+00		0.000000e+00
0.000000e+00		0.000000e+00		0.000000e+00
0.000000e+00		0.000000e+00		0.000000e+00
0.000000e+00		0.000000e+00		0.000000e+00
0.000000e+00		0.000000e+00		0.000000e+00
0.000000e+00		0.000000e+00		0.000000e+00
0.000000e+00		0.000000e+00		0.000000e+00
0.000000e+00		0.000000e+00		0.000000e+00
0.000000e+00		0.000000e+00		0.000000e+00
0.000000e+00		0.000000e+00		0.000000e+00
0.000000e+00		0.000000e+00		0.000000e+00
0.000000e+00		0.000000e+00		0.000000e+00
0.000000e+00		0.000000e+00		0.000000e+00
0.000000e+00		0.000000e+00		0.000000e+00
0.000000e+00		0.000000e+00		0.000000e+00
0.000000e+00		0.000000e+00		0.000000e+00
0.000000e+00		0.000000e+00		0.000000e+00
0.000000e+00		0.000000e+00		0.000000e+00
0.000000e+00		0.000000e+00		0.000000e+00
0.000000e+00		0.000000e+00		0.000000e+00
0.000000e+00		0.000000e+00		0.000000e+00
0.000000e+00		0.000000e+00		0.000000e+00
0.000000e+00		0.000000e+00		0.000000e+00
0.000000e+00		0.000000e+00		0.000000e+00
0.000000e+00		0.000000e+00		0.000000e+00
0.000000e+00		0.000000e+00		0.000000e+00
0.000000e+00		0.000000e+00		0.000000e+00
0.000000e+00		0.000000e+00		0.000000e+00
0.000000e+00		0.000000e+00		0.000000e+00
0.000000e+00		0.000000e+00		0.000000e+00
0.000000e+00		0.000000e+00		0.000000e+00
0.000000e+00		0.000000e+00		0.000000e+00
0.000000e+00		0.000000e+00		0.000000e+00
0.000000e+00		0.000000e+00		0.000000e+00
0.000000e+00		0.000000e+00		0.000000e+00
0.000000e+00		0.000000e+00		0.000000e+00
0.000000e+00		0.000000e+00		0.000000e+00
0.000000e+00		0.000000e+00		0.000000e+00
0.000000e+00		0.000000e+00		0.000000e+00
0.000000e+00		0.000000e+00		0.000000e+00
0.000000e+00		0.000000e+00		0.000000e+00
0.000000e+00		0.000000e+00		0.000000e+00
0.000000e+00		0.000000e+00		0.000000e+00
0.000000e+00		0.000000e+00		0.000000e+00
0.000000e+00		0.000000e+00		0.000000e+00
0.000000e+00		0.000000e+00		0.000000e+00
0.000000e+00		0.000000e+00		0.000000e+00
0.000000e+00		0.000000e+00		0.000000e+00
0.000000e+00		0.000000e+00		0.000000e+00
0.000000e+00		0.000000e+00		0.000000e+00
0.000000e+00		0.000000e+00		0.000000e+00
0.000000e+00		0.000000e+00		0.000000e+00
0.000000e+00		0.000000e+00		0.000000e+00
0.000000e+00		0.000000e+00		0.000000e+00
0.000000e+00		0.000000e+00		0.000000e+00
0.000000e+00		0.000000e+00		0.000000e+00
0.000000e+00		0.000000e+00		0.000000e+00
0.000000e+00		0.000000e+00		0.000000e+00
0.000000e+00		0.000000e+00		0.000000e+00
0.000000e+00		0.000000e+00		0.000000e+00
0.000000e+00		0.000000e+00		0.000000e+00
0.000000e+00		0.000000e+00		0.000000e+00
0.000000e+00		0.000000e+00		0.000000e+00
0.000000e+00		0.000000e+00		0.000000e+00
0.000000e+00		0.000000e+00		0.000000e+00
0.000000e+00		0.000000e+00		0.000000e+00
0.000000e+00		0.000000e+00		0.000000e+00
0.000000e+00		0.000000e+00		0.000000e+00
0.000000e+00		0.000000e+00		0.000000e+00
0.000000e+00		0.000000e+00		0.000000e+00
0.000000e+00		0.000000e+00		0.000000e+00
0.000000e+00		0.000000e+00		0.000000e+00
0.000000e+00		0.000000e+00		0.000000e+00
0.000000e+00		0.000000e+00		0.000000e+00
0.000000e+00		0.000000e+00		0.000000e+00
0.000000e+00		0.000000e+00		0.000000e+00
0.000000e+00		0.000000e+00		0.000000e+00
0.000000e+00		0.000000e+00		0.000000e+00
0.000000e+00		0.000000e+00		0.000000e+00
0.000000e+00		0.000000e+00		0.000000e+00
0.000000e+00		0.000000e+00		0.000000e+00
0.000000e+00		0.000000e+00		0.000000e+00
0.000000e+00		0.000000e+00		0.000000e+00
0.000000e+00		0.000000e+00		0.000000e+00
0.000000e+00		0.000000e+00		0.000000e+00
0.000000e+00		0.000000e+00		0.000000e+00
0.000000e+00		0.000000e+00		0.000000e+00
0.000000e+00		0.000000e+00		0.000000e+00
0.000000e+00		0.000000e+00		0.000000e+00
0.000000e+00		0.000000e+00		0.000000e+00
0.000000e+00		0.000000e+00		0.000000e+00
0.000000e+00		0.000000e+00		0.000000e+00
0.000000e+00		0.000000e+00		0.000000e+00
0.000000e+00		0.000000e+00		0.000000e+00
0.000000e+00		0.000000e+00		0.000000e+00
0.000000e+00		0.000000e+00		0.000000e+00
0.000000e+00		0.000000e+00		0.000000e+00
0.000000e+00		0.000000e+00		0.000000e+00
0.000000e+00		0.000000e+00		0.000000e+00
0.000000e+00		0.000000e+00		0.000000e+00
0.000000e+00		0.000000e+00		0.000000e+00
0.000000e+00		0.000000e+00		0.000000e+00
0.000000e+00		0.000000e+00		0.000000e+00
0.000000e+00		0.000000e+00		0.000000e+00
0.000000e+00		0.000000e+00		0.000000e+00
3.778611e+07		3.308515e+07		1.211239e+07
1.799739e+08		6.387590e+07		-5.247175e+08
6.737997e+07		-1.095432e+07		8.202554e+07
2.017050e+08		3.266005e+07		-5.697097e+08
6.747586e+07		3.640540e-05		8.431886e+07
2.017050e+08		-3.266005e+07		-5.697097e+08
6.737997e+07		1.095432e+07		8.202554e+07
1.799739e+08		-6.387590e+07		-5.247175e+08
3.778611e+07		-3.308515e+07		1.211239e+07
-1.941202e+06		1.810897e+08		-4.678578e+08
5.773652e+07		1.057093e+08		-7.267565e+08
7.238231e+07		-1.003966e-04		-7.359466e+08
5.773652e+07		-1.057093e+08		-7.267565e+08
-1.941202e+06		-1.810897e+08		-4.678578e+08
-1.000739e+07		1.797908e+07		7.909712e+07
5.116961e+07		7.426742e+07		-4.706006e+08
-1.078847e+07		-2.277699e+07		2.382397e+08
1.034122e+08		3.747146e+07		-4.914257e+08
-2.330846e+07		-9.263245e-06		2.473873e+08
1.034122e+08		-3.747146e+07		-4.914257e+08
-1.078847e+07		2.277699e+07		2.382397e+08
5.116961e+07		-7.426742e+07		-4.706006e+08
-1.000739e+07		-1.797908e+07		7.909712e+07
-7.613523e+06		5.735728e+07		-1.580305e+08
6.062965e+07		3.327049e+07		-2.428118e+08
8.579172e+07		-5.764166e-05		-2.441246e+08
6.062965e+07		-3.327049e+07		-2.428118e+08
-7.613523e+06		-5.735728e+07		-1.580305e+08
-1.770182e+07		2.422091e-04		-2.175886e-04
1.360173e+07		-5.085394e-05		4.144907e-04
-2.699385e+07		1.133289e-04		-4.382282e-04
7.368873e+07		-1.760945e-05		3.084019e-04
-4.591588e+07		-5.204417e-05		-1.579840e-04
7.368873e+07		8.210540e-06		2.623945e-04
-2.699385e+07		-8.966029e-05		1.135916e-04
1.360173e+07		1.154840e-05		3.074780e-04
-1.770182e+07		-1.606792e-04		1.190305e-04
-7.613523e+06		-5.735728e+07		1.580305e+08
6.062965e+07		-3.327049e+07		2.428118e+08
8.579172e+07		-2.251565e-05		2.441246e+08
6.062965e+07		3.327049e+07		2.428118e+08
-7.613523e+06		5.735728e+07		1.580305e+08
-1.000739e+07		-1.797908e+07		-7.909712e+07
5.116961e+07		-7.426742e+07		4.706006e+08
-1.078847e+07		2.277699e+07		-2.382397e+08
1.034122e+08		-3.747146e+07		4.914257e+08
-2.330846e+07		-2.966076e-05		-2.473873e+08
1.034122e+08		3.747146e+07		4.914257e+08
-1.078847e+07		-2.277699e+07		-2.382397e+08
5.116961e+07		7.426742e+07		4.706006e+08
-1.000739e+07		1.797908e+07		-7.909712e+07
-1.941202e+06		-1.810897e+08		4.678578e+08
5.773652e+07		-1.057093e+08		7.267565e+08
7.238231e+07		8.657575e-06		7.359466e+08
5.773652e+07		1.057093e+08		7.267565e+08
-1.941202e+06		1.810897e+08		4.678578e+08
3.778611e+07		-3.308515e+07		-1.211239e+07
1.799739e+08		-6.387590e+07		5.247175e+08
6.737997e+07		1.095432e+07		-8.202554e+07
2.017050e+08		-3.266005e+07		5.697097e+08
6.747586e+07		2.177060e-05		-8.431886e+07
2.017050e+08		3.266005e+07		5.697097e+08
6.737997e+07		-1.095432e+07		-8.202554e+07
1.799739e+08		6.387590e+07		5.247175e+08
3.778611e+07		3.308515e+07		-1.211239e+07
VECTORS velocity double
0.000000e+00		0.000000e+00		0.000000e+00
0.000000e+00		0.000000e+00		0.000000e+00
0.000000e+00		0.000000e+00		0.000000e+00
0.000000e+00		0.000000e+00		0.000000e+00
0.000000e+00		0.000000e+00		0.000000e+00
0.000000e+00		0.000000e+00		0.000000e+00
0.000000e+00		0.000000e+00		0.000000e+00
0.000000e+00		0.000000e+00		0.000000e+00
0.000000e+00		0.000000e+00		0.000000e+00
0.000000e+00		0.000000e+00		0.000000e+00
0.000000e+00		0.000000e+00		0.000000e+00
0.000000e+00		0.000000e+00		0.000000e+00
0.000000e+00		0.000000e+00		0.000000e+00
0.000000e+00		0.000000e+00		0.000000e+00
0.000000e+00		0.000000e+00		0.000000e+00
0.000000e+00		0.000000e+00		0.000000e+00
0.000000e+00		0.000000e+00		0.000000e+00
0.000000e+00		0.000000e+00		0.000000e+00
0.000000e+00		0.000000e+00		0.000000e+00
0.000000e+00		0.000000e+00		0.000000e+00
0.000000e+00		0.000000e+00		0.000000e+00
0.000000e+00		0.000000e+00		0.000000e+00
0.000000e+00		0.000000e+00		0.000000e+00
0.000000e+00		0.000000e+00		0.000000e+00
0.000000e+00		0.000000e+00		0.000000e+00
0.000000e+00		0.000000e+00		0.000000e+00
0.000000e+00		0.000000e+00		0.000000e+00
0.000000e+00		0.000000e+00		0.000000e+00
0.000000e+00		0.000000e+00		0.000000e+00
0.000000e+00		0.000000e+00		0.000000e+00
0.000000e+00		0.000000e+00		0.000000e+00
0.000000e+00		0.000000e+00		0.000000e+00
0.000000e+00		0.000000e+00		0.000000e+00
0.000000e+00		0.000000e+00		0.000000e+00
0.000000e+00		0.000000e+00		0.000000e+00
0.000000e+00		0.000000e+00		0.000000e+00
0.000000e+00		0.000000e+00		0.000000e+00
0.000000e+00		0.000000e+00		0.000000e+00
0.000000e+00		0.000000e+00		0.000000e+00
0.000000e+00		0.000000e+00		0.000000e+00
0.000000e+00		0.000000e+00		0.000000e+00
0.000000e+00		0.000000e+00		0.000000e+00
0.000000e+00		0.000000e+00		0.000000e+00
0.000000e+00		0.000000e+00		0.000000e+00
0.000000e+00		0.000000e+00		0.000000e+00
0.000000e+00		0.000000e+00		0.000000e+00
0.000000e+00		0.000000e+00		0.000000e+00
0.000000e+00		0.000000e+00		0.000000e+00
0.000000e+00		0.000000e+00		0.000000e+00
0.000000e+00		0.000000e+00		0.000000e+00
0.000000e+00		0.000000e+00		0.000000e+00
0.000000e+00		0.000000e+00		0.000000e+00
0.000000e+00		0.000000e+00		0.000000e+00
0.000000e+00		0.000000e+00		0.000000e+00
0.000000e+00		0.000000e+00		0.000000e+00
0.000000e+00		0.000000e+00		0.000000e+00
0.000000e+00		0.000000e+00		0.000000e+00
0.000000e+00		0.000000e+00		0.000000e+00
0.000000e+00		0.000000e+00		0.000000e+00
0.000000e+00		0.000000e+00		0.000000e+00
0.000000e+00		0.000000e+00		0.000000e+00
0.000000e+00		0.000000e+00		0.000000e+00
0.000000e+00		0.000000e+00		0.000000e+00
0.000000e+00		0.000000e+00		0.000000e+00
0.000000e+00		0.000000e+00		0.000000e+00
0.000000e+00		0.000000e+00		0.000000e+00
0.000000e+00		0.000000e+00		0.000000e+00
0.000000e+00		0.000000e+00		0.000000e+00
0.000000e+00		0.000000e+00		0.000000e+00
0.000000e+00		0.000000e+00		0.000000e+00
0.000000e+00		0.000000e+00		0.000000e+00
0.000000e+00		0.000000e+00		0.000000e+00
0.000000e+00		0.000000e+00		0.000000e+00
0.000000e+00		0.000000e+00		0.000000e+00
0.000000e+00		0.000000e+00		0.000000e+00
0.000000e+00		0.000000e+00		0.000000e+00
0.000000e+00		0.000000e+00		0.000000e+00
0.000000e+00		0.000000e+00		0.000000e+00
0.000000e+00		0.000000e+00		0.000000e+00
0.000000e+00		0.000000e+00		0.000000e+00
0.000000e+00		0.000000e+00		0.000000e+00
0.000000e+00		0.000000e+00		0.000000e+00
0.000000e+00		0.000000e+00		0.000000e+00
0.000000e+00		0.000000e+00		0.000000e+00
0.000000e+00		0.000000e+00		0.000000e+00
0.000000e+00		0.000000e+00		0.000000e+00
0.000000e+00		0.000000e+00		0.000000e+00
0.000000e+00		0.000000e+00		0.000000e+00
0.000000e+00		0.000000e+00		0.000000e+00
0.000000e+00		0.000000e+00		0.000000e+00
0.000000e+00		0.000000e+00		0.000000e+00
0.000000e+00		0.000000e+00		0.000000e+00
0.000000e+00		0.000000e+00		0.000000e+00
0.000000e+00		0.000000e+00		0.000000e+00
0.000000e+00		0.000000e+00		0.000000e+00
0.000000e+00		0.000000e+00		0.000000e+00
0.000000e+00		0.000000e+00		0.000000e+00
0.000000e+00		0.000000e+00		0.000000e+00
0.000000e+00		0.000000e+00		0.000000e+00
0.000000e+00		0.000000e+00		0.000000e+00
0.000000e+00		0.000000e+00		0.000000e+00
0.000000e+00		0.000000e+00		0.000000e+00
0.000000e+00		0.000000e+00		0.000000e+00
0.000000e+00		0.000000e+00		0.000000e+00
0.000000e+00		0.000000e+00		0.000000e+00
0.000000e+00		0.000000e+00		0.000000e+00
0.000000e+00		0.000000e+00		0.000000e+00
0.000000e+00		0.000000e+00		0.000000e+00
0.000000e+00		0.000000e+00		0.000000e+00
0.000000e+00		0.000000e+00		0.000000e+00
0.000000e+00		0.000000e+00		0.000000e+00
0.000000e+00		0.000000e+00		0.000000e+00
0.000000e+00		0.000000e+00		0.000000e+00
0.000000e+00		0.000000e+00		0.000000e+00
0.000000e+00		0.000000e+00		0.000000e+00
0.000000e+00		0.000000e+00		0.000000e+00
0.000000e+00		0.000000e+00		0.000000e+00
0.000000e+00		0.000000e+00		0.000000e+00
0.000000e+00		0.000000e+00		0.000000e+00
0.000000e+00		0.000000e+00		0.000000e+00
0.000000e+00		0.000000e+00		0.000000e+00
0.000000e+00		0.000000e+00		0.000000e+00
0.000000e+00		0.000000e+00		0.000000e+00
0.000000e+00		0.000000e+00		0.000000e+00
0.000000e+00		0.000000e+00		0.000000e+00
0.000000e+00		0.000000e+00		0.000000e+00
0.000000e+00		0.000000e+00		0.000000e+00
0.000000e+00		0.000000e+00		0.000000e+00
0.000000e+00		0.000000e+00		0.000000e+00
0.000000e+00		0.000000e+00		0.000000e+00
0.000000e+00		0.000000e+00		0.000000e+00
0.000000e+00		0.000000e+00		0.000000e+00
0.000000e+00		0.000000e+00		0.000000e+00
0.000000e+00		0.000000e+00		0.000000e+00
0.000000e+00		0.000000e+00		0.000000e+00
0.000000e+00		0.000000e+00		0.000000e+00
0.000000e+00		0.000000e+00		0.000000e+00
0.000000e+00		0.000000e+00		0.000000e+00
0.000000e+00		0.000000e+00		0.000000e+00
0.000000e+00		0.000000e+00		0.000000e+00
0.000000e+00		0.000000e+00		0.000000e+00
0.000000e+00		0.000000e+00		0.000000e+00
0.000000e+00		0.000000e+00		0.000000e+00
0.000000e+00		0.000000e+00		0.000000e+00
0.000000e+00		0.000000e+00		0.000000e+00
0.000000e+00		0.000000e+00		0.000000e+00
0.000000e+00		0.000000e+00		0.000000e+00
0.000000e+00		0.000000e+00		0.000000e+00
0.000000e+00		0.000000e+00		0.000000e+00
0.000000e+00		0.000000e+00		0.000000e+00
0.000000e+00		0.000000e+00		0.000000e+00
0.000000e+00		0.000000e+00		0.000000e+00
0.000000e+00		0.000000e+00		0.000000e+00
0.000000e+00		0.000000e+00		0.000000e+00
0.000000e+00		0.000000e+00		0.000000e+00
0.000000e+00		0.000000e+00		0.000000e+00
0.000000e+00		0.000000e+00		0.000000e+00
0.000000e+00		0.000000e+00		0.000000e+00
0.000000e+00		0.000000e+00		0.000000e+00
0.000000e+00		0.000000e+00		0.000000e+00
0.000000e+00		0.000000e+00		0.000000e+00
0.000000e+00		0.000000e+00		0.000000e+00
0.000000e+00		0.000000e+00		0.000000e+00
0.000000e+00		0.000000e+00		0.000000e+00
0.000000e+00		0.000000e+00		0.000000e+00
0.000000e+00		0.000000e+00		0.000000e+00
0.000000e+00		0.000000e+00		0.000000e+00
0.000000e+00		0.000000e+00		0.000000e+00
0.000000e+00		0.000000e+00		0.000000e+00
0.000000e+00		0.000000e+00		0.000000e+00
0.000000e+00		0.000000e+00		0.000000e+00
0.000000e+00		0.000000e+00		0.000000e+00
0.000000e+00		0.000000e+00		0.000000e+00
0.000000e+00		0.000000e+00		0.000000e+00
0.000000e+00		0.000000e+00		0.000000e+00
0.000000e+00		0.000000e+00		0.000000e+00
0.000000e+00		0.000000e+00		0.000000e+00
0.000000e+00		0.000000e+00		0.000000e+00
0.000000e+00		0.000000e+00		0.000000e+00
0.000000e+00		0.000000e+00		0.000000e+00
0.000000e+00		0.000000e+00		0.000000e+00
0.000000e+00		0.000000e+00		0.000000e+00
0.000000e+00		0.000000e+00		0.000000e+00
0.000000e+00		0.000000e+00		0.000000e+00
0.000000e+00		0.000000e+00		0.000000e+00
0.000000e+00		0.000000e+00		0.000000e+00
0.000000e+00		0.000000e+00		0.000000e+00
0.000000e+00		0.000000e+00		0.000000e+00
0.000000e+00		0.000000e+00		0.000000e+00
0.000000e+00		0.000000e+00		0.000000e+00
0.000000e+00		0.000000e+00		0.000000e+00
0.000000e+00		0.000000e+00		0.000000e+00
0.000000e+00		0.000000e+00		0.000000e+00
0.000000e+00		0.000000e+00		0.000000e+00
0.000000e+00		0.000000e+00		0.000000e+00
0.000000e+00		0.000000e+00		0.000000e+00
0.000000e+00		0.000000e+00		0.000000e+00
0.000000e+00		0.000000e+00		0.000000e+00
0.000000e+00		0.000000e+00		0.000000e+00
0.000000e+00		0.000000e+00		0.000000e+00
0.000000e+00		0.000000e+00		0.000000e+00
0.000000e+00		0.000000e+00		0.000000e+00
0.000000e+00		0.000000e+00		0.000000e+00
0.000000e+00		0.000000e+00		0.000000e+00
0.000000e+00		0.000000e+00		0.000000e+00
0.000000e+00		0.000000e+00		0.000000e+00
0.000000e+00		0.000000e+00		0.000000e+00
0.000000e+00		0.000000e+00		0.000000e+00
0.000000e+00		0.000000e+00		0.000000e+00
0.000000e+00		0.000000e+00		0.000000e+00
0.000000e+00		0.000000e+00		0.000000e+00
0.000000e+00		0.000000e+00		0.000000e+00
0.000000e+00		0.000000e+00		0.000000e+00
0.000000e+00		0.000000e+00		0.000000e+00
0.000000e+00		0.000000e+00		0.000000e+00
0.000000e+00		0.000000e+00		0.000000e+00
0.000000e+00		0.000000e+00		0.000000e+00
0.000000e+00		0.000000e+00		0.000000e+00
0.000000e+00		0.000000e+00		0.000000e+00
0.000000e+00		0.000000e+00		0.000000e+00
0.000000e+00		0.000000e+00		0.000000e+00
0.000000e+00		0.000000e+00		0.000000e+00
0.000000e+00		0.000000e+00		0.000000e+00
0.000000e+00		0.000000e+00		0.000000e+00
0.000000e+00		0.000000e+00		0.000000e+00
0.000000e+00		0.000000e+00		0.000000e+00
0.000000e+00		0.000000e+00		0.000000e+00
0.000000e+00		0.000000e+00		0.000000e+00
0.000000e+00		0.000000e+00		0.000000e+00
0.000000e+00		0.000000e+00		0.000000e+00
0.000000e+00		0.000000e+00		0.000000e+00
0.000000e+00		0.000000e+00		0.000000e+00
0.000000e+00		0.000000e+00		0.000000e+00
0.000000e+00		0.000000e+00		0.000000e+00
0.000000e+00		0.000000e+00		0.000000e+00
0.000000e+00		0.000000e+00		0.000000e+00
0.000000e+00		0.000000e+00		0.000000e+00
0.000000e+00		0.000000e+00		0.000000e+00
0.000000e+00		0.000000e+00		0.000000e+00
0.000000e+00		0.000000e+00		0.000000e+00
0.000000e+00		0.000000e+00		0.000000e+00
0.000000e+00		0.000000e+00		0.000000e+00
0.000000e+00		0.000000e+00		0.000000e+00
0.000000e+00		0.000000e+00		0.000000e+00
0.000000e+00		0.000000e+00		0.000000e+00
0.000000e+00		0.000000e+00		0.000000e+00
0.000000e+00		0.000000e+00		0.000000e+00
0.000000e+00		0.000000e+00		0.000000e+00
0.000000e+00		0.000000e+00		0.000000e+00
0.000000e+00		0.000000e+00		0.000000e+00
0.000000e+00		0.000000e+00		0.000000e+00
0.000000e+00		0.000000e+00		0.000000e+00
0.000000e+00		0.000000e+00		0.000000e+00
0.000000e+00		0.000000e+00		0.000000e+00
0.000000e+00		0.000000e+00		0.000000e+00
0.000000e+00		0.000000e+00		0.000000e+00
0.000000e+00		0.000000e+00		0.000000e+00
0.000000e+00		0.000000e+00		0.000000e+00
0.000000e+00		0.000000e+00		0.000000e+00
0.000000e+00		0.000000e+00		0.000000e+00
0.000000e+00		0.000000e+00		0.000000e+00
0.000000e+00		0.000000e+00		0.000000e+00
0.000000e+00		0.000000e+00		0.000000e+00
0.000000e+00		0.000000e+00		0.000000e+00
0.000000e+00		0.000000e+00		0.000000e+00
0.000000e+00		0.000000e+00		0.000000e+00
0.000000e+00		0.000000e+00		0.000000e+00
0.000000e+00		0.000000e+00		0.000000e+00
0.000000e+00		0.000000e+00		0.000000e+00
0.000000e+00		0.000000e+00		0.000000e+00
0.000000e+00		0.000000e+00		0.000000e+00
0.000000e+00		0.000000e+00		0.000000e+00
0.000000e+00		0.000000e+00		0.000000e+00
0.000000e+00		0.000000e+00		0.000000e+00
0.000000e+00		0.000000e+00		0.000000e+00
0.000000e+00		0.000000e+00		0.000000e+00
0.000000e+00		0.000000e+00		0.000000e+00
0.000000e+00		0.000000e+00		0.000000e+00
0.000000e+00		0.000000e+00		0.000000e+00
0.000000e+00		0.000000e+00		0.000000e+00
0.000000e+00		0.000000e+00		0.000000e+00
0.000000e+00		0.000000e+00		0.000000e+00
0.000000e+00		0.000000e+00		0.000000e+00
0.000000e+00		0.000000e+00		0.000000e+00
0.000000e+00		0.000000e+00		0.000000e+00
0.000000e+00		0.000000e+00		0.000000e+00
0.000000e+00		0.000000e+00		0.000000e+00
0.000000e+00		0.000000e+00		0.000000e+00
0.000000e+00		0.000000e+00		0.000000e+00
0.000000e+00		0.000000e+00		0.000000e+00
0.000000e+00		0.000000e+00		0.000000e+00
0.000000e+00		0.000000e+00		0.000000e+00
0.000000e+00		0.000000e+00		0.000000e+00
0.000000e+00		0.000000e+00		0.000000e+00
0.000000e+00		0.000000e+00		0.000000e+00
0.000000e+00		0.000000e+00		0.000000e+00
0.000000e+00		0.000000e+00		0.000000e+00
0.000000e+00		0.000000e+00		0.000000e+00
0.000000e+00		0.000000e+00		0.000000e+00
0.000000e+00		0.000000e+00		0.000000e+00
0.000000e+00		0.000000e+00		0.000000e+00
0.000000e+00		0.000000e+00		0.000000e+00
0.000000e+00		0.000000e+00		0.000000e+00
0.000000e+00		0.000000e+00		0.000000e+00
0.000000e+00		0.000000e+00		0.000000e+00
0.000000e+00		0.000000e+00		0.000000e+00
0.000000e+00		0.000000e+00		0.000000e+00
0.000000e+00		0.000000e+00		0.000000e+00
0.000000e+00		0.000000e+00		0.000000e+00
0.000000e+00		0.000000e+00		0.000000e+00
0.000000e+00		0.000000e+00		0.000000e+00
0.000000e+00		0.000000e+00		0.000000e+00
0.000000e+00		0.000000e+00		0.000000e+00
0.000000e+00		0.000000e+00		0.000000e+00
0.000000e+00		0.000000e+00		0.000000e+00
0.000000e+00		0.000000e+00		0.000000e+00
0.000000e+00		0.000000e+00		0.000000e+00
0.000000e+00		0.000000e+00		0.000000e+00
0.000000e+00		0.000000e+00		0.000000e+00
0.000000e+00		0.000000e+00		0.000000e+00
0.000000e+00		0.000000e+00		0.000000e+00
0.000000e+00		0.000000e+00		0.000000e+00
0.000000e+00		0.000000e+00		0.000000e+00
0.000000e+00		0.000000e+00		0.000000e+00
0.000000e+00		0.000000e+00		0.000000e+00
0.000000e+00		0.000000e+00		0.000000e+00
0.000000e+00		0.000000e+00		0.000000e+00
0.000000e+00		0.000000e+00		0.000000e+00
0.000000e+00		0.000000e+00		0.000000e+00
0.000000e+00		0.000000e+00		0.000000e+00
0.000000e+00		0.000000e+00		0.000000e+00
0.000000e+00		0.000000e+00		0.000000e+00
0.000000e+00		0.000000e+00		0.000000e+00
0.000000e+00		0.000000e+00		0.000000e+00
0.000000e+00		0.000000e+00		0.000000e+00
0.000000e+00		0.000000e+00		0.000000e+00
0.000000e+00		0.000000e+00		0.000000e+00
0.000000e+00		0.000000e+00		0.000000e+00
0.000000e+00		0.000000e+00		0.000000e+00
0.000000e+00		0.000000e+00		0.000000e+00
0.000000e+00		0.000000e+00		0.000000e+00
0.000000e+00		0.000000e+00		0.000000e+00
0.000000e+00		0.000000e+00		0.000000e+00
0.000000e+00		0.000000e+00		0.000000e+00
0.000000e+00		0.000000e+00		0.000000e+00
0.000000e+00		0.000000e+00		0.000000e+00
0.000000e+00		0.000000e+00		0.000000e+00
0.000000e+00		0.000000e+00		0.000000e+00
0.000000e+00		0.000000e+00		0.000000e+00
0.000000e+00		0.000000e+00		0.000000e+00
0.000000e+00		0.000000e+00		0.000000e+00
0.000000e+00		0.000000e+00		0.000000e+00
0.000000e+00		0.000000e+00		0.000000e+00
0.000000e+00		0.000000e+00		0.000000e+00
0.000000e+00		0.000000e+00		0.000000e+00
0.000000e+00		0.000000e+00		0.000000e+00
0.000000e+00		0.000000e+00		0.000000e+00
0.000000e+00		0.000000e+00		0.000000e+00
0.000000e+00		0.000000e+00		0.000000e+00
0.000000e+00		0.000000e+00		0.000000e+00
0.000000e+00		0.000000e+00		0.000000e+00
0.000000e+00		0.000000e+00		0.000000e+00
0.000000e+00		0.000000e+00		0.000000e+00
0.000000e+00		0.000000e+00		0.000000e+00
0.000000e+00		0.000000e+00		0.000000e+00
0.000000e+00		0.000000e+00		0.000000e+00
0.000000e+00		0.000000e+00		0.000000e+00
0.000000e+00		0.000000e+00		0.000000e+00
0.000000e+00		0.000000e+00		0.000000e+00
0.000000e+00		0.000000e+00		0.000000e+00
0.000000e+00		0.000000e+00		0.000000e+00
0.000000e+00		0.000000e+00		0.000000e+00
0.000000e+00		0.000000e+00		0.000000e+00
0.000000e+00		0.000000e+00		0.000000e+00
0.000000e+00		0.000000e+00		0.000000e+00
0.000000e+00		0.000000e+00		0.000000e+00
0.000000e+00		0.000000e+00		0.000000e+00
0.000000e+00		0.000000e+00		0.000000e+00
0.000000e+00		0.000000e+00		0.000000e+00
0.000000e+00		0.000000e+00		0.000000e+00
0.000000e+00		0.000000e+00		0.000000e+00
0.000000e+00		0.000000e+00		0.000000e+00
0.000000e+00		0.000000e+00		0.000000e+00
0.000000e+00		0.000000e+00		0.000000e+00
0.000000e+00		0.000000e+00		0.000000e+00
0.000000e+00		0.000000e+00		0.000000e+00
0.000000e+00		0.000000e+00		0.000000e+00
0.000000e+00		0.000000e+00		0.000000e+00
0.000000e+00		0.000000e+00		0.000000e+00
0.000000e+00		0.000000e+00		0.000000e+00
0.000000e+00		0.000000e+00		0.000000e+00
0.000000e+00		0.000000e+00		0.000000e+00
0.000000e+00		0.000000e+00		0.000000e+00
0.000000e+00		0.000000e+00		0.000000e+00
0.000000e+00		0.000000e+00		0.000000e+00
0.000000e+00		0.000000e+00		0.000000e+00
0.000000e+00		0.000000e+00		0.000000e+00
0.000000e+00		0.000000e+00		0.000000e+00
0.000000e+00		0.000000e+00		0.000000e+00
0.000000e+00		0.000000e+00		0.000000e+00
0.000000e+00		0.000000e+00		0.000000e+00
0.000000e+00		0.000000e+00		0.000000e+00
0.000000e+00		0.000000e+00		0.000000e+00
0.000000e+00		0.000000e+00		0.000000e+00
0.000000e+00		0.000000e+00		0.000000e+00
0.000000e+00		0.000000e+00		0.000000e+00
0.000000e+00		0.000000e+00		0.000000e+00
0.000000e+00		0.000000e+00		0.000000e+00
0.000000e+00		0.000000e+00		0.000000e+00
0.000000e+00		0.000000e+00		0.000000e+00
0.000000e+00		0.000000e+00		0.000000e+00
0.000000e+00		0.000000e+00		0.000000e+00
0.000000e+00		0.000000e+00		0.000000e+00
0.000000e+00		0.000000e+00		0.000000e+00
0.000000e+00		0.000000e+00		0.000000e+00
0.000000e+00		0.000000e+00		0.000000e+00
0.000000e+00		0.000000e+00		0.000000e+00
0.000000e+00		0.000000e+00		0.000000e+00
0.000000e+00		0.000000e+00		0.000000e+00
0.000000e+00		0.000000e+00		0.000000e+00
0.000000e+00		0.000000e+00		0.000000e+00
0.000000e+00		0.000000e+00		0.000000e+00
0.000000e+00		0.000000e+00		0.000000e+00
0.000000e+00		0.000000e+00		0.000000e+00
0.000000e+00		0.000000e+00		0.000000e+00
0.000000e+00		0.000000e+00		0.000000e+00
0.000000e+00		0.000000e+00		0.000000e+00
0.000000e+00		0.000000e+00		0.000000e+00
0.000000e+00		0.000000e+00		0.000000e+00
0.000000e+00		0.000000e+00		0.000000e+00
0.000000e+00		0.000000e+00		0.000000e+00
0.000000e+00		0.000000e+00		0.000000e+00
0.000000e+00		0.000000e+00		0.000000e+00
0.000000e+00		0.000000e+00		0.000000e+00
0.000000e+00		0.000000e+00		0.000000e+00
0.000000e+00		0.000000e+00		0.000000e+00
0.000000e+00		0.000000e+00		0.000000e+00
0.000000e+00		0.000000e+00		0.000000e+00
0.000000e+00		0.000000e+00		0.000000e+00
0.000000e+00		0.000000e+00		0.000000e+00
0.000000e+00		0.000000e+00		0.000000e+00
0.000000e+00		0.000000e+00		0.000000e+00
0.000000e+00		0.000000e+00		0.000000e+00
0.000000e+00		0.000000e+00		0.000000e+00
0.000000e+00		0.000000e+00		0.000000e+00
0.000000e+00		0.000000e+00		0.000000e+00
0.000000e+00		0.000000e+00		0.000000e+00
0.000000e+00		0.000000e+00		0.000000e+00
0.000000e+00		0.000000e+00		0.000000e+00
0.000000e+00		0.000000e+00		0.000000e+00
0.000000e+00		0.000000e+00		0.000000e+00
0.000000e+00		0.000000e+00		0.000000e+00
0.000000e+00		0.000000e+00		0.000000e+00
0.000000e+00		0.000000e+00		0.000000e+00
0.000000e+00		0.000000e+00		0.000000e+00
0.000000e+00		0.000000e+00		0.000000e+00
0.000000e+00		0.000000e+00		0.000000e+00
0.000000e+00		0.000000e+00		0.000000e+00
0.000000e+00		0.000000e+00		0.000000e+00
0.000000e+00		0.000000e+00		0.000000e+00
0.000000e+00		0.000000e+00		0.000000e+00
0.000000e+00		0.000000e+00		0.000000e+00
0.000000e+00		0.000000e+00		0.000000e+00
0.000000e+00		0.000000e+00		0.000000e+00
0.000000e+00		0.000000e+00		0.000000e+00
0.000000e+00		0.000000e+00		0.000000e+00
0.000000e+00		0.000000e+00		0.000000e+00
0.000000e+00		0.000000e+00		0.000000e+00
0.000000e+00		0.000000e+00		0.000000e+00
0.000000e+00		0.000000e+00		0.000000e+00
0.000000e+00		0.000000e+00		0.000000e+00
0.000000e+00		0.000000e+00		0.000000e+00
0.000000e+00		0.000000e+00		0.000000e+00
0.000000e+00		0.000000e+00		0.000000e+00
0.000000e+00		0.000000e+00		0.000000e+00
0.000000e+00		0.000000e+00		0.000000e+00
0.000000e+00		0.000000e+00		0.000000e+00
0.000000e+00		0.000000e+00		0.000000e+00
0.000000e+00		0.000000e+00		0.000000e+00
0.000000e+00		0.000000e+00		0.000000e+00
0.000000e+00		0.000000e+00		0.000000e+00
0.000000e+00		0.000000e+00		0.000000e+00
0.000000e+00		0.000000e+00		0.000000e+00
0.000000e+00		0.000000e+00		0.000000e+00
0.000000e+00		0.000000e+00		0.000000e+00
0.000000e+00		0.000000e+00		0.000000e+00
0.000000e+00		0.000000e+00		0.000000e+00
0.000000e+00		0.000000e+00		0.000000e+00
0.000000e+00		0.000000e+00		0.000000e+00
0.000000e+00		0.000000e+00		0.000000e+00
0.000000e+00		0.000000e+00		0.000000e+00
0.000000e+00		0.000000e+00		0.000000e+00
0.000000e+00		0.000000e+00		0.000000e+00
0.000000e+00		0.000000e+00		0.000000e+00
0.000000e+00		0.000000e+00		0.000000e+00
0.000000e+00		0.000000e+00		0.000000e+00
0.000000e+00		0.000000e+00		0.000000e+00
0.000000e+00		0.000000e+00		0.000000e+00
0.000000e+00		0.000000e+00		0.000000e+00
0.000000e+00		0.000000e+00		0.000000e+00
0.000000e+00		0.000000e+00		0.000000e+00
0.000000e+00		0.000000e+00		0.000000e+00
0.000000e+00		0.000000e+00		0.000000e+00
0.000000e+00		0.000000e+00		0.000000e+00
0.000000e+00		0.000000e+00		0.000000e+00
0.000000e+00		0.000000e+00		0.000000e+00
0.000000e+00		0.000000e+00		0.000000e+00
0.000000e+00		0.000000e+00		0.000000e+00
0.000000e+00		0.000000e+00		0.000000e+00
0.000000e+00		0.000000e+00		0.000000e+00
0.000000e+00		0.000000e+00		0.000000e+00
0.000000e+00		0.000000e+00		0.000000e+00
0.000000e+00		0.000000e+00		0.000000e+00
0.000000e+00		0.000000e+00		0.000000e+00
0.000000e+00		0.000000e+00		0.000000e+00
0.000000e+00		0.000000e+00		0.000000e+00
0.000000e+00		0.000000e+00		0.000000e+00
0.000000e+00		0.000000e+00		0.000000e+00
0.000000e+00		0.000000e+00		0.000000e+00
0.000000e+00		0.000000e+00		0.000000e+00
0.000000e+00		0.000000e+00		0.000000e+00
0.000000e+00		0.000000e+00		0.000000e+00
0.000000e+00		0.000000e+00		0.000000e+00
0.000000e+00		0.000000e+00		0.000000e+00
0.000000e+00		0.000000e+00		0.000000e+00
0.000000e+00		0.000000e+00		0.000000e+00
0.000000e+00		0.000000e+00		0.000000e+00
0.000000e+00		0.000000e+00		0.000000e+00
0.000000e+00		0.000000e+00		0.000000e+00
0.000000e+00		0.000000e+00		0.000000e+00
0.000000e+00		0.000000e+00		0.000000e+00
0.000000e+00		0.000000e+00		0.000000e+00
0.000000e+00		0.000000e+00		0.000000e+00
0.000000e+00		0.000000e+00		0.000000e+00
0.000000e+00		0.000000e+00		0.000000e+00
0.000000e+00		0.000000e+00		0.000000e+00
0.000000e+00		0.000000e+00		0.000000e+00
0.000000e+00		0.000000e+00		0.000000e+00
0.000000e+00		0.000000e+00		0.000000e+00
0.000000e+00		0.000000e+00		0.000000e+00
0.000000e+00		0.000000e+00		0.000000e+00
0.000000e+00		0.000000e+00		0.000000e+00
0.000000e+00		0.000000e+00		0.000000e+00
0.000000e+00		0.000000e+00		0.000000e+00
0.000000e+00		0.000000e+00		0.000000e+00
0.000000e+00		0.000000e+00		0.000000e+00
0.000000e+00		0.000000e+00		0.000000e+00
0.000000e+00		0.000000e+00		0.000000e+00
0.000000e+00		0.000000e+00		0.000000e+00
0.000000e+00		0.000000e+00		0.000000e+00
0.000000e+00		0.000000e+00		0.000000e+00
0.000000e+00		0.000000e+00		0.000000e+00
0.000000e+00		0.000000e+00		0.000000e+00
0.000000e+00		0.000000e+00		0.000000e+00
0.000000e+00		0.000000e+00		0.000000e+00
0.000000e+00		0.000000e+00		0.000000e+00
0.000000e+00		0.000000e+00		0.000000e+00
0.000000e+00		0.000000e+00		0.000000e+00
0.000000e+00		0.000000e+00		0.000000e+00
0.000000e+00		0.000000e+00		0.000000e+00
0.000000e+00		0.000000e+00		0.000000e+00
0.000000e+00		0.000000e+00		0.000000e+00
0.000000e+00		0.000000e+00		0.000000e+00
0.000000e+00		0.000000e+00		0.000000e+00
0.000000e+00		0.000000e+00		0.000000e+00
0.000000e+00		0.000000e+00		0.000000e+00
0.000000e+00		0.000000e+00		0.000000e+00
0.000000e+00		0.000000e+00		0.000000e+00
0.000000e+00		0.000000e+00		0.000000e+00
0.000000e+00		0.000000e+00		0.000000e+00
0.000000e+00		0.000000e+00		0.000000e+00
0.000000e+00		0.000000e+00		0.000000e+00
0.000000e+00		0.000000e+00		0.000000e+00
0.000000e+00		0.000000e+00		0.000000e+00
0.000000e+00		0.000000e+00		0.000000e+00
0.000000e+00		0.000000e+00		0.000000e+00
0.000000e+00		0.000000e+00		0.000000e+00
0.000000e+00		0.000000e+00		0.000000e+00
0.000000e+00		0.000000e+00		0.000000e+00
0.000000e+00		0.000000e+00		0.000000e+00
0.000000e+00		0.000000e+00		0.000000e+00
0.000000e+00		0.000000e+00		0.000000e+00
0.000000e+00		0.000000e+00		0.000000e+00
0.000000e+00		0.000000e+00		0.000000e+00
0.000000e+00		0.000000e+00		0.000000e+00
0.000000e+00		0.000000e+00		0.000000e+00
0.000000e+00		0.000000e+00		0.000000e+00
0.000000e+00		0.000000e+00		0.000000e+00
0.000000e+00		0.000000e+00		0.000000e+00
0.000000e+00		0.000000e+00		0.000000e+00
0.000000e+00		0.000000e+00		0.000000e+00
0.000000e+00		0.000000e+00		0.000000e+00
0.000000e+00		0.000000e+00		0.000000e+00
0.000000e+00		0.000000e+00		0.000000e+00
0.000000e+00		0.000000e+00		0.000000e+00
0.000000e+00		0.000000e+00		0.000000e+00
0.000000e+00		0.000000e+00		0.000000e+00
0.000000e+00		0.000000e+00		0.000000e+00
0.000000e+00		0.000000e+00		0.000000e+00
0.000000e+00		0.000000e+00		0.000000e+00
0.000000e+00		0.000000e+00		0.000000e+00
0.000000e+00		0.000000e+00		0.000000e+00
0.000000e+00		0.000000e+00		0.000000e+00
0.000000e+00		0.000000e+00		0.000000e+00
0.000000e+00		0.000000e+00		0.000000e+00
0.000000e+00		0.000000e+00		0.000000e+00
0.000000e+00		0.000000e+00		0.000000e+00
0.000000e+00		0.000000e+00		0.000000e+00
0.000000e+00		0.000000e+00		0.000000e+00
0.000000e+00		0.000000e+00		0.000000e+00
0.000000e+00		0.000000e+00		0.000000e+00
0.000000e+00		0.000000e+00		0.000000e+00
0.000000e+00		0.000000e+00		0.000000e+00
0.000000e+00		0.000000e+00		0.000000e+00
0.000000e+00		0.000000e+00		0.000000e+00
0.000000e+00		0.000000e+00		0.000000e+00
0.000000e+00		0.000000e+00		0.000000e+00
0.000000e+00		0.000000e+00		0.000000e+00
0.000000e+00		0.000000e+00		0.000000e+00
0.000000e+00		0.000000e+00		0.000000e+00
0.000000e+00		0.000000e+00		0.000000e+00
0.000000e+00		0.000000e+00		0.000000e+00
0.000000e+00		0.000000e+00		0.000000e+00
0.000000e+00		0.000000e+00		0.000000e+00
0.000000e+00		0.000000e+00		0.000000e+00
0.000000e+00		0.000000e+00		0.000000e+00
0.000000e+00		0.000000e+00		0.000000e+00
0.000000e+00		0.000000e+00		0.000000e+00
0.000000e+00		0.000000e+00		0.000000e+00
0.000000e+00		0.000000e+00		0.000000e+00
0.000000e+00		0.000000e+00		0.000000e+00
0.000000e+00		0.000000e+00		0.000000e+00
0.000000e+00		0.000000e+00		0.000000e+00
0.000000e+00		0.000000e+00		0.000000e+00
0.000000e+00		0.000000e+00		0.000000e+00
0.000000e+00		0.000000e+00		0.000000e+00
0.000000e+00		0.000000e+00		0.000000e+00
0.000000e+00		0.000000e+00		0.000000e+00
0.000000e+00		0.000000e+00		0.000000e+00
0.000000e+00		0.000000e+00		0.000000e+00
0.000000e+00		0.000000e+00		0.000000e+00
0.000000e+00		0.000000e+00		0.000000e+00
0.000000e+00		0.000000e+00		0.000000e+00
0.000000e+00		0.000000e+00		0.000000e+00
0.000000e+00		0.000000e+00		0.000000e+00
0.000000e+00		0.000000e+00		0.000000e+00
0.000000e+00		0.000000e+00		0.000000e+00
0.000000e+00		0.000000e+00		0.000000e+00
0.000000e+00		0.000000e+00		0.000000e+00
0.000000e+00		0.000000e+00		0.000000e+00
0.000000e+00		0.000000e+00		0.000000e+00
0.000000e+00		0.000000e+00		0.000000e+00
0.000000e+00		0.000000e+00		0.000000e+00
0.000000e+00		0.000000e+00		0.000000e+00
0.000000e+00		0.000000e+00		0.000000e+00
0.000000e+00		0.000000e+00		0.000000e+00
0.000000e+00		0.000000e+00		0.000000e+00
0.000000e+00		0.000000e+00		0.000000e+00
0.000000e+00		0.000000e+00		0.000000e+00
0.000000e+00		0.000000e+00		0.000000e+00
0.000000e+00		0.000000e+00		0.000000e+00
0.000000e+00		0.000000e+00		0.000000e+00
0.000000e+00		0.000000e+00		0.000000e+00
0.000000e+00		0.000000e+00		0.000000e+00
0.000000e+00		0.000000e+00		0.000000e+00
0.000000e+00		0.000000e+00		0.000000e+00
0.000000e+00		0.000000e+00		0.000000e+00
0.000000e+00		0.000000e+00		0.000000e+00
0.000000e+00		0.000000e+00		0.000000e+00
0.000000e+00		0.000000e+00		0.000000e+00
0.000000e+00		0.000000e+00		0.000000e+00
0.000000e+00		0.000000e+00		0.000000e+00
0.000000e+00		0.000000e+00		0.000000e+00
0.000000e+00		0.000000e+00		0.000000e+00
0.000000e+00		0.000000e+00		0.000000e+00
0.000000e+00		0.000000e+00		0.000000e+00
0.000000e+00		0.000000e+00		0.000000e+00
0.000000e+00		0.000000e+00		0.000000e+00
0.000000e+00		0.000000e+00		0.000000e+00
0.000000e+00		0.000000e+00		0.000000e+00
0.000000e+00		0.000000e+00		0.000000e+00
0.000000e+00		0.000000e+00		0.000000e+00
0.000000e+00		0.000000e+00		0.000000e+00
0.000000e+00		0.000000e+00		0.000000e+00
0.000000e+00		0.000000e+00		0.000000e+00
0.000000e+00		0.000000e+00		0.000000e+00
0.000000e+00		0.000000e+00		0.000000e+00
0.000000e+00		0.000000e+00		0.000000e+00
0.000000e+00		0.000000e+00		0.000000e+00
0.000000e+00		0.000000e+00		0.000000e+00
0.000000e+00		0.000000e+00		0.000000e+00
0.000000e+00		0.000000e+00		0.000000e+00
0.000000e+00		0.000000e+00		0.000000e+00
0.000000e+00		0.000000e+00		0.000000e+00
0.000000e+00		0.000000e+00		0.000000e+00
0.000000e+00		0.000000e+00		0.000000e+00
0.000000e+00		0.000000e+00		0.000000e+00
0.000000e+00		0.000000e+00		0.000000e+00
0.000000e+00		0.000000e+00		0.000000e+00
0.000000e+00		0.000000e+00		0.000000e+00
0.000000e+00		0.000000e+00		0.000000e+00
0.000000e+00		0.000000e+00		0.000000e+00
0.000000e+00		0.000000e+00		0.000000e+00
0.000000e+00		0.000000e+00		0.000000e+00
0.000000e+00		0.000000e+00		0.000000e+00
0.000000e+00		0.000000e+00		0.000000e+00
0.000000e+00		0.000000e+00		0.000000e+00
0.000000e+00		0.000000e+00		0.000000e+00
0.000000e+00		0.000000e+00		0.000000e+00
0.000000e+00		0.000000e+00		0.000000e+00
0.000000e+00		0.000000e+00		0.000000e+00
0.000000e+00		0.000000e+00		0.000000e+00
0.000000e+00		0.000000e+00		0.000000e+00
0.000000e+00		0.000000e+00		0.000000e+00
0.000000e+00		0.000000e+00		0.000000e+00
0.000000e+00		0.000000e+00		0.000000e+00
0.000000e+00		0.000000e+00		0.000000e+00
0.000000e+00		0.000000e+00		0.000000e+00
0.000000e+00		0.000000e+00		0.000000e+00
0.000000e+00		0.000000e+00		0.000000e+00
0.000000e+00		0.000000e+00		0.000000e+00
0.000000e+00		0.000000e+00		0.000000e+00
0.000000e+00		0.000000e+00		0.000000e+00
0.000000e+00		0.000000e+00		0.000000e+00
0.000000e+00		0.000000e+00		0.000000e+00
0.000000e+00		0.000000e+00		0.000000e+00
0.000000e+00		0.000000e+00		0.000000e+00
0.000000e+00		0.000000e+00		0.000000e+00
0.000000e+00		0.000000e+00		0.000000e+00
0.000000e+00		0.000000e+00		0.000000e+00
0.000000e+00		0.000000e+00		0.000000e+00
0.000000e+00		0.000000e+00		0.000000e+00
0.000000e+00		0.000000e+00		0.000000e+00
0.000000e+00		0.000000e+00		0.000000e+00
0.000000e+00		0.000000e+00		0.000000e+00
0.000000e+00		0.000000e+00		0.000000e+00
0.000000e+00		0.000000e+00		0.000000e+00
0.000000e+00		0.000000e+00		0.000000e+00
0.000000e+00		0.000000e+00		0.000000e+00
0.000000e+00		0.000000e+00		0.000000e+00
0.000000e+00		0.000000e+00		0.000000e+00
0.000000e+00		0.000000e+00		0.000000e+00
0.000000e+00		0.000000e+00		0.000000e+00
0.000000e+00		0.000000e+00		0.000000e+00
0.000000e+00		0.000000e+00		0.000000e+00
0.000000e+00		0.000000e+00		0.000000e+00
0.000000e+00		0.000000e+00		0.000000e+00
0.000000e+00		0.000000e+00		0.000000e+00
0.000000e+00		0.000000e+00		0.000000e+00
0.000000e+00		0.000000e+00		0.000000e+00
0.000000e+00		0.000000e+00		0.000000e+00
0.000000e+00		0.000000e+00		0.000000e+00
0.000000e+00		0.000000e+00		0.000000e+00
0.000000e+00		0.000000e+00		0.000000e+00
0.000000e+00		0.000000e+00		0.000000e+00
0.000000e+00		0.000000e+00		0.000000e+00
0.000000e+00		0.000000e+00		0.000000e+00
0.000000e+00		0.000000e+00		0.000000e+00
0.000000e+00		0.000000e+00		0.000000e+00
0.000000e+00		0.000000e+00		0.000000e+00
0.000000e+00		0.000000e+00		0.000000e+00
0.000000e+00		0.000000e+00		0.000000e+00
0.000000e+00		0.000000e+00		0.000000e+00
0.000000e+00		0.000000e+00		0.000000e+00
0.000000e+00		0.000000e+00		0.000000e+00
0.000000e+00		0.000000e+00		0.000000e+00
0.000000e+00		0.000000e+00		0.000000e+00
0.000000e+00		0.000000e+00		0.000000e+00
0.000000e+00		0.000000e+00		0.000000e+00
0.000000e+00		0.000000e+00		0.000000e+00
0.000000e+00		0.000000e+00		0.000000e+00
0.000000e+00		0.000000e+00		0.000000e+00
0.000000e+00		0.000000e+00		0.000000e+00
0.000000e+00		0.000000e+00		0.000000e+00
0.000000e+00		0.000000e+00		0.000000e+00
0.000000e+00		0.000000e+00		0.000000e+00
0.000000e+00		0.000000e+00		0.000000e+00
0.000000e+00		0.000000e+00		0.000000e+00
0.000000e+00		0.000000e+00		0.000000e+00
0.000000e+00		0.000000e+00		0.000000e+00
0.000000e+00		0.000000e+00		0.000000e+00
0.000000e+00		0.000000e+00		0.000000e+00
0.000000e+00		0.000000e+00		0.000000e+00
0.000000e+00		0.000000e+00		0.000000e+00
0.000000e+00		0.000000e+00		0.000000e+00
0.000000e+00		0.000000e+00		0.000000e+00
0.000000e+00		0.000000e+00		0.000000e+00
0.000000e+00		0.000000e+00		0.000000e+00
0.000000e+00		0.000000e+00		0.000000e+00
0.000000e+00		0.000000e+00		0.000000e+00
0.000000e+00		0.000000e+00		0.000000e+00
0.000000e+00		0.000000e+00		0.000000e+00
0.000000e+00		0.000000e+00		0.000000e+00
0.000000e+00		0.000000e+00		0.000000e+00
0.000000e+00		0.000000e+00		0.000000e+00
0.000000e+00		0.000000e+00		0.000000e+00
0.000000e+00		0.000000e+00		0.000000e+00
0.000000e+00		0.000000e+00		0.000000e+00
0.000000e+00		0.000000e+00		0.000000e+00
0.000000e+00		0.000000e+00		0.000000e+00
0.000000e+00		0.000000e+00		0.000000e+00
0.000000e+00		0.000000e+00		0.000000e+00
0.000000e+00		0.000000e+00		0.000000e+00
0.000000e+00		0.000000e+00		0.000000e+00
0.000000e+00		0.000000e+00		0.000000e+00
0.000000e+00		0.000000e+00		0.000000e+00
0.000000e+00		0.000000e+00		0.000000e+00
0.000000e+00		0.000000e+00		0.000000e+00
0.000000e+00		0.000000e+00		0.000000e+00
0.000000e+00		0.000000e+00		0.000000e+00
0.000000e+00		0.000000e+00		0.000000e+00
0.000000e+00		0.000000e+00		0.000000e+00
0.000000e+00		0.000000e+00		0.000000e+00
0.000000e+00		0.000000e+00		0.000000e+00
0.000000e+00		0.000000e+00		0.000000e+00
0.000000e+00		0.000000e+00		0.000000e+00
0.000000e+00		0.000000e+00		0.000000e+00
0.000000e+00		0.000000e+00		0.000000e+00
0.000000e+00		0.000000e+00		0.000000e+00
0.000000e+00		0.000000e+00		0.000000e+00
0.000000e+00		0.000000e+00		0.000000e+00
0.000000e+00		0.000000e+00		0.000000e+00
0.000000e+00		0.000000e+00		0.000000e+00
0.000000e+00		0.000000e+00		0.000000e+00
0.000000e+00		0.000000e+00		0.000000e+00
0.000000e+00		0.000000e+00		0.000000e+00
0.000000e+00		0.000000e+00		0.000000e+00
0.000000e+00		0.000000e+00		0.000000e+00
0.000000e+00		0.000000e+00		0.000000e+00
0.000000e+00		0.000000e+00		0.000000e+00
0.000000e+00		0.000000e+00		0.000000e+00
0.000000e+00		0.000000e+00		0.000000e+00
0.000000e+00		0.000000e+00		0.000000e+00
0.000000e+00		0.000000e+00		0.000000e+00
0.000000e+00		0.000000e+00		0.000000e+00
0.000000e+00		0.000000e+00		0.000000e+00
0.000000e+00		0.000000e+00		0.000000e+00
0.000000e+00		0.000000e+00		0.000000e+00
0.000000e+00		0.000000e+00		0.000000e+00
0.000000e+00		0.000000e+00		0.000000e+00
0.000000e+00		0.000000e+00		0.000000e+00
0.000000e+00		0.000000e+00		0.000000e+00
0.000000e+00		0.000000e+00		0.000000e+00
0.000000e+00		0.000000e+00		0.000000e+00
0.000000e+00		0.000000e+00		0.000000e+00
0.000000e+00		0.000000e+00		0.000000e+00
0.000000e+00		0.000000e+00		0.000000e+00
0.000000e+00		0.000000e+00		0.000000e+00
0.000000e+00		0.000000e+00		0.000000e+00
0.000000e+00		0.000000e+00		0.000000e+00
0.000000e+00		0.000000e+00		0.000000e+00
0.000000e+00		0.000000e+00		0.000000e+00
0.000000e+00		0.000000e+00		0.000000e+00
0.000000e+00		0.000000e+00		0.000000e+00
0.000000e+00		0.000000e+00		0.000000e+00
0.000000e+00		0.000000e+00		0.000000e+00
0.000000e+00		0.000000e+00		0.000000e+00
0.000000e+00		0.000000e+00		0.000000e+00
0.000000e+00		0.000000e+00		0.000000e+00
0.000000e+00		0.000000e+00		0.000000e+00
0.000000e+00		0.000000e+00		0.000000e+00
0.000000e+00		0.000000e+00		0.000000e+00
0.000000e+00		0.000000e+00		0.000000e+00
0.000000e+00		0.000000e+00		0.000000e+00
0.000000e+00		0.000000e+00		0.000000e+00
0.000000e+00		0.000000e+00		0.000000e+00
0.000000e+00		0.000000e+00		0.000000e+00
0.000000e+00		0.000000e+00		0.000000e+00
0.000000e+00		0.000000e+00		0.000000e+00
0.000000e+00		0.000000e+00		0.000000e+00
0.000000e+00		0.000000e+00		0.000000e+00
0.000000e+00		0.000000e+00		0.000000e+00
0.000000e+00		0.000000e+00		0.000000e+00
0.000000e+00		0.000000e+00		0.000000e+00
0.000000e+00		0.000000e+00		0.000000e+00
0.000000e+00		0.000000e+00		0.000000e+00
0.000000e+00		0.000000e+00		0.000000e+00
0.000000e+00		0.000000e+00		0.000000e+00
0.000000e+00		0.000000e+00		0.000000e+00
0.000000e+00		0.000000e+00		0.000000e+00
0.000000e+00		0.000000e+00		0.000000e+00
0.000000e+00		0.000000e+00		0.000000e+00
0.000000e+00		0.000000e+00		0.000000e+00
0.000000e+00		0.000000e+00		0.000000e+00
0.000000e+00		0.000000e+00		0.000000e+00
0.000000e+00		0.000000e+00		0.000000e+00
0.000000e+00		0.000000e+00		0.000000e+00
0.000000e+00		0.000000e+00		0.000000e+00
0.000000e+00		0.000000e+00		0.000000e+00
0.000000e+00		0.000000e+00		0.000000e+00
0.000000e+00		0.000000e+00		0.000000e+00
0.000000e+00		0.000000e+00		0.000000e+00
0.000000e+00		0.000000e+00		0.000000e+00
0.000000e+00		0.000000e+00		0.000000e+00
0.000000e+00		0.000000e+00		0.000000e+00
0.000000e+00		0.000000e+00		0.000000e+00
0.000000e+00		0.000000e+00		0.000000e+00
0.000000e+00		0.000000e+00		0.000000e+00
0.000000e+00		0.000000e+00		0.000000e+00
0.000000e+00		0.000000e+00		0.000000e+00
0.000000e+00		0.000000e+00		0.000000e+00
0.000000e+00		0.000000e+00		0.000000e+00
0.000000e+00		0.000000e+00		0.000000e+00
0.000000e+00		0.000000e+00		0.000000e+00
0.000000e+00		0.000000e+00		0.000000e+00
0.000000e+00		0.000000e+00		0.000000e+00
0.000000e+00		0.000000e+00		0.000000e+00
0.000000e+00		0.000000e+00		0.000000e+00
0.000000e+00		0.000000e+00		0.000000e+00
0.000000e+00		0.000000e+00		0.000000e+00
0.000000e+00		0.000000e+00		0.000000e+00
0.000000e+00		0.000000e+00		0.000000e+00
0.000000e+00		0.000000e+00		0.000000e+00
0.000000e+00		0.000000e+00		0.000000e+00
0.000000e+00		0.000000e+00		0.000000e+00
0.000000e+00		0.000000e+00		0.000000e+00
0.000000e+00		0.000000e+00		0.000000e+00
0.000000e+00		0.000000e+00		0.000000e+00
0.000000e+00		0.000000e+00		0.000000e+00
0.000000e+00		0.000000e+00		0.000000e+00
0.000000e+00		0.000000e+00		0.000000e+00
0.000000e+00		0.000000e+00		0.000000e+00
0.000000e+00		0.000000e+00		0.000000e+00
0.000000e+00		0.000000e+00		0.000000e+00
0.000000e+00		0.000000e+00		0.000000e+00
0.000000e+00		0.000000e+00		0.000000e+00
0.000000e+00		0.000000e+00		0.000000e+00
0.000000e+00		0.000000e+00		0.000000e+00
0.000000e+00		0.000000e+00		0.000000e+00
0.000000e+00		0.000000e+00		0.000000e+00
0.000000e+00		0.000000e+00		0.000000e+00
0.000000e+00		0.000000e+00		0.000000e+00
0.000000e+00		0.000000e+00		0.000000e+00
0.000000e+00		0.000000e+00		0.000000e+00
0.000000e+00		0.000000e+00		0.000000e+00
0.000000e+00		0.000000e+00		0.000000e+00
0.000000e+00		0.000000e+00		0.000000e+00
0.000000e+00		0.000000e+00		0.000000e+00
0.000000e+00		0.000000e+00		0.000000e+00
0.000000e+00		0.000000e+00		0.000000e+00
0.000000e+00		0.000000e+00		0.000000e+00
0.000000e+00		0.000000e+00		0.000000e+00
0.000000e+00		0.000000e+00		0.000000e+00
0.000000e+00		0.000000e+00		0.000000e+00
0.000000e+00		0.000000e+00		0.000000e+00
0.000000e+00		0.000000e+00		0.000000e+00
0.000000e+00		0.000000e+00		0.000000e+00
0.000000e+00		0.000000e+00		0.000000e+00
0.000000e+00		0.000000e+00		0.000000e+00
0.000000e+00		0.000000e+00		0.000000e+00
0.000000e+00		0.000000e+00		0.000000e+00
0.000000e+00		0.000000e+00		0.000000e+00
0.000000e+00		0.000000e+00		0.000000e+00
0.000000e+00		0.000000e+00		0.000000e+00
0.000000e+00		0.000000e+00		0.000000e+00
0.000000e+00		0.000000e+00		0.000000e+00
0.000000e+00		0.000000e+00		0.000000e+00
0.000000e+00		0.000000e+00		0.000000e+00
0.000000e+00		0.000000e+00		0.000000e+00
0.000000e+00		0.000000e+00		0.000000e+00
0.000000e+00		0.000000e+00		0.000000e+00
0.000000e+00		0.000000e+00		0.000000e+00
0.000000e+00		0.000000e+00		0.000000e+00
0.000000e+00		0.000000e+00		0.000000e+00
0.000000e+00		0.000000e+00		0.000000e+00
0.000000e+00		0.000000e+00		0.000000e+00
0.000000e+00		0.000000e+00		0.000000e+00
0.000000e+00		0.000000e+00		0.000000e+00
0.000000e+00		0.000000e+00		0.000000e+00
0.000000e+00		0.000000e+00		0.000000e+00
0.000000e+00		0.000000e+00		0.000000e+00
0.000000e+00		0.000000e+00		0.000000e+00
0.000000e+00		0.000000e+00		0.000000e+00
0.000000e+00		0.000000e+00		0.000000e+00
0.000000e+00		0.000000e+00		0.000000e+00
0.000000e+00		0.000000e+00		0.000000e+00
0.000000e+00		0.000000e+00		0.000000e+00
0.000000e+00		0.000000e+00		0.000000e+00
0.000000e+00		0.000000e+00		0.000000e+00
0.000000e+00		0.000000e+00		0.000000e+00
0.000000e+00		0.000000e+00		0.000000e+00
0.000000e+00		0.000000e+00		0.000000e+00
0.000000e+00		0.000000e+00		0.000000e+00
0.000000e+00		0.000000e+00		0.000000e+00
0.000000e+00		0.000000e+00		0.000000e+00
0.000000e+00		0.000000e+00		0.000000e+00
0.000000e+00		0.000000e+00		0.000000e+00
0.000000e+00		0.000000e+00		0.000000e+00
0.000000e+00		0.000000e+00		0.000000e+00
0.000000e+00		0.000000e+00		0.000000e+00
0.000000e+00		0.000000e+00		0.000000e+00
0.000000e+00		0.000000e+00		0.000000e+00
0.000000e+00		0.000000e+00		0.000000e+00
0.000000e+00		0.000000e+00		0.000000e+00
0.000000e+00		0.000000e+00		0.000000e+00
0.000000e+00		0.000000e+00		0.000000e+00
0.000000e+00		0.000000e+00		0.000000e+00
0.000000e+00		0.000000e+00		0.000000e+00
0.000000e+00		0.000000e+00		0.000000e+00
0.000000e+00		0.000000e+00		0.000000e+00
0.000000e+00		0.000000e+00		0.000000e+00
0.000000e+00		0.000000e+00		0.000000e+00
0.000000e+00		0.000000e+00		0.000000e+00
0.000000e+00		0.000000e+00		0.000000e+00
0.000000e+00		0.000000e+00		0.000000e+00
0.000000e+00		0.000000e+00		0.000000e+00
0.000000e+00		0.000000e+00		0.000000e+00
0.000000e+00		0.000000e+00		0.000000e+00
0.000000e+00		0.000000e+00		0.000000e+00
0.000000e+00		0.000000e+00		0.000000e+00
0.000000e+00		0.000000e+00		0.000000e+00
0.000000e+00		0.000000e+00		0.000000e+00
0.000000e+00		0.000000e+00		0.000000e+00
0.000000e+00		0.000000e+00		0.000000e+00
0.000000e+00		0.000000e+00		0.000000e+00
0.000000e+00		0.000000e+00		0.000000e+00
0.000000e+00		0.000000e+00		0.000000e+00
0.000000e+00		0.000000e+00		0.000000e+00
0.000000e+00		0.000000e+00		0.000000e+00
0.000000e+00		0.000000e+00		0.000000e+00
0.000000e+00		0.000000e+00		0.000000e+00
0.000000e+00		0.000000e+00		0.000000e+00
0.000000e+00		0.000000e+00		0.000000e+00
0.000000e+00		0.000000e+00		0.000000e+00
0.000000e+00		0.000000e+00		0.000000e+00
0.000000e+00		0.000000e+00		0.000000e+00
0.000000e+00		0.000000e+00		0.000000e+00
0.000000e+00		0.000000e+00		0.000000e+00
0.000000e+00		0.000000e+00		0.000000e+00
0.000000e+00		0.000000e+00		0.000000e+00
0.000000e+00		0.000000e+00		0.000000e+00
0.000000e+00		0.000000e+00		0.000000e+00
0.000000e+00		0.000000e+00		0.000000e+00
0.000000e+00		0.000000e+00		0.000000e+00
0.000000e+00		0.000000e+00		0.000000e+00
0.000000e+00		0.000000e+00		0.000000e+00
0.000000e+00		0.000000e+00		0.000000e+00
0.000000e+00		0.000000e+00		0.000000e+00
0.000000e+00		0.000000e+00		0.000000e+00
0.000000e+00		0.000000e+00		0.000000e+00
0.000000e+00		0.000000e+00		0.000000e+00
0.000000e+00		0.000000e+00		0.000000e+00
0.000000e+00		0.000000e+00		0.000000e+00
0.000000e+00		0.000000e+00		0.000000e+00
0.000000e+00		0.000000e+00		0.000000e+00
0.000000e+00		0.000000e+00		0.000000e+00
0.000000e+00		0.000000e+00		0.000000e+00
0.000000e+00		0.000000e+00		0.000000e+00
0.000000e+00		0.000000e+00		0.000000e+00
0.000000e+00		0.000000e+00		0.000000e+00
0.000000e+00		0.000000e+00		0.000000e+00
0.000000e+00		0.000000e+00		0.000000e+00
0.000000e+00		0.000000e+00		0.000000e+00
0.000000e+00		0.000000e+00		0.000000e+00
0.000000e+00		0.000000e+00		0.000000e+00
0.000000e+00		0.000000e+00		0.000000e+00
0.000000e+00		0.000000e+00		0.000000e+00
0.000000e+00		0.000000e+00		0.000000e+00
0.000000e+00		0.000000e+00		0.000000e+00
0.000000e+00		0.000000e+00		0.000000e+00
0.000000e+00		0.000000e+00		0.000000e+00
0.000000e+00		0.000000e+00		0.000000e+00
0.000000e+00		0.000000e+00		0.000000e+00
0.000000e+00		0.000000e+00		0.000000e+00
0.000000e+00		0.000000e+00		0.000000e+00
0.000000e+00		0.000000e+00		0.000000e+00
0.000000e+00		0.000000e+00		0.000000e+00
0.000000e+00		0.000000e+00		0.000000e+00
0.000000e+00		0.000000e+00		0.000000e+00
0.000000e+00		0.000000e+00		0.000000e+00
0.000000e+00		0.000000e+00		0.000000e+00
0.000000e+00		0.000000e+00		0.000000e+00
0.000000e+00		0.000000e+00		0.000000e+00
0.000000e+00		0.000000e+00		0.000000e+00
0.000000e+00		0.000000e+00		0.000000e+00
0.000000e+00		0.000000e+00		0.000000e+00
0.000000e+00		0.000000e+00		0.000000e+00
0.000000e+00		0.000000e+00		0.000000e+00
0.000000e+00		0.000000e+00		0.000000e+00
0.000000e+00		0.000000e+00		0.000000e+00
0.000000e+00		0.000000e+00		0.000000e+00
0.000000e+00		0.000000e+00		0.000000e+00
0.000000e+00		0.000000e+00		0.000000e+00
0.000000e+00		0.000000e+00		0.000000e+00
0.000000e+00		0.000000e+00		0.000000e+00
0.000000e+00		0.000000e+00		0.000000e+00
0.000000e+00		0.000000e+00		0.000000e+00
0.000000e+00		0.000000e+00		0.000000e+00
0.000000e+00		0.000000e+00		0.000000e+00
0.000000e+00		0.000000e+00		0.000000e+00
0.000000e+00		0.000000e+00		0.000000e+00
0.000000e+00		0.000000e+00		0.000000e+00
0.000000e+00		0.000000e+00		0.000000e+00
0.000000e+00		0.000000e+00		0.000000e+00
0.000000e+00		0.000000e+00		0.000000e+00
0.000000e+00		0.000000e+00		0.000000e+00
0.000000e+00		0.000000e+00		0.000000e+00
0.000000e+00		0.000000e+00		0.000000e+00
0.000000e+00		0.000000e+00		0.000000e+00
0.000000e+00		0.000000e+00		0.000000e+00
0.000000e+00		0.000000e+00		0.000000e+00
0.000000e+00		0.000000e+00		0.000000e+00
0.000000e+00		0.000000e+00		0.000000e+00
0.000000e+00		0.000000e+00		0.000000e+00
0.000000e+00		0.000000e+00		0.000000e+00
0.000000e+00		0.000000e+00		0.000000e+00
0.000000e+00		0.000000e+00		0.000000e+00
0.000000e+00		0.000000e+00		0.000000e+00
0.000000e+00		0.000000e+00		0.000000e+00
0.000000e+00		0.000000e+00		0.000000e+00
0.000000e+00		0.000000e+00		0.000000e+00
0.000000e+00		0.000000e+00		0.000000e+00
0.000000e+00		0.000000e+00		0.000000e+00
0.000000e+00		0.000000e+00		0.000000e+00
0.000000e+00		0.000000e+00		0.000000e+00
0.000000e+00		0.000000e+00		0.000000e+00
0.000000e+00		0.000000e+00		0.000000e+00
0.000000e+00		0.000000e+00		0.000000e+00
0.000000e+00		0.000000e+00		0.000000e+00
0.000000e+00		0.000000e+00		0.000000e+00
0.000000e+00		0.000000e+00		0.000000e+00
0.000000e+00		0.000000e+00		0.000000e+00
0.000000e+00		0.000000e+00		0.000000e+00
0.000000e+00		0.000000e+00		0.000000e+00
0.000000e+00		0.000000e+00		0.000000e+00
0.000000e+00		0.000000e+00		0.000000e+00
0.000000e+00		0.000000e+00		0.000000e+00
0.000000e+00		0.000000e+00		0.000000e+00
0.000000e+00		0.000000e+00		0.000000e+00
0.000000e+00		0.000000e+00		0.000000e+00
0.000000e+00		0.000000e+00		0.000000e+00
0.000000e+00		0.000000e+00		0.000000e+00
0.000000e+00		0.000000e+00		0.000000e+00
0.000000e+00		0.000000e+00		0.000000e+00
0.000000e+00		0.000000e+00		0.000000e+00
0.000000e+00		0.000000e+00		0.000000e+00
0.000000e+00		0.000000e+00		0.000000e+00
0.000000e+00		0.000000e+00		0.000000e+00
0.000000e+00		0.000000e+00		0.000000e+00
0.000000e+00		0.000000e+00		0.000000e+00
0.000000e+00		0.000000e+00		0.000000e+00
0.000000e+00		0.000000e+00		0.000000e+00
0.000000e+00		0.000000e+00		0.000000e+00
0.000000e+00		0.000000e+00		0.000000e+00
0.000000e+00		0.000000e+00		0.000000e+00
0.000000e+00		0.000000e+00		0.000000e+00
0.000000e+00		0.000000e+00		0.000000e+00
0.000000e+00		0.000000e+00		0.000000e+00
0.000000e+00		0.000000e+00		0.000000e+00
0.000000e+00		0.000000e+00		0.000000e+00
0.000000e+00		0.000000e+00		0.000000e+00
0.000000e+00		0.000000e+00		0.000000e+00
0.000000e+00		0.000000e+00		0.000000e+00
0.000000e+00		0.000000e+00		0.000000e+00
0.000000e+00		0.000000e+00		0.000000e+00
0.000000e+00		0.000000e+00		0.000000e+00
0.000000e+00		0.000000e+00		0.000000e+00
0.000000e+00		0.000000e+00		0.000000e+00
0.000000e+00		0.000000e+00		0.000000e+00
0.000000e+00		0.000000e+00		0.000000e+00
0.000000e+00		0.000000e+00		0.000000e+00
0.000000e+00		0.000000e+00		0.000000e+00
0.000000e+00		0.000000e+00		0.000000e+00
0.000000e+00		0.000000e+00		0.000000e+00
0.000000e+00		0.000000e+00		0.000000e+00
0.000000e+00		0.000000e+00		0.000000e+00
0.000000e+00		0.000000e+00		0.000000e+00
0.000000e+00		0.000000e+00		0.000000e+00
0.000000e+00		0.000000e+00		0.000000e+00
0.000000e+00		0.000000e+00		0.000000e+00
0.000000e+00		0.000000e+00		0.000000e+00
0.000000e+00		0.000000e+00		0.000000e+00
0.000000e+00		0.000000e+00		0.000000e+00
0.000000e+00		0.000000e+00		0.000000e+00
0.000000e+00		0.000000e+00		0.000000e+00
0.000000e+00		0.000000e+00		0.000000e+00
0.000000e+00		0.000000e+00		0.000000e+00
0.000000e+00		0.000000e+00		0.000000e+00
0.000000e+00		0.000000e+00		0.000000e+00
0.000000e+00		0.000000e+00		0.000000e+00
0.000000e+00		0.000000e+00		0.000000e+00
0.000000e+00		0.000000e+00		0.000000e+00
0.000000e+00		0.000000e+00		0.000000e+00
0.000000e+00		0.000000e+00		0.000000e+00
0.000000e+00		0.000000e+00		0.000000e+00
0.000000e+00		0.000000e+00		0.000000e+00
0.000000e+00		0.000000e+00		0.000000e+00
0.000000e+00		0.000000e+00		0.000000e+00
0.000000e+00		0.000000e+00		0.000000e+00
0.000000e+00		0.000000e+00		0.000000e+00
0.000000e+00		0.000000e+00		0.000000e+00
0.000000e+00		0.000000e+00		0.000000e+00
0.000000e+00		0.000000e+00		0.000000e+00
0.000000e+00		0.000000e+00		0.000000e+00
0.000000e+00		0.000000e+00		0.000000e+00
0.000000e+00		0.000000e+00		0.000000e+00
0.000000e+00		0.000000e+00		0.000000e+00
0.000000e+00		0.000000e+00		0.000000e+00
0.000000e+00		0.000000e+00		0.000000e+00
0.000000e+00		0.000000e+00		0.000000e+00
0.000000e+00		0.000000e+00		0.000000e+00
0.000000e+00		0.000000e+00		0.000000e+00
0.000000e+00		0.000000e+00		0.000000e+00
0.000000e+00		0.000000e+00		0.000000e+00
0.000000e+00		0.000000e+00		0.000000e+00
0.000000e+00		0.000000e+00		0.000000e+00
0.000000e+00		0.000000e+00		0.000000e+00
0.000000e+00		0.000000e+00		0.000000e+00
0.000000e+00		0.000000e+00		0.000000e+00
0.000000e+00		0.000000e+00		0.000000e+00
0.000000e+00		0.000000e+00		0.000000e+00
0.000000e+00		0.000000e+00		0.000000e+00
0.000000e+00		0.000000e+00		0.000000e+00
0.000000e+00		0.000000e+00		0.000000e+00
0.000000e+00		0.000000e+00		0.000000e+00
0.000000e+00		0.000000e+00		0.000000e+00
0.000000e+00		0.000000e+00		0.000000e+00
0.000000e+00		0.000000e+00		0.000000e+00
0.000000e+00		0.000000e+00		0.000000e+00
0.000000e+00		0.000000e+00		0.000000e+00
0.000000e+00		0.000000e+00		0.000000e+00
0.000000e+00		0.000000e+00		0.000000e+00
0.000000e+00		0.000000e+00		0.000000e+00
0.000000e+00		0.000000e+00		0.000000e+00
0.000000e+00		0.000000e+00		0.000000e+00
0.000000e+00		0.000000e+00		0.000000e+00
0.000000e+00		0.000000e+00		0.000000e+00
0.000000e+00		0.000000e+00		0.000000e+00
0.000000e+00		0.000000e+00		0.000000e+00
0.000000e+00		0.000000e+00		0.000000e+00
0.000000e+00		0.000000e+00		0.000000e+00
0.000000e+00		0.000000e+00		0.000000e+00
0.000000e+00		0.000000e+00		0.000000e+00
0.000000e+00		0.000000e+00		0.000000e+00
0.000000e+00		0.000000e+00		0.000000e+00
0.000000e+00		0.000000e+00		0.000000e+00
0.000000e+00		0.000000e+00		0.000000e+00
0.000000e+00		0.000000e+00		0.000000e+00
0.000000e+00		0.000000e+00		0.000000e+00
0.000000e+00		0.000000e+00		0.000000e+00
0.000000e+00		0.000000e+00		0.000000e+00
0.000000e+00		0.000000e+00		0.000000e+00
0.000000e+00		0.000000e+00		0.000000e+00
0.000000e+00		0.000000e+00		0.000000e+00
0.000000e+00		0.000000e+00		0.000000e+00
0.000000e+00		0.000000e+00		0.000000e+00
0.000000e+00		0.000000e+00		0.000000e+00
0.000000e+00		0.000000e+00		0.000000e+00
0.000000e+00		0.000000e+00		0.000000e+00
0.000000e+00		0.000000e+00		0.000000e+00
0.000000e+00		0.000000e+00		0.000000e+00
0.000000e+00		0.000000e+00		0.000000e+00
0.000000e+00		0.000000e+00		0.000000e+00
0.000000e+00		0.000000e+00		0.000000e+00
0.000000e+00		0.000000e+00		0.000000e+00
0.000000e+00		0.000000e+00		0.000000e+00
0.000000e+00		0.000000e+00		0.000000e+00
0.000000e+00		0.000000e+00		0.000000e+00
0.000000e+00		0.000000e+00		0.000000e+00
0.000000e+00		0.000000e+00		0.000000e+00
0.000000e+00		0.000000e+00		0.000000e+00
0.000000e+00		0.000000e+00		0.000000e+00
0.000000e+00		0.000000e+00		0.000000e+00
0.000000e+00		0.000000e+00		0.000000e+00
0.000000e+00		0.000000e+00		0.000000e+00
0.000000e+00		0.000000e+00		0.000000e+00
0.000000e+00		0.000000e+00		0.000000e+00
0.000000e+00		0.000000e+00		0.000000e+00
0.000000e+00		0.000000e+00		0.000000e+00
0.000000e+00		0.000000e+00		0.000000e+00
0.000000e+00		0.000000e+00		0.000000e+00
0.000000e+00		0.000000e+00		0.000000e+00
0.000000e+00		0.000000e+00		0.000000e+00
0.000000e+00		0.000000e+00		0.000000e+00
0.000000e+00		0.000000e+00		0.000000e+00
0.000000e+00		0.000000e+00		0.000000e+00
0.000000e+00		0.000000e+00		0.000000e+00
0.000000e+00		0.000000e+00		0.000000e+00
0.000000e+00		0.000000e+00		0.000000e+00
0.000000e+00		0.000000e+00		0.000000e+00
0.000000e+00		0.000000e+00		0.000000e+00
0.000000e+00		0.000000e+00		0.000000e+00
0.000000e+00		0.000000e+00		0.000000e+00
0.000000e+00		0.000000e+00		0.000000e+00
0.000000e+00		0.000000e+00		0.000000e+00
0.000000e+00		0.000000e+00		0.000000e+00
0.000000e+00		0.000000e+00		0.000000e+00
0.000000e+00		0.000000e+00		0.000000e+00
0.000000e+00		0.000000e+00		0.000000e+00
0.000000e+00		0.000000e+00		0.000000e+00
0.000000e+00		0.000000e+00		0.000000e+00
0.000000e+00		0.000000e+00		0.000000e+00
0.000000e+00		0.000000e+00		0.000000e+00
0.000000e+00		0.000000e+00		0.000000e+00
0.000000e+00		0.000000e+00		0.000000e+00
0.000000e+00		0.000000e+00		0.000000e+00
0.000000e+00		0.000000e+00		0.000000e+00
0.000000e+00		0.000000e+00		0.000000e+00
0.000000e+00		0.000000e+00		0.000000e+00
0.000000e+00		0.000000e+00		0.000000e+00
0.000000e+00		0.000000e+00		0.000000e+00
0.000000e+00		0.000000e+00		0.000000e+00
0.000000e+00		0.000000e+00		0.000000e+00
0.000000e+00		0.000000e+00		0.000000e+00
0.000000e+00		0.000000e+00		0.000000e+00
0.000000e+00		0.000000e+00		0.000000e+00
0.000000e+00		0.000000e+00		0.000000e+00
0.000000e+00		0.000000e+00		0.000000e+00
0.000000e+00		0.000000e+00		0.000000e+00
0.000000e+00		0.000000e+00		0.000000e+00
0.000000e+00		0.000000e+00		0.000000e+00
0.000000e+00		0.000000e+00		0.000000e+00
0.000000e+00		0.000000e+00		0.000000e+00
0.000000e+00		0.000000e+00		0.000000e+00
0.000000e+00		0.000000e+00		0.000000e+00
0.000000e+00		0.000000e+00		0.000000e+00
0.000000e+00		0.000000e+00		0.000000e+00
0.000000e+00		0.000000e+00		0.000000e+00
0.000000e+00		0.000000e+00		0.000000e+00
0.000000e+00		0.000000e+00		0.000000e+00
0.000000e+00		0.000000e+00		0.000000e+00
0.000000e+00		0.000000e+00		0.000000e+00
0.000000e+00		0.000000e+00		0.000000e+00
0.000000e+00		0.000000e+00		0.000000e+00
0.000000e+00		0.000000e+00		0.000000e+00
VECTORS acceleration double
0.000000e+00		0.000000e+00		0.000000e+00
0.000000e+00		0.000000e+00		0.000000e+00
0.000000e+00		0.000000e+00		0.000000e+00
0.000000e+00		0.000000e+00		0.000000e+00
0.000000e+00		0.000000e+00		0.000000e+00
0.000000e+00		0.000000e+00		0.000000e+00
0.000000e+00		0.000000e+00		0.000000e+00
0.000000e+00		0.000000e+00		0.000000e+00
0.000000e+00		0.000000e+00		0.000000e+00
0.000000e+00		0.000000e+00		0.000000e+00
0.000000e+00		0.000000e+00		0.000000e+00
0.000000e+00		0.000000e+00		0.000000e+00
0.000000e+00		0.000000e+00		0.000000e+00
0.000000e+00		0.000000e+00		0.000000e+00
0.000000e+00		0.000000e+00		0.000000e+00
0.000000e+00		0.000000e+00		0.000000e+00
0.000000e+00		0.000000e+00		0.000000e+00
0.000000e+00		0.000000e+00		0.000000e+00
0.000000e+00		0.000000e+00		0.000000e+00
0.000000e+00		0.000000e+00		0.000000e+00
0.000000e+00		0.000000e+00		0.000000e+00
0.000000e+00		0.000000e+00		0.000000e+00
0.000000e+00		0.000000e+00		0.000000e+00
0.000000e+00		0.000000e+00		0.000000e+00
0.000000e+00		0.000000e+00		0.000000e+00
0.000000e+00		0.000000e+00		0.000000e+00
0.000000e+00		0.000000e+00		0.000000e+00
0.000000e+00		0.000000e+00		0.000000e+00
0.000000e+00		0.000000e+00		0.000000e+00
0.000000e+00		0.000000e+00		0.000000e+00
0.000000e+00		0.000000e+00		0.000000e+00
0.000000e+00		0.000000e+00		0.000000e+00
0.000000e+00		0.000000e+00		0.000000e+00
0.000000e+00		0.000000e+00		0.000000e+00
0.000000e+00		0.000000e+00		0.000000e+00
0.000000e+00		0.000000e+00		0.000000e+00
0.000000e+00		0.000000e+00		0.000000e+00
0.000000e+00		0.000000e+00		0.000000e+00
0.000000e+00		0.000000e+00		0.000000e+00
0.000000e+00		0.000000e+00		0.000000e+00
0.000000e+00		0.000000e+00		0.000000e+00
0.000000e+00		0.000000e+00		0.000000e+00
0.000000e+00		0.000000e+00		0.000000e+00
0.000000e+00		0.000000e+00		0.000000e+00
0.000000e+00		0.000000e+00		0.000000e+00
0.000000e+00		0.000000e+00		0.000000e+00
0.000000e+00		0.000000e+00		0.000000e+00
0.000000e+00		0.000000e+00		0.000000e+00
0.000000e+00		0.000000e+00		0.000000e+00
0.000000e+00		0.000000e+00		0.000000e+00
0.000000e+00		0.000000e+00		0.000000e+00
0.000000e+00		0.000000e+00		0.000000e+00
0.000000e+00		0.000000e+00		0.000000e+00
0.000000e+00		0.000000e+00		0.000000e+00
0.000000e+00		0.000000e+00		0.000000e+00
0.000000e+00		0.000000e+00		0.000000e+00
0.000000e+00		0.000000e+00		0.000000e+00
0.000000e+00		0.000000e+00		0.000000e+00
0.000000e+00		0.000000e+00		0.000000e+00
0.000000e+00		0.000000e+00		0.000000e+00
0.000000e+00		0.000000e+00		0.000000e+00
0.000000e+00		0.000000e+00		0.000000e+00
0.000000e+00		0.000000e+00		0.000000e+00
0.000000e+00		0.000000e+00		0.000000e+00
0.000000e+00		0.000000e+00		0.000000e+00
0.000000e+00		0.000000e+00		0.000000e+00
0.000000e+00		0.000000e+00		0.000000e+00
0.000000e+00		0.000000e+00		0.000000e+00
0.000000e+00		0.000000e+00		0.000000e+00
0.000000e+00		0.000000e+00		0.000000e+00
0.000000e+00		0.000000e+00		0.000000e+00
0.000000e+00		0.000000e+00		0.000000e+00
0.000000e+00		0.000000e+00		0.000000e+00
0.000000e+00		0.000000e+00		0.000000e+00
0.000000e+00		0.000000e+00		0.000000e+00
0.000000e+00		0.000000e+00		0.000000e+00
0.000000e+00		0.000000e+00		0.000000e+00
0.000000e+00		0.000000e+00		0.000000e+00
0.000000e+00		0.000000e+00		0.000000e+00
0.000000e+00		0.000000e+00		0.000000e+00
0.000000e+00		0.000000e+00		0.000000e+00
0.000000e+00		0.000000e+00		0.000000e+00
0.000000e+00		0.000000e+00		0.000000e+00
0.000000e+00		0.000000e+00		0.000000e+00
0.000000e+00		0.000000e+00		0.000000e+00
0.000000e+00		0.000000e+00		0.000000e+00
0.000000e+00		0.000000e+00		0.000000e+00
0.000000e+00		0.000000e+00		0.000000e+00
0.000000e+00		0.000000e+00		0.000000e+00
0.000000e+00		0.000000e+00		0.000000e+00
0.000000e+00		0.000000e+00		0.000000e+00
0.000000e+00		0.000000e+00		0.000000e+00
0.000000e+00		0.000000e+00		0.000000e+00
0.000000e+00		0.000000e+00		0.000000e+00
0.000000e+00		0.000000e+00		0.000000e+00
0.000000e+00		0.000000e+00		0.000000e+00
0.000000e+00		0.000000e+00		0.000000e+00
0.000000e+00		0.000000e+00		0.000000e+00
0.000000e+00		0.000000e+00		0.000000e+00
0.000000e+00		0.000000e+00		0.000000e+00
0.000000e+00		0.000000e+00		0.000000e+00
0.000000e+00		0.000000e+00		0.000000e+00
0.000000e+00		0.000000e+00		0.000000e+00
0.000000e+00		0.000000e+00		0.000000e+00
0.000000e+00		0.000000e+00		0.000000e+00
0.000000e+00		0.000000e+00		0.000000e+00
0.000000e+00		0.000000e+00		0.000000e+00
0.000000e+00		0.000000e+00		0.000000e+00
0.000000e+00		0.000000e+00		0.000000e+00
0.000000e+00		0.000000e+00		0.000000e+00
0.000000e+00		0.000000e+00		0.000000e+00
0.000000e+00		0.000000e+00		0.000000e+00
0.000000e+00		0.000000e+00		0.000000e+00
0.000000e+00		0.000000e+00		0.000000e+00
0.000000e+00		0.000000e+00		0.000000e+00
0.000000e+00		0.000000e+00		0.000000e+00
0.000000e+00		0.000000e+00		0.000000e+00
0.000000e+00		0.000000e+00		0.000000e+00
0.000000e+00		0.000000e+00		0.000000e+00
0.000000e+00		0.000000e+00		0.000000e+00
0.000000e+00		0.000000e+00		0.000000e+00
0.000000e+00		0.000000e+00		0.000000e+00
0.000000e+00		0.000000e+00		0.000000e+00
0.000000e+00		0.000000e+00		0.000000e+00
0.000000e+00		0.000000e+00		0.000000e+00
0.000000e+00		0.000000e+00		0.000000e+00
0.000000e+00		0.000000e+00		0.000000e+00
0.000000e+00		0.000000e+00		0.000000e+00
0.000000e+00		0.000000e+00		0.000000e+00
0.000000e+00		0.000000e+00		0.000000e+00
0.000000e+00		0.000000e+00		0.000000e+00
0.000000e+00		0.000000e+00		0.000000e+00
0.000000e+00		0.000000e+00		0.000000e+00
0.000000e+00		0.000000e+00		0.000000e+00
0.000000e+00		0.000000e+00		0.000000e+00
0.000000e+00		0.000000e+00		0.000000e+00
0.000000e+00		0.000000e+00		0.000000e+00
0.000000e+00		0.000000e+00		0.000000e+00
0.000000e+00		0.000000e+00		0.000000e+00
0.000000e+00		0.000000e+00		0.000000e+00
0.000000e+00		0.000000e+00		0.000000e+00
0.000000e+00		0.000000e+00		0.000000e+00
0.000000e+00		0.000000e+00		0.000000e+00
0.000000e+00		0.000000e+00		0.000000e+00
0.000000e+00		0.000000e+00		0.000000e+00
0.000000e+00		0.000000e+00		0.000000e+00
0.000000e+00		0.000000e+00		0.000000e+00
0.000000e+00		0.000000e+00		0.000000e+00
0.000000e+00		0.000000e+00		0.000000e+00
0.000000e+00		0.000000e+00		0.000000e+00
0.000000e+00		0.000000e+00		0.000000e+00
0.000000e+00		0.000000e+00		0.000000e+00
0.000000e+00		0.000000e+00		0.000000e+00
0.000000e+00		0.000000e+00		0.000000e+00
0.000000e+00		0.000000e+00		0.000000e+00
0.000000e+00		0.000000e+00		0.000000e+00
0.000000e+00		0.000000e+00		0.000000e+00
0.000000e+00		0.000000e+00		0.000000e+00
0.000000e+00		0.000000e+00		0.000000e+00
0.000000e+00		0.000000e+00		0.000000e+00
0.000000e+00		0.000000e+00		0.000000e+00
0.000000e+00		0.000000e+00		0.000000e+00
0.000000e+00		0.000000e+00		0.000000e+00
0.000000e+00		0.000000e+00		0.000000e+00
0.000000e+00		0.000000e+00		0.000000e+00
0.000000e+00		0.000000e+00		0.000000e+00
0.000000e+00		0.000000e+00		0.000000e+00
0.000000e+00		0.000000e+00		0.000000e+00
0.000000e+00		0.000000e+00		0.000000e+00
0.000000e+00		0.000000e+00		0.000000e+00
0.000000e+00		0.000000e+00		0.000000e+00
0.000000e+00		0.000000e+00		0.000000e+00
0.000000e+00		0.000000e+00		0.000000e+00
0.000000e+00		0.000000e+00		0.000000e+00
0.000000e+00		0.000000e+00		0.000000e+00
0.000000e+00		0.000000e+00		0.000000e+00
0.000000e+00		0.000000e+00		0.000000e+00
0.000000e+00		0.000000e+00		0.000000e+00
0.000000e+00		0.000000e+00		0.000000e+00
0.000000e+00		0.000000e+00		0.000000e+00
0.000000e+00		0.000000e+00		0.000000e+00
0.000000e+00		0.000000e+00		0.000000e+00
0.000000e+00		0.000000e+00		0.000000e+00
0.000000e+00		0.000000e+00		0.000000e+00
0.000000e+00		0.000000e+00		0.000000e+00
0.000000e+00		0.000000e+00		0.000000e+00
0.000000e+00		0.000000e+00		0.000000e+00
0.000000e+00		0.000000e+00		0.000000e+00
0.000000e+00		0.000000e+00		0.000000e+00
0.000000e+00		0.000000e+00		0.000000e+00
0.000000e+00		0.000000e+00		0.000000e+00
0.000000e+00		0.000000e+00		0.000000e+00
0.000000e+00		0.000000e+00		0.000000e+00
0.000000e+00		0.000000e+00		0.000000e+00
0.000000e+00		0.000000e+00		0.000000e+00
0.000000e+00		0.000000e+00		0.000000e+00
0.000000e+00		0.000000e+00		0.000000e+00
0.000000e+00		0.000000e+00		0.000000e+00
0.000000e+00		0.000000e+00		0.000000e+00
0.000000e+00		0.000000e+00		0.000000e+00
0.000000e+00		0.000000e+00		0.000000e+00
0.000000e+00		0.000000e+00		0.000000e+00
0.000000e+00		0.000000e+00		0.000000e+00
0.000000e+00		0.000000e+00		0.000000e+00
0.000000e+00		0.000000e+00		0.000000e+00
0.000000e+00		0.000000e+00		0.000000e+00
0.000000e+00		0.000000e+00		0.000000e+00
0.000000e+00		0.000000e+00		0.000000e+00
0.000000e+00		0.000000e+00		0.000000e+00
0.000000e+00		0.000000e+00		0.000000e+00
0.000000e+00		0.000000e+00		0.000000e+00
0.000000e+00		0.000000e+00		0.000000e+00
0.000000e+00		0.000000e+00		0.000000e+00
0.000000e+00		0.000000e+00		0.000000e+00
0.000000e+00		0.000000e+00		0.000000e+00
0.000000e+00		0.000000e+00		0.000000e+00
0.000000e+00		0.000000e+00		0.000000e+00
0.000000e+00		0.000000e+00		0.000000e+00
0.000000e+00		0.000000e+00		0.000000e+00
0.000000e+00		0.000000e+00		0.000000e+00
0.000000e+00		0.000000e+00		0.000000e+00
0.000000e+00		0.000000e+00		0.000000e+00
0.000000e+00		0.000000e+00		0.000000e+00
0.000000e+00		0.000000e+00		0.000000e+00
0.000000e+00		0.000000e+00		0.000000e+00
0.000000e+00		0.000000e+00		0.000000e+00
0.000000e+00		0.000000e+00		0.000000e+00
0.000000e+00		0.000000e+00		0.000000e+00
0.000000e+00		0.000000e+00		0.000000e+00
0.000000e+00		0.000000e+00		0.000000e+00
0.000000e+00		0.000000e+00		0.000000e+00
0.000000e+00		0.000000e+00		0.000000e+00
0.000000e+00		0.000000e+00		0.000000e+00
0.000000e+00		0.000000e+00		0.000000e+00
0.000000e+00		0.000000e+00		0.000000e+00
0.000000e+00		0.000000e+00		0.000000e+00
0.000000e+00		0.000000e+00		0.000000e+00
0.000000e+00		0.000000e+00		0.000000e+00
0.000000e+00		0.000000e+00		0.000000e+00
0.000000e+00		0.000000e+00		0.000000e+00
0.000000e+00		0.000000e+00		0.000000e+00
0.000000e+00		0.000000e+00		0.000000e+00
0.000000e+00		0.000000e+00		0.000000e+00
0.000000e+00		0.000000e+00		0.000000e+00
0.000000e+00		0.000000e+00		0.000000e+00
0.000000e+00		0.000000e+00		0.000000e+00
0.000000e+00		0.000000e+00		0.000000e+00
0.000000e+00		0.000000e+00		0.000000e+00
0.000000e+00		0.000000e+00		0.000000e+00
0.000000e+00		0.000000e+00		0.000000e+00
0.000000e+00		0.000000e+00		0.000000e+00
0.000000e+00		0.000000e+00		0.000000e+00
0.000000e+00		0.000000e+00		0.000000e+00
0.000000e+00		0.000000e+00		0.000000e+00
0.000000e+00		0.000000e+00		0.000000e+00
0.000000e+00		0.000000e+00		0.000000e+00
0.000000e+00		0.000000e+00		0.000000e+00
0.000000e+00		0.000000e+00		0.000000e+00
0.000000e+00		0.000000e+00		0.000000e+00
0.000000e+00		0.000000e+00		0.000000e+00
0.000000e+00		0.000000e+00		0.000000e+00
0.000000e+00		0.000000e+00		0.000000e+00
0.000000e+00		0.000000e+00		0.000000e+00
0.000000e+00		0.000000e+00		0.000000e+00
0.000000e+00		0.000000e+00		0.000000e+00
0.000000e+00		0.000000e+00		0.000000e+00
0.000000e+00		0.000000e+00		0.000000e+00
0.000000e+00		0.000000e+00		0.000000e+00
0.000000e+00		0.000000e+00		0.000000e+00
0.000000e+00		0.000000e+00		0.000000e+00
0.000000e+00		0.000000e+00		0.000000e+00
0.000000e+00		0.000000e+00		0.000000e+00
0.000000e+00		0.000000e+00		0.000000e+00
0.000000e+00		0.000000e+00		0.000000e+00
0.000000e+00		0.000000e+00		0.000000e+00
0.000000e+00		0.000000e+00		0.000000e+00
0.000000e+00		0.000000e+00		0.000000e+00
0.000000e+00		0.000000e+00		0.000000e+00
0.000000e+00		0.000000e+00		0.000000e+00
0.000000e+00		0.000000e+00		0.000000e+00
0.000000e+00		0.000000e+00		0.000000e+00
0.000000e+00		0.000000e+00		0.000000e+00
0.000000e+00		0.000000e+00		0.000000e+00
0.000000e+00		0.000000e+00		0.000000e+00
0.000000e+00		0.000000e+00		0.000000e+00
0.000000e+00		0.000000e+00		0.000000e+00
0.000000e+00		0.000000e+00		0.000000e+00
0.000000e+00		0.000000e+00		0.000000e+00
0.000000e+00		0.000000e+00		0.000000e+00
0.000000e+00		0.000000e+00		0.000000e+00
0.000000e+00		0.000000e+00		0.000000e+00
0.000000e+00		0.000000e+00		0.000000e+00
0.000000e+00		0.000000e+00		0.000000e+00
0.000000e+00		0.000000e+00		0.000000e+00
0.000000e+00		0.000000e+00		0.000000e+00
0.000000e+00		0.000000e+00		0.000000e+00
0.000000e+00		0.000000e+00		0.000000e+00
0.000000e+00		0.000000e+00		0.000000e+00
0.000000e+00		0.000000e+00		0.000000e+00
0.000000e+00		0.000000e+00		0.000000e+00
0.000000e+00		0.000000e+00		0.000000e+00
0.000000e+00		0.000000e+00		0.000000e+00
0.000000e+00		0.000000e+00		0.000000e+00
0.000000e+00		0.000000e+00		0.000000e+00
0.000000e+00		0.000000e+00		0.000000e+00
0.000000e+00		0.000000e+00		0.000000e+00
0.000000e+00		0.000000e+00		0.000000e+00
0.000000e+00		0.000000e+00		0.000000e+00
0.000000e+00		0.000000e+00		0.000000e+00
0.000000e+00		0.000000e+00		0.000000e+00
0.000000e+00		0.000000e+00		0.000000e+00
0.000000e+00		0.000000e+00		0.000000e+00
0.000000e+00		0.000000e+00		0.000000e+00
0.000000e+00		0.000000e+00		0.000000e+00
0.000000e+00		0.000000e+00		0.000000e+00
0.000000e+00		0.000000e+00		0.000000e+00
0.000000e+00		0.000000e+00		0.000000e+00
0.000000e+00		0.000000e+00		0.000000e+00
0.000000e+00		0.000000e+00		0.000000e+00
0.000000e+00		0.000000e+00		0.000000e+00
0.000000e+00		0.000000e+00		0.000000e+00
0.000000e+00		0.000000e+00		0.000000e+00
0.000000e+00		0.000000e+00		0.000000e+00
0.000000e+00		0.000000e+00		0.000000e+00
0.000000e+00		0.000000e+00		0.000000e+00
0.000000e+00		0.000000e+00		0.000000e+00
0.000000e+00		0.000000e+00		0.000000e+00
0.000000e+00		0.000000e+00		0.000000e+00
0.000000e+00		0.000000e+00		0.000000e+00
0.000000e+00		0.000000e+00		0.000000e+00
0.000000e+00		0.000000e+00		0.000000e+00
0.000000e+00		0.000000e+00		0.000000e+00
0.000000e+00		0.000000e+00		0.000000e+00
0.000000e+00		0.000000e+00		0.000000e+00
0.000000e+00		0.000000e+00		0.000000e+00
0.000000e+00		0.000000e+00		0.000000e+00
0.000000e+00		0.000000e+00		0.000000e+00
0.000000e+00		0.000000e+00		0.000000e+00
0.000000e+00		0.000000e+00		0.000000e+00
0.000000e+00		0.000000e+00		0.000000e+00
0.000000e+00		0.000000e+00		0.000000e+00
0.000000e+00		0.000000e+00		0.000000e+00
0.000000e+00		0.000000e+00		0.000000e+00
0.000000e+00		0.000000e+00		0.000000e+00
0.000000e+00		0.000000e+00		0.000000e+00
0.000000e+00		0.000000e+00		0.000000e+00
0.000000e+00		0.000000e+00		0.000000e+00
0.000000e+00		0.000000e+00		0.000000e+00
0.000000e+00		0.000000e+00		0.000000e+00
0.000000e+00		0.000000e+00		0.000000e+00
0.000000e+00		0.000000e+00		0.000000e+00
0.000000e+00		0.000000e+00		0.000000e+00
0.000000e+00		0.000000e+00		0.000000e+00
0.000000e+00		0.000000e+00		0.000000e+00
0.000000e+00		0.000000e+00		0.000000e+00
0.000000e+00		0.000000e+00		0.000000e+00
0.000000e+00		0.000000e+00		0.000000e+00
0.000000e+00		0.000000e+00		0.000000e+00
0.000000e+00		0.000000e+00		0.000000e+00
0.000000e+00		0.000000e+00		0.000000e+00
0.000000e+00		0.000000e+00		0.000000e+00
0.000000e+00		0.000000e+00		0.000000e+00
0.000000e+00		0.000000e+00		0.000000e+00
0.000000e+00		0.000000e+00		0.000000e+00
0.000000e+00		0.000000e+00		0.000000e+00
0.000000e+00		0.000000e+00		0.000000e+00
0.000000e+00		0.000000e+00		0.000000e+00
0.000000e+00		0.000000e+00		0.000000e+00
0.000000e+00		0.000000e+00		0.000000e+00
0.000000e+00		0.000000e+00		0.000000e+00
0.000000e+00		0.000000e+00		0.000000e+00
0.000000e+00		0.000000e+00		0.000000e+00
0.000000e+00		0.000000e+00		0.000000e+00
0.000000e+00		0.000000e+00		0.000000e+00
0.000000e+00		0.000000e+00		0.000000e+00
0.000000e+00		0.000000e+00		0.000000e+00
0.000000e+00		0.000000e+00		0.000000e+00
0.000000e+00		0.000000e+00		0.000000e+00
0.000000e+00		0.000000e+00		0.000000e+00
0.000000e+00		0.000000e+00		0.000000e+00
0.000000e+00		0.000000e+00		0.000000e+00
0.000000e+00		0.000000e+00		0.000000e+00
0.000000e+00		0.000000e+00		0.000000e+00
0.000000e+00		0.000000e+00		0.000000e+00
0.000000e+00		0.000000e+00		0.000000e+00
0.000000e+00		0.000000e+00		0.000000e+00
0.000000e+00		0.000000e+00		0.000000e+00
0.000000e+00		0.000000e+00		0.000000e+00
0.000000e+00		0.000000e+00		0.000000e+00
0.000000e+00		0.000000e+00		0.000000e+00
0.000000e+00		0.000000e+00		0.000000e+00
0.000000e+00		0.000000e+00		0.000000e+00
0.000000e+00		0.000000e+00		0.000000e+00
0.000000e+00		0.000000e+00		0.000000e+00
0.000000e+00		0.000000e+00		0.000000e+00
0.000000e+00		0.000000e+00		0.000000e+00
0.000000e+00		0.000000e+00		0.000000e+00
0.000000e+00		0.000000e+00		0.000000e+00
0.000000e+00		0.000000e+00		0.000000e+00
0.000000e+00		0.000000e+00		0.000000e+00
0.000000e+00		0.000000e+00		0.000000e+00
0.000000e+00		0.000000e+00		0.000000e+00
0.000000e+00		0.000000e+00		0.000000e+00
0.000000e+00		0.000000e+00		0.000000e+00
0.000000e+00		0.000000e+00		0.000000e+00
0.000000e+00		0.000000e+00		0.000000e+00
0.000000e+00		0.000000e+00		0.000000e+00
0.000000e+00		0.000000e+00		0.000000e+00
0.000000e+00		0.000000e+00		0.000000e+00
0.000000e+00		0.000000e+00		0.000000e+00
0.000000e+00		0.000000e+00		0.000000e+00
0.000000e+00		0.000000e+00		0.000000e+00
0.000000e+00		0.000000e+00		0.000000e+00
0.000000e+00		0.000000e+00		0.000000e+00
0.000000e+00		0.000000e+00		0.000000e+00
0.000000e+00		0.000000e+00		0.000000e+00
0.000000e+00		0.000000e+00		0.000000e+00
0.000000e+00		0.000000e+00		0.000000e+00
0.000000e+00		0.000000e+00		0.000000e+00
0.000000e+00		0.000000e+00		0.000000e+00
0.000000e+00		0.000000e+00		0.000000e+00
0.000000e+00		0.000000e+00		0.000000e+00
0.000000e+00		0.000000e+00		0.000000e+00
0.000000e+00		0.000000e+00		0.000000e+00
0.000000e+00		0.000000e+00		0.000000e+00
0.000000e+00		0.000000e+00		0.000000e+00
0.000000e+00		0.000000e+00		0.000000e+00
0.000000e+00		0.000000e+00		0.000000e+00
0.000000e+00		0.000000e+00		0.000000e+00
0.000000e+00		0.000000e+00		0.000000e+00
0.000000e+00		0.000000e+00		0.000000e+00
0.000000e+00		0.000000e+00		0.000000e+00
0.000000e+00		0.000000e+00		0.000000e+00
0.000000e+00		0.000000e+00		0.000000e+00
0.000000e+00		0.000000e+00		0.000000e+00
0.000000e+00		0.000000e+00		0.000000e+00
0.000000e+00		0.000000e+00		0.000000e+00
0.000000e+00		0.000000e+00		0.000000e+00
0.000000e+00		0.000000e+00		0.000000e+00
0.000000e+00		0.000000e+00		0.000000e+00
0.000000e+00		0.000000e+00		0.000000e+00
0.000000e+00		0.000000e+00		0.000000e+00
0.000000e+00		0.000000e+00		0.000000e+00
0.000000e+00		0.000000e+00		0.000000e+00
0.000000e+00		0.000000e+00		0.000000e+00
0.000000e+00		0.000000e+00		0.000000e+00
0.000000e+00		0.000000e+00		0.000000e+00
0.000000e+00		0.000000e+00		0.000000e+00
0.000000e+00		0.000000e+00		0.000000e+00
0.000000e+00		0.000000e+00		0.000000e+00
0.000000e+00		0.000000e+00		0.000000e+00
0.000000e+00		0.000000e+00		0.000000e+00
0.000000e+00		0.000000e+00		0.000000e+00
0.000000e+00		0.000000e+00		0.000000e+00
0.000000e+00		0.000000e+00		0.000000e+00
0.000000e+00		0.000000e+00		0.000000e+00
0.000000e+00		0.000000e+00		0.000000e+00
0.000000e+00		0.000000e+00		0.000000e+00
0.000000e+00		0.000000e+00		0.000000e+00
0.000000e+00		0.000000e+00		0.000000e+00
0.000000e+00		0.000000e+00		0.000000e+00
0.000000e+00		0.000000e+00		0.000000e+00
0.000000e+00		0.000000e+00		0.000000e+00
0.000000e+00		0.000000e+00		0.000000e+00
0.000000e+00		0.000000e+00		0.000000e+00
0.000000e+00		0.000000e+00		0.000000e+00
0.000000e+00		0.000000e+00		0.000000e+00
0.000000e+00		0.000000e+00		0.000000e+00
0.000000e+00		0.000000e+00		0.000000e+00
0.000000e+00		0.000000e+00		0.000000e+00
0.000000e+00		0.000000e+00		0.000000e+00
0.000000e+00		0.000000e+00		0.000000e+00
0.000000e+00		0.000000e+00		0.000000e+00
0.000000e+00		0.000000e+00		0.000000e+00
0.000000e+00		0.000000e+00		0.000000e+00
0.000000e+00		0.000000e+00		0.000000e+00
0.000000e+00		0.000000e+00		0.000000e+00
0.000000e+00		0.000000e+00		0.000000e+00
0.000000e+00		0.000000e+00		0.000000e+00
0.000000e+00		0.000000e+00		0.000000e+00
0.000000e+00		0.000000e+00		0.000000e+00
0.000000e+00		0.000000e+00		0.000000e+00
0.000000e+00		0.000000e+00		0.000000e+00
0.000000e+00		0.000000e+00		0.000000e+00
0.000000e+00		0.000000e+00		0.000000e+00
0.000000e+00		0.000000e+00		0.000000e+00
0.000000e+00		0.000000e+00		0.000000e+00
0.000000e+00		0.000000e+00		0.000000e+00
0.000000e+00		0.000000e+00		0.000000e+00
0.000000e+00		0.000000e+00		0.000000e+00
0.000000e+00		0.000000e+00		0.000000e+00
0.000000e+00		0.000000e+00		0.000000e+00
0.000000e+00		0.000000e+00		0.000000e+00
0.000000e+00		0.000000e+00		0.000000e+00
0.000000e+00		0.000000e+00		0.000000e+00
0.000000e+00		0.000000e+00		0.000000e+00
0.000000e+00		0.000000e+00		0.000000e+00
0.000000e+00		0.000000e+00		0.000000e+00
0.000000e+00		0.000000e+00		0.000000e+00
0.000000e+00		0.000000e+00		0.000000e+00
0.000000e+00		0.000000e+00		0.000000e+00
0.000000e+00		0.000000e+00		0.000000e+00
0.000000e+00		0.000000e+00		0.000000e+00
0.000000e+00		0.000000e+00		0.000000e+00
0.000000e+00		0.000000e+00		0.000000e+00
0.000000e+00		0.000000e+00		0.000000e+00
0.000000e+00		0.000000e+00		0.000000e+00
0.000000e+00		0.000000e+00		0.000000e+00
0.000000e+00		0.000000e+00		0.000000e+00
0.000000e+00		0.000000e+00		0.000000e+00
0.000000e+00		0.000000e+00		0.000000e+00
0.000000e+00		0.000000e+00		0.000000e+00
0.000000e+00		0.000000e+00		0.000000e+00
0.000000e+00		0.000000e+00		0.000000e+00
0.000000e+00		0.000000e+00		0.000000e+00
0.000000e+00		0.000000e+00		0.000000e+00
0.000000e+00		0.000000e+00		0.000000e+00
0.000000e+00		0.000000e+00		0.000000e+00
0.000000e+00		0.000000e+00		0.000000e+00
0.000000e+00		0.000000e+00		0.000000e+00
0.000000e+00		0.000000e+00		0.000000e+00
0.000000e+00		0.000000e+00		0.000000e+00
0.000000e+00		0.000000e+00		0.000000e+00
0.000000e+00		0.000000e+00		0.000000e+00
0.000000e+00		0.000000e+00		0.000000e+00
0.000000e+00		0.000000e+00		0.000000e+00
0.000000e+00		0.000000e+00		0.000000e+00
0.000000e+00		0.000000e+00		0.000000e+00
0.000000e+00		0.000000e+00		0.000000e+00
0.000000e+00		0.000000e+00		0.000000e+00
0.000000e+00		0.000000e+00		0.000000e+00
0.000000e+00		0.000000e+00		0.000000e+00
0.000000e+00		0.000000e+00		0.000000e+00
0.000000e+00		0.000000e+00		0.000000e+00
0.000000e+00		0.000000e+00		0.000000e+00
0.000000e+00		0.000000e+00		0.000000e+00
0.000000e+00		0.000000e+00		0.000000e+00
0.000000e+00		0.000000e+00		0.000000e+00
0.000000e+00		0.000000e+00		0.000000e+00
0.000000e+00		0.000000e+00		0.000000e+00
0.000000e+00		0.000000e+00		0.000000e+00
0.000000e+00		0.000000e+00		0.000000e+00
0.000000e+00		0.000000e+00		0.000000e+00
0.000000e+00		0.000000e+00		0.000000e+00
0.000000e+00		0.000000e+00		0.000000e+00
0.000000e+00		0.000000e+00		0.000000e+00
0.000000e+00		0.000000e+00		0.000000e+00
0.000000e+00		0.000000e+00		0.000000e+00
0.000000e+00		0.000000e+00		0.000000e+00
0.000000e+00		0.000000e+00		0.000000e+00
0.000000e+00		0.000000e+00		0.000000e+00
0.000000e+00		0.000000e+00		0.000000e+00
0.000000e+00		0.000000e+00		0.000000e+00
0.000000e+00		0.000000e+00		0.000000e+00
0.000000e+00		0.000000e+00		0.000000e+00
0.000000e+00		0.000000e+00		0.000000e+00
0.000000e+00		0.000000e+00		0.000000e+00
0.000000e+00		0.000000e+00		0.000000e+00
0.000000e+00		0.000000e+00		0.000000e+00
0.000000e+00		0.000000e+00		0.000000e+00
0.000000e+00		0.000000e+00		0.000000e+00
0.000000e+00		0.000000e+00		0.000000e+00
0.000000e+00		0.000000e+00		0.000000e+00
0.000000e+00		0.000000e+00		0.000000e+00
0.000000e+00		0.000000e+00		0.000000e+00
0.000000e+00		0.000000e+00		0.000000e+00
0.000000e+00		0.000000e+00		0.000000e+00
0.000000e+00		0.000000e+00		0.000000e+00
0.000000e+00		0.000000e+00		0.000000e+00
0.000000e+00		0.000000e+00		0.000000e+00
0.000000e+00		0.000000e+00		0.000000e+00
0.000000e+00		0.000000e+00		0.000000e+00
0.000000e+00		0.000000e+00		0.000000e+00
0.000000e+00		0.000000e+00		0.000000e+00
0.000000e+00		0.000000e+00		0.000000e+00
0.000000e+00		0.000000e+00		0.000000e+00
0.000000e+00		0.000000e+00		0.000000e+00
0.000000e+00		0.000000e+00		0.000000e+00
0.000000e+00		0.000000e+00		0.000000e+00
0.000000e+00		0.000000e+00		0.000000e+00
0.000000e+00		0.000000e+00		0.000000e+00
0.000000e+00		0.000000e+00		0.000000e+00
0.000000e+00		0.000000e+00		0.000000e+00
0.000000e+00		0.000000e+00		0.000000e+00
0.000000e+00		0.000000e+00		0.000000e+00
0.000000e+00		0.000000e+00		0.000000e+00
0.000000e+00		0.000000e+00		0.000000e+00
0.000000e+00		0.000000e+00		0.000000e+00
0.000000e+00		0.000000e+00		0.000000e+00
0.000000e+00		0.000000e+00		0.000000e+00
0.000000e+00		0.000000e+00		0.000000e+00
0.000000e+00		0.000000e+00		0.000000e+00
0.000000e+00		0.000000e+00		0.000000e+00
0.000000e+00		0.000000e+00		0.000000e+00
0.000000e+00		0.000000e+00		0.000000e+00
0.000000e+00		0.000000e+00		0.000000e+00
0.000000e+00		0.000000e+00		0.000000e+00
0.000000e+00		0.000000e+00		0.000000e+00
0.000000e+00		0.000000e+00		0.000000e+00
0.000000e+00		0.000000e+00		0.000000e+00
0.000000e+00		0.000000e+00		0.000000e+00
0.000000e+00		0.000000e+00		0.000000e+00
0.000000e+00		0.000000e+00		0.000000e+00
0.000000e+00		0.000000e+00		0.000000e+00
0.000000e+00		0.000000e+00		0.000000e+00
0.000000e+00		0.000000e+00		0.000000e+00
0.000000e+00		0.000000e+00		0.000000e+00
0.000000e+00		0.000000e+00		0.000000e+00
0.000000e+00		0.000000e+00		0.000000e+00
0.000000e+00		0.000000e+00		0.000000e+00
0.000000e+00		0.000000e+00		0.000000e+00
0.000000e+00		0.000000e+00		0.000000e+00
0.000000e+00		0.000000e+00		0.000000e+00
0.000000e+00		0.000000e+00		0.000000e+00
0.000000e+00		0.000000e+00		0.000000e+00
0.000000e+00		0.000000e+00		0.000000e+00
0.000000e+00		0.000000e+00		0.000000e+00
0.000000e+00		0.000000e+00		0.000000e+00
0.000000e+00		0.000000e+00		0.000000e+00
0.000000e+00		0.000000e+00		0.000000e+00
0.000000e+00		0.000000e+00		0.000000e+00
0.000000e+00		0.000000e+00		0.000000e+00
0.000000e+00		0.000000e+00		0.000000e+00
0.000000e+00		0.000000e+00		0.000000e+00
0.000000e+00		0.000000e+00		0.000000e+00
0.000000e+00		0.000000e+00		0.000000e+00
0.000000e+00		0.000000e+00		0.000000e+00
0.000000e+00		0.000000e+00		0.000000e+00
0.000000e+00		0.000000e+00		0.000000e+00
0.000000e+00		0.000000e+00		0.000000e+00
0.000000e+00		0.000000e+00		0.000000e+00
0.000000e+00		0.000000e+00		0.000000e+00
0.000000e+00		0.000000e+00		0.000000e+00
0.000000e+00		0.000000e+00		0.000000e+00
0.000000e+00		0.000000e+00		0.000000e+00
0.000000e+00		0.000000e+00		0.000000e+00
0.000000e+00		0.000000e+00		0.000000e+00
0.000000e+00		0.000000e+00		0.000000e+00
0.000000e+00		0.000000e+00		0.000000e+00
0.000000e+00		0.000000e+00		0.000000e+00
0.000000e+00		0.000000e+00		0.000000e+00
0.000000e+00		0.000000e+00		0.000000e+00
0.000000e+00		0.000000e+00		0.000000e+00
0.000000e+00		0.000000e+00		0.000000e+00
0.000000e+00		0.000000e+00		0.000000e+00
0.000000e+00		0.000000e+00		0.000000e+00
0.000000e+00		0.000000e+00		0.000000e+00
0.000000e+00		0.000000e+00		0.000000e+00
0.000000e+00		0.000000e+00		0.000000e+00
0.000000e+00		0.000000e+00		0.000000e+00
0.000000e+00		0.000000e+00		0.000000e+00
0.000000e+00		0.000000e+00		0.000000e+00
0.000000e+00		0.000000e+00		0.000000e+00
0.000000e+00		0.000000e+00		0.000000e+00
0.000000e+00		0.000000e+00		0.000000e+00
0.000000e+00		0.000000e+00		0.000000e+00
0.000000e+00		0.000000e+00		0.000000e+00
0.000000e+00		0.000000e+00		0.000000e+00
0.000000e+00		0.000000e+00		0.000000e+00
0.000000e+00		0.000000e+00		0.000000e+00
0.000000e+00		0.000000e+00		0.000000e+00
0.000000e+00		0.000000e+00		0.000000e+00
0.000000e+00		0.000000e+00		0.000000e+00
0.000000e+00		0.000000e+00		0.000000e+00
0.000000e+00		0.000000e+00		0.000000e+00
0.000000e+00		0.000000e+00		0.000000e+00
0.000000e+00		0.000000e+00		0.000000e+00
0.000000e+00		0.000000e+00		0.000000e+00
0.000000e+00		0.000000e+00		0.000000e+00
0.000000e+00		0.000000e+00		0.000000e+00
0.000000e+00		0.000000e+00		0.000000e+00
0.000000e+00		0.000000e+00		0.000000e+00
0.000000e+00		0.000000e+00		0.000000e+00
0.000000e+00		0.000000e+00		0.000000e+00
0.000000e+00		0.000000e+00		0.000000e+00
0.000000e+00		0.000000e+00		0.000000e+00
0.000000e+00		0.000000e+00		0.000000e+00
0.000000e+00		0.000000e+00		0.000000e+00
0.000000e+00		0.000000e+00		0.000000e+00
0.000000e+00		0.000000e+00		0.000000e+00
0.000000e+00		0.000000e+00		0.000000e+00
0.000000e+00		0.000000e+00		0.000000e+00
0.000000e+00		0.000000e+00		0.000000e+00
0.000000e+00		0.000000e+00		0.000000e+00
0.000000e+00		0.000000e+00		0.000000e+00
0.000000e+00		0.000000e+00		0.000000e+00
0.000000e+00		0.000000e+00		0.000000e+00
0.000000e+00		0.000000e+00		0.000000e+00
0.000000e+00		0.000000e+00		0.000000e+00
0.000000e+00		0.000000e+00		0.000000e+00
0.000000e+00		0.000000e+00		0.000000e+00
0.000000e+00		0.000000e+00		0.000000e+00
0.000000e+00		0.000000e+00		0.000000e+00
0.000000e+00		0.000000e+00		0.000000e+00
0.000000e+00		0.000000e+00		0.000000e+00
0.000000e+00		0.000000e+00		0.000000e+00
0.000000e+00		0.000000e+00		0.000000e+00
0.000000e+00		0.000000e+00		0.000000e+00
0.000000e+00		0.000000e+00		0.000000e+00
0.000000e+00		0.000000e+00		0.000000e+00
0.000000e+00		0.000000e+00		0.000000e+00
0.000000e+00		0.000000e+00		0.000000e+00
0.000000e+00		0.000000e+00		0.000000e+00
0.000000e+00		0.000000e+00		0.000000e+00
0.000000e+00		0.000000e+00		0.000000e+00
0.000000e+00		0.000000e+00		0.000000e+00
0.000000e+00		0.000000e+00		0.000000e+00
0.000000e+00		0.000000e+00		0.000000e+00
0.000000e+00		0.000000e+00		0.000000e+00
0.000000e+00		0.000000e+00		0.000000e+00
0.000000e+00		0.000000e+00		0.000000e+00
0.000000e+00		0.000000e+00		0.000000e+00
0.000000e+00		0.000000e+00		0.000000e+00
0.000000e+00		0.000000e+00		0.000000e+00
0.000000e+00		0.000000e+00		0.000000e+00
0.000000e+00		0.000000e+00		0.000000e+00
0.000000e+00		0.000000e+00		0.000000e+00
0.000000e+00		0.000000e+00		0.000000e+00
0.000000e+00		0.000000e+00		0.000000e+00
0.000000e+00		0.000000e+00		0.000000e+00
0.000000e+00		0.000000e+00		0.000000e+00
0.000000e+00		0.000000e+00		0.000000e+00
0.000000e+00		0.000000e+00		0.000000e+00
0.000000e+00		0.000000e+00		0.000000e+00
0.000000e+00		0.000000e+00		0.000000e+00
0.000000e+00		0.000000e+00		0.000000e+00
0.000000e+00		0.000000e+00		0.000000e+00
0.000000e+00		0.000000e+00		0.000000e+00
0.000000e+00		0.000000e+00		0.000000e+00
0.000000e+00		0.000000e+00		0.000000e+00
0.000000e+00		0.000000e+00		0.000000e+00
0.000000e+00		0.000000e+00		0.000000e+00
0.000000e+00		0.000000e+00		0.000000e+00
0.000000e+00		0.000000e+00		0.000000e+00
0.000000e+00		0.000000e+00		0.000000e+00
0.000000e+00		0.000000e+00		0.000000e+00
0.000000e+00		0.000000e+00		0.000000e+00
0.000000e+00		0.000000e+00		0.000000e+00
0.000000e+00		0.000000e+00		0.000000e+00
0.000000e+00		0.000000e+00		0.000000e+00
0.000000e+00		0.000000e+00		0.000000e+00
0.000000e+00		0.000000e+00		0.000000e+00
0.000000e+00		0.000000e+00		0.000000e+00
0.000000e+00		0.000000e+00		0.000000e+00
0.000000e+00		0.000000e+00		0.000000e+00
0.000000e+00		0.000000e+00		0.000000e+00
0.000000e+00		0.000000e+00		0.000000e+00
0.000000e+00		0.000000e+00		0.000000e+00
0.000000e+00		0.000000e+00		0.000000e+00
0.000000e+00		0.000000e+00		0.000000e+00
0.000000e+00		0.000000e+00		0.000000e+00
0.000000e+00		0.000000e+00		0.000000e+00
0.000000e+00		0.000000e+00		0.000000e+00
0.000000e+00		0.000000e+00		0.000000e+00
0.000000e+00		0.000000e+00		0.000000e+00
0.000000e+00		0.000000e+00		0.000000e+00
0.000000e+00		0.000000e+00		0.000000e+00
0.000000e+00		0.000000e+00		0.000000e+00
0.000000e+00		0.000000e+00		0.000000e+00
0.000000e+00		0.000000e+00		0.000000e+00
0.000000e+00		0.000000e+00		0.000000e+00
0.000000e+00		0.000000e+00		0.000000e+00
0.000000e+00		0.000000e+00		0.000000e+00
0.000000e+00		0.000000e+00		0.000000e+00
0.000000e+00		0.000000e+00		0.000000e+00
0.000000e+00		0.000000e+00		0.000000e+00
0.000000e+00		0.000000e+00		0.000000e+00
0.000000e+00		0.000000e+00		0.000000e+00
0.000000e+00		0.000000e+00		0.000000e+00
0.000000e+00		0.000000e+00		0.000000e+00
0.000000e+00		0.000000e+00		0.000000e+00
0.000000e+00		0.000000e+00		0.000000e+00
0.000000e+00		0.000000e+00		0.000000e+00
0.000000e+00		0.000000e+00		0.000000e+00
0.000000e+00		0.000000e+00		0.000000e+00
0.000000e+00		0.000000e+00		0.000000e+00
0.000000e+00		0.000000e+00		0.000000e+00
0.000000e+00		0.000000e+00		0.000000e+00
0.000000e+00		0.000000e+00		0.000000e+00
0.000000e+00		0.000000e+00		0.000000e+00
0.000000e+00		0.000000e+00		0.000000e+00
0.000000e+00		0.000000e+00		0.000000e+00
0.000000e+00		0.000000e+00		0.000000e+00
0.000000e+00		0.000000e+00		0.000000e+00
0.000000e+00		0.000000e+00		0.000000e+00
0.000000e+00		0.000000e+00		0.000000e+00
0.000000e+00		0.000000e+00		0.000000e+00
0.000000e+00		0.000000e+00		0.000000e+00
0.000000e+00		0.000000e+00		0.000000e+00
0.000000e+00		0.000000e+00		0.000000e+00
0.000000e+00		0.000000e+00		0.000000e+00
0.000000e+00		0.000000e+00		0.000000e+00
0.000000e+00		0.000000e+00		0.000000e+00
0.000000e+00		0.000000e+00		0.000000e+00
0.000000e+00		0.000000e+00		0.000000e+00
0.000000e+00		0.000000e+00		0.000000e+00
0.000000e+00		0.000000e+00		0.000000e+00
0.000000e+00		0.000000e+00		0.000000e+00
0.000000e+00		0.000000e+00		0.000000e+00
0.000000e+00		0.000000e+00		0.000000e+00
0.000000e+00		0.000000e+00		0.000000e+00
0.000000e+00		0.000000e+00		0.000000e+00
0.000000e+00		0.000000e+00		0.000000e+00
0.000000e+00		0.000000e+00		0.000000e+00
0.000000e+00		0.000000e+00		0.000000e+00
0.000000e+00		0.000000e+00		0.000000e+00
0.000000e+00		0.000000e+00		0.000000e+00
0.000000e+00		0.000000e+00		0.000000e+00
0.000000e+00		0.000000e+00		0.000000e+00
0.000000e+00		0.000000e+00		0.000000e+00
0.000000e+00		0.000000e+00		0.000000e+00
0.000000e+00		0.000000e+00		0.000000e+00
0.000000e+00		0.000000e+00		0.000000e+00
0.000000e+00		0.000000e+00		0.000000e+00
0.000000e+00		0.000000e+00		0.000000e+00
0.000000e+00		0.000000e+00		0.000000e+00
0.000000e+00		0.000000e+00		0.000000e+00
0.000000e+00		0.000000e+00		0.000000e+00
0.000000e+00		0.000000e+00		0.000000e+00
0.000000e+00		0.000000e+00		0.000000e+00
0.000000e+00		0.000000e+00		0.000000e+00
0.000000e+00		0.000000e+00		0.000000e+00
0.000000e+00		0.000000e+00		0.000000e+00
0.000000e+00		0.000000e+00		0.000000e+00
0.000000e+00		0.000000e+00		0.000000e+00
0.000000e+00		0.000000e+00		0.000000e+00
0.000000e+00		0.000000e+00		0.000000e+00
0.000000e+00		0.000000e+00		0.000000e+00
0.000000e+00		0.000000e+00		0.000000e+00
0.000000e+00		0.000000e+00		0.000000e+00
0.000000e+00		0.000000e+00		0.000000e+00
0.000000e+00		0.000000e+00		0.000000e+00
0.000000e+00		0.000000e+00		0.000000e+00
0.000000e+00		0.000000e+00		0.000000e+00
0.000000e+00		0.000000e+00		0.000000e+00
0.000000e+00		0.000000e+00		0.000000e+00
0.000000e+00		0.000000e+00		0.000000e+00
0.000000e+00		0.000000e+00		0.000000e+00
0.000000e+00		0.000000e+00		0.000000e+00
0.000000e+00		0.000000e+00		0.000000e+00
0.000000e+00		0.000000e+00		0.000000e+00
0.000000e+00		0.000000e+00		0.000000e+00
0.000000e+00		0.000000e+00		0.000000e+00
0.000000e+00		0.000000e+00		0.000000e+00
0.000000e+00		0.000000e+00		0.000000e+00
0.000000e+00		0.000000e+00		0.000000e+00
0.000000e+00		0.000000e+00		0.000000e+00
0.000000e+00		0.000000e+00		0.000000e+00
0.000000e+00		0.000000e+00		0.000000e+00
0.000000e+00		0.000000e+00		0.000000e+00
0.000000e+00		0.000000e+00		0.000000e+00
0.000000e+00		0.000000e+00		0.000000e+00
0.000000e+00		0.000000e+00		0.000000e+00
0.000000e+00		0.000000e+00		0.000000e+00
0.000000e+00		0.000000e+00		0.000000e+00
0.000000e+00		0.000000e+00		0.000000e+00
0.000000e+00		0.000000e+00		0.000000e+00
0.000000e+00		0.000000e+00		0.000000e+00
0.000000e+00		0.000000e+00		0.000000e+00
0.000000e+00		0.000000e+00		0.000000e+00
0.000000e+00		0.000000e+00		0.000000e+00
0.000000e+00		0.000000e+00		0.000000e+00
0.000000e+00		0.000000e+00		0.000000e+00
0.000000e+00		0.000000e+00		0.000000e+00
0.000000e+00		0.000000e+00		0.000000e+00
0.000000e+00		0.000000e+00		0.000000e+00
0.000000e+00		0.000000e+00		0.000000e+00
0.000000e+00		0.000000e+00		0.000000e+00
0.000000e+00		0.000000e+00		0.000000e+00
0.000000e+00		0.000000e+00		0.000000e+00
0.000000e+00		0.000000e+00		0.000000e+00
0.000000e+00		0.000000e+00		0.000000e+00
0.000000e+00		0.000000e+00		0.000000e+00
0.000000e+00		0.000000e+00		0.000000e+00
0.000000e+00		0.000000e+00		0.000000e+00
0.000000e+00		0.000000e+00		0.000000e+00
0.000000e+00		0.000000e+00		0.000000e+00
0.000000e+00		0.000000e+00		0.000000e+00
0.000000e+00		0.000000e+00		0.000000e+00
0.000000e+00		0.000000e+00		0.000000e+00
0.000000e+00		0.000000e+00		0.000000e+00
0.000000e+00		0.000000e+00		0.000000e+00
0.000000e+00		0.000000e+00		0.000000e+00
0.000000e+00		0.000000e+00		0.000000e+00
0.000000e+00		0.000000e+00		0.000000e+00
0.000000e+00		0.000000e+00		0.000000e+00
0.000000e+00		0.000000e+00		0.000000e+00
0.000000e+00		0.000000e+00		0.000000e+00
0.000000e+00		0.000000e+00		0.000000e+00
0.000000e+00		0.000000e+00		0.000000e+00
0.000000e+00		0.000000e+00		0.000000e+00
0.000000e+00		0.000000e+00		0.000000e+00
0.000000e+00		0.000000e+00		0.000000e+00
0.000000e+00		0.000000e+00		0.000000e+00
0.000000e+00		0.000000e+00		0.000000e+00
0.000000e+00		0.000000e+00		0.000000e+00
0.000000e+00		0.000000e+00		0.000000e+00
0.000000e+00		0.000000e+00		0.000000e+00
0.000000e+00		0.000000e+00		0.000000e+00
0.000000e+00		0.000000e+00		0.000000e+00
0.000000e+00		0.000000e+00		0.000000e+00
0.000000e+00		0.000000e+00		0.000000e+00
0.000000e+00		0.000000e+00		0.000000e+00
0.000000e+00		0.000000e+00		0.000000e+00
0.000000e+00		0.000000e+00		0.000000e+00
0.000000e+00		0.000000e+00		0.000000e+00
0.000000e+00		0.000000e+00		0.000000e+00
0.000000e+00		0.000000e+00		0.000000e+00
0.000000e+00		0.000000e+00		0.000000e+00
0.000000e+00		0.000000e+00		0.000000e+00
0.000000e+00		0.000000e+00		0.000000e+00
0.000000e+00		0.000000e+00		0.000000e+00
0.000000e+00		0.000000e+00		0.000000e+00
0.000000e+00		0.000000e+00		0.000000e+00
0.000000e+00		0.000000e+00		0.000000e+00
0.000000e+00		0.000000e+00		0.000000e+00
0.000000e+00		0.000000e+00		0.000000e+00
0.000000e+00		0.000000e+00		0.000000e+00
0.000000e+00		0.000000e+00		0.000000e+00
0.000000e+00		0.000000e+00		0.000000e+00
0.000000e+00		0.000000e+00		0.000000e+00
0.000000e+00		0.000000e+00		0.000000e+00
0.000000e+00		0.000000e+00		0.000000e+00
0.000000e+00		0.000000e+00		0.000000e+00
0.000000e+00		0.000000e+00		0.000000e+00
0.000000e+00		0.000000e+00		0.000000e+00
0.000000e+00		0.000000e+00		0.000000e+00
0.000000e+00		0.000000e+00		0.000000e+00
0.000000e+00		0.000000e+00		0.000000e+00
0.000000e+00		0.000000e+00		0.000000e+00
0.000000e+00		0.000000e+00		0.000000e+00
0.000000e+00		0.000000e+00		0.000000e+00
0.000000e+00		0.000000e+00		0.000000e+00
0.000000e+00		0.000000e+00		0.000000e+00
0.000000e+00		0.000000e+00		0.000000e+00
0.000000e+00		0.000000e+00		0.000000e+00
0.000000e+00		0.000000e+00		0.000000e+00
0.000000e+00		0.000000e+00		0.000000e+00
0.000000e+00		0.000000e+00		0.000000e+00
0.000000e+00		0.000000e+00		0.000000e+00
0.000000e+00		0.000000e+00		0.000000e+00
0.000000e+00		0.000000e+00		0.000000e+00
0.000000e+00		0.000000e+00		0.000000e+00
0.000000e+00		0.000000e+00		0.000000e+00
0.000000e+00		0.000000e+00		0.000000e+00
0.000000e+00		0.000000e+00		0.000000e+00
0.000000e+00		0.000000e+00		0.000000e+00
0.000000e+00		0.000000e+00		0.000000e+00
0.000000e+00		0.000000e+00		0.000000e+00
0.000000e+00		0.000000e+00		0.000000e+00
0.000000e+00		0.000000e+00		0.000000e+00
0.000000e+00		0.000000e+00		0.000000e+00
0.000000e+00		0.000000e+00		0.000000e+00
0.000000e+00		0.000000e+00		0.000000e+00
0.000000e+00		0.000000e+00		0.000000e+00
0.000000e+00		0.000000e+00		0.000000e+00
0.000000e+00		0.000000e+00		0.000000e+00
0.000000e+00		0.000000e+00		0.000000e+00
0.000000e+00		0.000000e+00		0.000000e+00
0.000000e+00		0.000000e+00		0.000000e+00
0.000000e+00		0.000000e+00		0.000000e+00
0.000000e+00		0.000000e+00		0.000000e+00
0.000000e+00		0.000000e+00		0.000000e+00
0.000000e+00		0.000000e+00		0.000000e+00
0.000000e+00		0.000000e+00		0.000000e+00
0.000000e+00		0.000000e+00		0.000000e+00
0.000000e+00		0.000000e+00		0.000000e+00
0.000000e+00		0.000000e+00		0.000000e+00
0.000000e+00		0.000000e+00		0.000000e+00
0.000000e+00		0.000000e+00		0.000000e+00
0.000000e+00		0.000000e+00		0.000000e+00
0.000000e+00		0.000000e+00		0.000000e+00
0.000000e+00		0.000000e+00		0.000000e+00
0.000000e+00		0.000000e+00		0.000000e+00
0.000000e+00		0.000000e+00		0.000000e+00
0.000000e+00		0.000000e+00		0.000000e+00
0.000000e+00		0.000000e+00		0.000000e+00
0.000000e+00		0.000000e+00		0.000000e+00
0.000000e+00		0.000000e+00		0.000000e+00
0.000000e+00		0.000000e+00		0.000000e+00
0.000000e+00		0.000000e+00		0.000000e+00
0.000000e+00		0.000000e+00		0.000000e+00
0.000000e+00		0.000000e+00		0.000000e+00
0.000000e+00		0.000000e+00		0.000000e+00
0.000000e+00		0.000000e+00		0.000000e+00
0.000000e+00		0.000000e+00		0.000000e+00
0.000000e+00		0.000000e+00		0.000000e+00
0.000000e+00		0.000000e+00		0.000000e+00
0.000000e+00		0.000000e+00		0.000000e+00
0.000000e+00		0.000000e+00		0.000000e+00
0.000000e+00		0.000000e+00		0.000000e+00
0.000000e+00		0.000000e+00		0.000000e+00
0.000000e+00		0.000000e+00		0.000000e+00
0.000000e+00		0.000000e+00		0.000000e+00
0.000000e+00		0.000000e+00		0.000000e+00
0.000000e+00		0.000000e+00		0.000000e+00
0.000000e+00		0.000000e+00		0.000000e+00
0.000000e+00		0.000000e+00		0.000000e+00
0.000000e+00		0.000000e+00		0.000000e+00
0.000000e+00		0.000000e+00		0.000000e+00
0.000000e+00		0.000000e+00		0.000000e+00
0.000000e+00		0.000000e+00		0.000000e+00
0.000000e+00		0.000000e+00		0.000000e+00
0.000000e+00		0.000000e+00		0.000000e+00
0.000000e+00		0.000000e+00		0.000000e+00
0.000000e+00		0.000000e+00		0.000000e+00
0.000000e+00		0.000000e+00		0.000000e+00
0.000000e+00		0.000000e+00		0.000000e+00
0.000000e+00		0.000000e+00		0.000000e+00
0.000000e+00		0.000000e+00		0.000000e+00
0.000000e+00		0.000000e+00		0.000000e+00
0.000000e+00		0.000000e+00		0.000000e+00
0.000000e+00		0.000000e+00		0.000000e+00
0.000000e+00		0.000000e+00		0.000000e+00
0.000000e+00		0.000000e+00		0.000000e+00
0.000000e+00		0.000000e+00		0.000000e+00
0.000000e+00		0.000000e+00		0.000000e+00
0.000000e+00		0.000000e+00		0.000000e+00
0.000000e+00		0.000000e+00		0.000000e+00
0.000000e+00		0.000000e+00		0.000000e+00
0.000000e+00		0.000000e+00		0.000000e+00
0.000000e+00		0.000000e+00		0.000000e+00
0.000000e+00		0.000000e+00		0.000000e+00
0.000000e+00		0.000000e+00		0.000000e+00
0.000000e+00		0.000000e+00		0.000000e+00
0.000000e+00		0.000000e+00		0.000000e+00
0.000000e+00		0.000000e+00		0.000000e+00
0.000000e+00		0.000000e+00		0.000000e+00
0.000000e+00		0.000000e+00		0.000000e+00
0.000000e+00		0.000000e+00		0.000000e+00
0.000000e+00		0.000000e+00		0.000000e+00
0.000000e+00		0.000000e+00		0.000000e+00
0.000000e+00		0.000000e+00		0.000000e+00
0.000000e+00		0.000000e+00		0.000000e+00
0.000000e+00		0.000000e+00		0.000000e+00
0.000000e+00		0.000000e+00		0.000000e+00
0.000000e+00		0.000000e+00		0.000000e+00
0.000000e+00		0.000000e+00		0.000000e+00
0.000000e+00		0.000000e+00		0.000000e+00
0.000000e+00		0.000000e+00		0.000000e+00
0.000000e+00		0.000000e+00		0.000000e+00
0.000000e+00		0.000000e+00		0.000000e+00
0.000000e+00		0.000000e+00		0.000000e+00
0.000000e+00		0.000000e+00		0.000000e+00
0.000000e+00		0.000000e+00		0.000000e+00
0.000000e+00		0.000000e+00		0.000000e+00
0.000000e+00		0.000000e+00		0.000000e+00
0.000000e+00		0.000000e+00		0.000000e+00
0.000000e+00		0.000000e+00		0.000000e+00
0.000000e+00		0.000000e+00		0.000000e+00
0.000000e+00		0.000000e+00		0.000000e+00
0.000000e+00		0.000000e+00		0.000000e+00
0.000000e+00		0.000000e+00		0.000000e+00
0.000000e+00		0.000000e+00		0.000000e+00
0.000000e+00		0.000000e+00		0.000000e+00
0.000000e+00		0.000000e+00		0.000000e+00
0.000000e+00		0.000000e+00		0.000000e+00
0.000000e+00		0.000000e+00		0.000000e+00
0.000000e+00		0.000000e+00		0.000000e+00
0.000000e+00		0.000000e+00		0.000000e+00
0.000000e+00		0.000000e+00		0.000000e+00
0.000000e+00		0.000000e+00		0.000000e+00
0.000000e+00		0.000000e+00		0.000000e+00
0.000000e+00		0.000000e+00		0.000000e+00
0.000000e+00		0.000000e+00		0.000000e+00
0.000000e+00		0.000000e+00		0.000000e+00
0.000000e+00		0.000000e+00		0.000000e+00
0.000000e+00		0.000000e+00		0.000000e+00
0.000000e+00		0.000000e+00		0.000000e+00
0.000000e+00		0.000000e+00		0.000000e+00
0.000000e+00		0.000000e+00		0.000000e+00
0.000000e+00		0.000000e+00		0.000000e+00
0.000000e+00		0.000000e+00		0.000000e+00
0.000000e+00		0.000000e+00		0.000000e+00
0.000000e+00		0.000000e+00		0.000000e+00
0.000000e+00		0.000000e+00		0.000000e+00
0.000000e+00		0.000000e+00		0.000000e+00
0.000000e+00		0.000000e+00		0.000000e+00
0.000000e+00		0.000000e+00		0.000000e+00
0.000000e+00		0.000000e+00		0.000000e+00
0.000000e+00		0.000000e+00		0.000000e+00
0.000000e+00		0.000000e+00		0.000000e+00
0.000000e+00		0.000000e+00		0.000000e+00
0.000000e+00		0.000000e+00		0.000000e+00
0.000000e+00		0.000000e+00		0.000000e+00
0.000000e+00		0.000000e+00		0.000000e+00
0.000000e+00		0.000000e+00		0.000000e+00
0.000000e+00		0.000000e+00		0.000000e+00
0.000000e+00		0.000000e+00		0.000000e+00
0.000000e+00		0.000000e+00		0.000000e+00
0.000000e+00		0.000000e+00		0.000000e+00
0.000000e+00		0.000000e+00		0.000000e+00
0.000000e+00		0.000000e+00		0.000000e+00
0.000000e+00		0.000000e+00		0.000000e+00
0.000000e+00		0.000000e+00		0.000000e+00
0.000000e+00		0.000000e+00		0.000000e+00
0.000000e+00		0.000000e+00		0.000000e+00
0.000000e+00		0.000000e+00		0.000000e+00
0.000000e+00		0.000000e+00		0.000000e+00
0.000000e+00		0.000000e+00		0.000000e+00
0.000000e+00		0.000000e+00		0.000000e+00
0.000000e+00		0.000000e+00		0.000000e+00
0.000000e+00		0.000000e+00		0.000000e+00
0.000000e+00		0.000000e+00		0.000000e+00
0.000000e+00		0.000000e+00		0.000000e+00
0.000000e+00		0.000000e+00		0.000000e+00
0.000000e+00		0.000000e+00		0.000000e+00
0.000000e+00		0.000000e+00		0.000000e+00
0.000000e+00		0.000000e+00		0.000000e+00
0.000000e+00		0.000000e+00		0.000000e+00
0.000000e+00		0.000000e+00		0.000000e+00
0.000000e+00		0.000000e+00		0.000000e+00
0.000000e+00		0.000000e+00		0.000000e+00
0.000000e+00		0.000000e+00		0.000000e+00
0.000000e+00		0.000000e+00		0.000000e+00
0.000000e+00		0.000000e+00		0.000000e+00
0.000000e+00		0.000000e+00		0.000000e+00
0.000000e+00		0.000000e+00		0.000000e+00
0.000000e+00		0.000000e+00		0.000000e+00
0.000000e+00		0.000000e+00		0.000000e+00
0.000000e+00		0.000000e+00		0.000000e+00
0.000000e+00		0.000000e+00		0.000000e+00
0.000000e+00		0.000000e+00		0.000000e+00
0.000000e+00		0.000000e+00		0.000000e+00
0.000000e+00		0.000000e+00		0.000000e+00
0.000000e+00		0.000000e+00		0.000000e+00
0.000000e+00		0.000000e+00		0.000000e+00
0.000000e+00		0.000000e+00		0.000000e+00
0.000000e+00		0.000000e+00		0.000000e+00
0.000000e+00		0.000000e+00		0.000000e+00
0.000000e+00		0.000000e+00		0.000000e+00
0.000000e+00		0.000000e+00		0.000000e+00
0.000000e+00		0.000000e+00		0.000000e+00
0.000000e+00		0.000000e+00		0.000000e+00
0.000000e+00		0.000000e+00		0.000000e+00
0.000000e+00		0.000000e+00		0.000000e+00
0.000000e+00		0.000000e+00		0.000000e+00
0.000000e+00		0.000000e+00		0.000000e+00
0.000000e+00		0.000000e+00		0.000000e+00
0.000000e+00		0.000000e+00		0.000000e+00
0.000000e+00		0.000000e+00		0.000000e+00
0.000000e+00		0.000000e+00		0.000000e+00
0.000000e+00		0.000000e+00		0.000000e+00
0.000000e+00		0.000000e+00		0.000000e+00
0.000000e+00		0.000000e+00		0.000000e+00
0.000000e+00		0.000000e+00		0.000000e+00
0.000000e+00		0.000000e+00		0.000000e+00
0.000000e+00		0.000000e+00		0.000000e+00
0.000000e+00		0.000000e+00		0.000000e+00
0.000000e+00		0.000000e+00		0.000000e+00
0.000000e+00		0.000000e+00		0.000000e+00
0.000000e+00		0.000000e+00		0.000000e+00
0.000000e+00		0.000000e+00		0.000000e+00
0.000000e+00		0.000000e+00		0.000000e+00
0.000000e+00		0.000000e+00		0.000000e+00
0.000000e+00		0.000000e+00		0.000000e+00
0.000000e+00		0.000000e+00		0.000000e+00
0.000000e+00		0.000000e+00		0.000000e+00
0.000000e+00		0.000000e+00		0.000000e+00
0.000000e+00		0.000000e+00		0.000000e+00
0.000000e+00		0.000000e+00		0.000000e+00
0.000000e+00		0.000000e+00		0.000000e+00
0.000000e+00		0.000000e+00		0.000000e+00
0.000000e+00		0.000000e+00		0.000000e+00
0.000000e+00		0.000000e+00		0.000000e+00
0.000000e+00		0.000000e+00		0.000000e+00
0.000000e+00		0.000000e+00		0.000000e+00
0.000000e+00		0.000000e+00		0.000000e+00
0.000000e+00		0.000000e+00		0.000000e+00
0.000000e+00		0.000000e+00		0.000000e+00
0.000000e+00		0.000000e+00		0.000000e+00
0.000000e+00		0.000000e+00		0.000000e+00
0.000000e+00		0.000000e+00		0.000000e+00
0.000000e+00		0.000000e+00		0.000000e+00
0.000000e+00		0.000000e+00		0.000000e+00
0.000000e+00		0.000000e+00		0.000000e+00
0.000000e+00		0.000000e+00		0.000000e+00
0.000000e+00		0.000000e+00		0.000000e+00
0.000000e+00		0.000000e+00		0.000000e+00
0.000000e+00		0.000000e+00		0.000000e+00
0.000000e+00		0.000000e+00		0.000000e+00
0.000000e+00		0.000000e+00		0.000000e+00
0.000000e+00		0.000000e+00		0.000000e+00
0.000000e+00		0.000000e+00		0.000000e+00
0.000000e+00		0.000000e+00		0.000000e+00
0.000000e+00		0.000000e+00		0.000000e+00
0.000000e+00		0.000000e+00		0.000000e+00
0.000000e+00		0.000000e+00		0.000000e+00
0.000000e+00		0.000000e+00		0.000000e+00
0.000000e+00		0.000000e+00		0.000000e+00
0.000000e+00		0.000000e+00		0.000000e+00
0.000000e+00		0.000000e+00		0.000000e+00
0.000000e+00		0.000000e+00		0.000000e+00
0.000000e+00		0.000000e+00		0.000000e+00
0.000000e+00		0.000000e+00		0.000000e+00
0.000000e+00		0.000000e+00		0.000000e+00
0.000000e+00		0.000000e+00		0.000000e+00
0.000000e+00		0.000000e+00		0.000000e+00
0.000000e+00		0.000000e+00		0.000000e+00
0.000000e+00		0.000000e+00		0.000000e+00
0.000000e+00		0.000000e+00		0.000000e+00
0.000000e+00		0.000000e+00		0.000000e+00
0.000000e+00		0.000000e+00		0.000000e+00
0.000000e+00		0.000000e+00		0.000000e+00
0.000000e+00		0.000000e+00		0.000000e+00
0.000000e+00		0.000000e+00		0.000000e+00
0.000000e+00		0.000000e+00		0.000000e+00
0.000000e+00		0.000000e+00		0.000000e+00
0.000000e+00		0.000000e+00		0.000000e+00
0.000000e+00		0.000000e+00		0.000000e+00
0.000000e+00		0.000000e+00		0.000000e+00
0.000000e+00		0.000000e+00		0.000000e+00
0.000000e+00		0.000000e+00		0.000000e+00
0.000000e+00		0.000000e+00		0.000000e+00
0.000000e+00		0.000000e+00		0.000000e+00
0.000000e+00		0.000000e+00		0.000000e+00
0.000000e+00		0.000000e+00		0.000000e+00
0.000000e+00		0.000000e+00		0.000000e+00
0.000000e+00		0.000000e+00		0.000000e+00
0.000000e+00		0.000000e+00		0.000000e+00
0.000000e+00		0.000000e+00		0.000000e+00
0.000000e+00		0.000000e+00		0.000000e+00
0.000000e+00		0.000000e+00		0.000000e+00
0.000000e+00		0.000000e+00		0.000000e+00
0.000000e+00		0.000000e+00		0.000000e+00
0.000000e+00		0.000000e+00		0.000000e+00
0.000000e+00		0.000000e+00		0.000000e+00
0.000000e+00		0.000000e+00		0.000000e+00
0.000000e+00		0.000000e+00		0.000000e+00
0.000000e+00		0.000000e+00		0.000000e+00
0.000000e+00		0.000000e+00		0.000000e+00
0.000000e+00		0.000000e+00		0.000000e+00
0.000000e+00		0.000000e+00		0.000000e+00
0.000000e+00		0.000000e+00		0.000000e+00
0.000000e+00		0.000000e+00		0.000000e+00
0.000000e+00		0.000000e+00		0.000000e+00
0.000000e+00		0.000000e+00		0.000000e+00
0.000000e+00		0.000000e+00		0.000000e+00
0.000000e+00		0.000000e+00		0.000000e+00
0.000000e+00		0.000000e+00		0.000000e+00
0.000000e+00		0.000000e+00		0.000000e+00
0.000000e+00		0.000000e+00		0.000000e+00
0.000000e+00		0.000000e+00		0.000000e+00
0.000000e+00		0.000000e+00		0.000000e+00
0.000000e+00		0.000000e+00		0.000000e+00
0.000000e+00		0.000000e+00		0.000000e+00
0.000000e+00		0.000000e+00		0.000000e+00
0.000000e+00		0.000000e+00		0.000000e+00
0.000000e+00		0.000000e+00		0.000000e+00
0.000000e+00		0.000000e+00		0.000000e+00
0.000000e+00		0.000000e+00		0.000000e+00
0.000000e+00		0.000000e+00		0.000000e+00
0.000000e+00		0.000000e+00		0.000000e+00
0.000000e+00		0.000000e+00		0.000000e+00
0.000000e+00		0.000000e+00		0.000000e+00
0.000000e+00		0.000000e+00		0.000000e+00
0.000000e+00		0.000000e+00		0.000000e+00
0.000000e+00		0.000000e+00		0.000000e+00
0.000000e+00		0.000000e+00		0.000000e+00
0.000000e+00		0.000000e+00		0.000000e+00
0.000000e+00		0.000000e+00		0.000000e+00
0.000000e+00		0.000000e+00		0.000000e+00
0.000000e+00		0.000000e+00		0.000000e+00
0.000000e+00		0.000000e+00		0.000000e+00
0.000000e+00		0.000000e+00		0.000000e+00
0.000000e+00		0.000000e+00		0.000000e+00
0.000000e+00		0.000000e+00		0.000000e+00
0.000000e+00		0.000000e+00		0.000000e+00
0.000000e+00		0.000000e+00		0.000000e+00
0.000000e+00		0.000000e+00		0.000000e+00
0.000000e+00		0.000000e+00		0.000000e+00
0.000000e+00		0.000000e+00		0.000000e+00
0.000000e+00		0.000000e+00		0.000000e+00
0.000000e+00		0.000000e+00		0.000000e+00
0.000000e+00		0.000000e+00		0.000000e+00
0.000000e+00		0.000000e+00		0.000000e+00
0.000000e+00		0.000000e+00		0.000000e+00
0.000000e+00		0.000000e+00		0.000000e+00
0.000000e+00		0.000000e+00		0.000000e+00
0.000000e+00		0.000000e+00		0.000000e+00
0.000000e+00		0.000000e+00		0.000000e+00
0.000000e+00		0.000000e+00		0.000000e+00
0.000000e+00		0.000000e+00		0.000000e+00
0.000000e+00		0.000000e+00		0.000000e+00
0.000000e+00		0.000000e+00		0.000000e+00
0.000000e+00		0.000000e+00		0.000000e+00
0.000000e+00		0.000000e+00		0.000000e+00
0.000000e+00		0.000000e+00		0.000000e+00
0.000000e+00		0.000000e+00		0.000000e+00
0.000000e+00		0.000000e+00		0.000000e+00
0.000000e+00		0.000000e+00		0.000000e+00
0.000000e+00		0.000000e+00		0.000000e+00
0.000000e+00		0.000000e+00		0.000000e+00
0.000000e+00		0.000000e+00		0.000000e+00
0.000000e+00		0.000000e+00		0.000000e+00
0.000000e+00		0.000000e+00		0.000000e+00
0.000000e+00		0.000000e+00		0.000000e+00
0.000000e+00		0.000000e+00		0.000000e+00
0.000000e+00		0.000000e+00		0.000000e+00
0.000000e+00		0.000000e+00		0.000000e+00
0.000000e+00		0.000000e+00		0.000000e+00
0.000000e+00		0.000000e+00		0.000000e+00
0.000000e+00		0.000000e+00		0.000000e+00
0.000000e+00		0.000000e+00		0.000000e+00
0.000000e+00		0.000000e+00		0.000000e+00
0.000000e+00		0.000000e+00		0.000000e+00
0.000000e+00		0.000000e+00		0.000000e+00
0.000000e+00		0.000000e+00		0.000000e+00
0.000000e+00		0.000000e+00		0.000000e+00
0.000000e+00		0.000000e+00		0.000000e+00
0.000000e+00		0.000000e+00		0.000000e+00
0.000000e+00		0.000000e+00		0.000000e+00
0.000000e+00		0.000000e+00		0.000000e+00
0.000000e+00		0.000000e+00		0.000000e+00
0.000000e+00		0.000000e+00		0.000000e+00
0.000000e+00		0.000000e+00		0.000000e+00
0.000000e+00		0.000000e+00		0.000000e+00
0.000000e+00		0.000000e+00		0.000000e+00
0.000000e+00		0.000000e+00		0.000000e+00
0.000000e+00		0.000000e+00		0.000000e+00
0.000000e+00		0.000000e+00		0.000000e+00
0.000000e+00		0.000000e+00		0.000000e+00
0.000000e+00		0.000000e+00		0.000000e+00
0.000000e+00		0.000000e+00		0.000000e+00
0.000000e+00		0.000000e+00		0.000000e+00
TENSORS stress double
1.982855e+10		-5.741417e-05		9.507704e+09
-5.741417e-05		1.982855e+10		1.425327e+10
9.507704e+09		1.425327e+10		4.413451e+10
1.737529e+10		-1.510978e-05		1.132476e+10
-1.510978e-05		1.737529e+10		8.005119e+09
1.132476e+10		8.005119e+09		3.867402e+10
1.609538e+10		-2.526073e-05		1.244870e+10
-2.526073e-05		1.609538e+10		2.882994e+09
1.244870e+10		2.882994e+09		3.582521e+10
1.666608e+10		-1.905765e-05		1.299724e+10
-1.905765e-05		1.666608e+10		1.233976e+09
1.299724e+10		1.233976e+09		3.709548e+10
1.736116e+10		-1.046807e-05		1.317664e+10
-1.046807e-05		1.736116e+10		4.872650e-03
1.317664e+10		4.872650e-03		3.864259e+10
1.666608e+10		-1.334026e-05		1.299724e+10
-1.334026e-05		1.666608e+10		-1.233976e+09
1.299724e+10		-1.233976e+09		3.709548e+10
1.609538e+10		-1.509674e-06		1.244870e+10
-1.509674e-06		1.609538e+10		-2.882994e+09
1.244870e+10		-2.882994e+09		3.582521e+10
1.737529e+10		-1.519360e-05		1.132476e+10
-1.519360e-05		1.737529e+10		-8.005119e+09
1.132476e+10		-8.005119e+09		3.867402e+10
1.982855e+10		9.344146e-05		9.507704e+09
9.344146e-05		1.982855e+10		-1.425327e+10
9.507704e+09		-1.425327e+10		4.413451e+10
1.323881e+10		7.636845e-06		3.187260e+09
7.636845e-06		1.323881e+10		1.060566e+10
3.187260e+09		1.060566e+10		2.946703e+10
9.480577e+09		-8.280855e-06		6.109113e+09
-8.280855e-06		9.480577e+09		2.132042e+09
6.109113e+09		2.132042e+09		2.110193e+10
1.020607e+10		-1.356099e-05		6.538319e+09
-1.356099e-05		1.020607e+10		8.283261e-03
6.538319e+09		8.283261e-03		2.271674e+10
9.480577e+09		-1.719594e-05		6.109113e+09
-1.719594e-05		9.480577e+09		-2.132042e+09
6.109113e+09		-2.132042e+09		2.110193e+10
1.323881e+10		-1.293421e-05		3.187260e+09
-1.293421e-05		1.323881e+10		-1.060566e+10
3.187260e+09		-1.060566e+10		2.946703e+10
7.617683e+09		3.136694e-06		-1.590617e+09
3.136694e-06		7.617683e+09		7.003988e+09
-1.590617e+09		7.003988e+09		1.695549e+10
5.807516e+09		-8.028001e-06		4.989458e+08
-8.028001e-06		5.807516e+09		3.910174e+09
4.989458e+08		3.910174e+09		1.292641e+10
4.614208e+09		1.449604e-06		1.738279e+09
1.449604e-06		4.614208e+09		1.414637e+09
1.738279e+09		1.414637e+09		1.027033e+10
4.735005e+09		-3.233086e-06		1.960218e+09
-3.233086e-06		4.735005e+09		5.819406e+08
1.960218e+09		5.819406e+08		1.053920e+10
5.001333e+09		-1.949258e-06		1.920593e+09
-1.949258e-06		5.001333e+09		4.724520e-03
1.920593e+09		4.724520e-03		1.113200e+10
4.735005e+09		-1.305714e-06		1.960218e+09
-1.305714e-06		4.735005e+09		-5.819406e+08
1.960218e+09		-5.819406e+08		1.053920e+10
4.614208e+09		-4.831702e-06		1.738279e+09
-4.831702e-06		4.614208e+09		-1.414637e+09
1.738279e+09		-1.414637e+09		1.027033e+10
5.807516e+09		5.551614e-06		4.989458e+08
5.551614e-06		5.807516e+09		-3.910174e+09
4.989458e+08		-3.910174e+09		1.292641e+10
7.617683e+09		1.760200e-06		-1.590617e+09
1.760200e-06		7.617683e+09		-7.003988e+09
-1.590617e+09		-7.003988e+09		1.695549e+10
3.611583e+09		3.159046e-06		-2.029634e+09
3.159046e-06		3.611583e+09		3.551231e+09
-2.029634e+09		3.551231e+09		8.038684e+09
2.085509e+09		-4.838221e-06		1.300214e+09
-4.838221e-06		2.085509e+09		7.240979e+08
1.300214e+09		7.240979e+08		4.641940e+09
2.267537e+09		-4.418194e-06		1.503179e+09
-4.418194e-06		2.267537e+09		5.823541e-03
1.503179e+09		5.823541e-03		5.047099e+09
2.085509e+09		-6.895512e-06		1.300214e+09
-6.895512e-06		2.085509e+09		-7.240979e+08
1.300214e+09		-7.240979e+08		4.641940e+09
3.611583e+09		5.729496e-06		-2.029634e+09
5.729496e-06		3.611583e+09		-3.551231e+09
-2.029634e+09		-3.551231e+09		8.038684e+09
2.598621e-03		-4.798174e-06		-1.769455e+09
-4.798174e-06		2.600707e-03		-1.401259e-02
-1.769455e+09		-1.401259e-02		5.791187e-03
-2.096333e-04		-3.144145e-06		4.235521e+08
-3.144145e-06		-2.021380e-04		-1.985416e-02
4.235521e+08		-1.985416e-02		-4.542172e-04
-2.077639e-03		4.670583e-07		1.594838e+09
4.670583e-07		-2.080962e-03		-7.635441e-03
1.594838e+09		-7.635441e-03		-4.623026e-03
-4.223682e-03		-3.795139e-06		1.854442e+09
-3.795139e-06		-4.217159e-03		-5.409441e-03
1.854442e+09		-5.409441e-03		-9.385705e-03
-3.252260e-03		-2.165325e-06		1.882492e+09
-2.165325e-06		-3.253479e-03		2.199655e-03
1.882492e+09		2.199655e-03		-7.237233e-03
-3.902838e-03		-4.086643e-06		1.854442e+09
-4.086643e-06		-3.895920e-03		1.230450e-02
1.854442e+09		1.230450e-02		-8.669272e-03
-1.657438e-03		-1.678243e-06		1.594838e+09
-1.678243e-06		-1.659429e-03		1.137336e-02
1.594838e+09		1.137336e-02		-3.682941e-03
6.633159e-04		-4.582107e-06		4.235521e+08
-4.582107e-06		6.692917e-04		2.473217e-02
4.235521e+08		2.473217e-02		1.482695e-03
3.348127e-03		-7.189810e-06		-1.769455e+09
-7.189810e-06		3.341924e-03		1.589538e-02
-1.769455e+09		1.589538e-02		7.456139e-03
-3.611583e+09		-4.656613e-06		-2.029634e+09
-4.656613e-06		-3.611583e+09		-3.551231e+09
-2.029634e+09		-3.551231e+09		-8.038684e+09
-2.085509e+09		-7.663388e-06		1.300214e+09
-7.663388e-06		-2.085509e+09		-7.240979e+08
1.300214e+09		-7.240979e+08		-4.641940e+09
-2.267537e+09		-5.333684e-06		1.503179e+09
-5.333684e-06		-2.267537e+09		8.877441e-04
1.503179e+09		8.877441e-04		-5.047099e+09
-2.085509e+09		-1.970679e-06		1.300214e+09
-1.970679e-06		-2.085509e+09		7.240979e+08
1.300214e+09		7.240979e+08		-4.641940e+09
-3.611583e+09		8.754432e-06		-2.029634e+09
8.754432e-06		-3.611583e+09		3.551231e+09
-2.029634e+09		3.551231e+09		-8.038684e+09
-7.617683e+09		-2.305675e-05		-1.590617e+09
-2.305675e-05		-7.617683e+09		-7.003988e+09
-1.590617e+09		-7.003988e+09		-1.695549e+10
-5.807516e+09		4.820060e-06		4.989458e+08
4.820060e-06		-5.807516e+09		-3.910174e+09
4.989458e+08		-3.910174e+09		-1.292641e+10
-4.614208e+09		-2.808054e-06		1.738279e+09
-2.808054e-06		-4.614208e+09		-1.414637e+09
1.738279e+09		-1.414637e+09		-1.027033e+10
-4.735005e+09		-1.626788e-06		1.960218e+09
-1.626788e-06		-4.735005e+09		-5.819406e+08
1.960218e+09		-5.819406e+08		-1.053920e+10
-5.001333e+09		-3.661728e-06		1.920593e+09
-3.661728e-06		-5.001333e+09		-1.035604e-03
1.920593e+09		-1.035604e-03		-1.113200e+10
-4.735005e+09		-3.604218e-06		1.960218e+09
-3.604218e-06		-4.735005e+09		5.819406e+08
1.960218e+09		5.819406e+08		-1.053920e+10
-4.614208e+09		-2.160697e-06		1.738279e+09
-2.160697e-06		-4.614208e+09		1.414637e+09
1.738279e+09		1.414637e+09		-1.027033e+10
-5.807516e+09		-1.064772e-05		4.989458e+08
-1.064772e-05		-5.807516e+09		3.910174e+09
4.989458e+08		3.910174e+09		-1.292641e+10
-7.617683e+09		-8.800940e-06		-1.590617e+09
-8.800940e-06		-7.617683e+09		7.003988e+09
-1.590617e+09		7.003988e+09		-1.695549e+10
-1.323881e+10		-1.019519e-05		3.187260e+09
-1.019519e-05		-1.323881e+10		-1.060566e+10
3.187260e+09		-1.060566e+10		-2.946703e+10
-9.480577e+09		-1.398474e-05		6.109113e+09
-1.398474e-05		-9.480577e+09		-2.132042e+09
6.109113e+09		-2.132042e+09		-2.110193e+10
-1.020607e+10		-9.043142e-06		6.538319e+09
-9.043142e-06		-1.020607e+10		-3.500637e-03
6.538319e+09		-3.500637e-03		-2.271674e+10
-9.480577e+09		-1.566979e-06		6.109113e+09
-1.566979e-06		-9.480577e+09		2.132042e+09
6.109113e+09		2.132042e+09		-2.110193e+10
-1.323881e+10		-1.207402e-06		3.187260e+09
-1.207402e-06		-1.323881e+10		1.060566e+10
3.187260e+09		1.060566e+10		-2.946703e+10
-1.982855e+10		-6.393343e-05		9.507704e+09
-6.393343e-05		-1.982855e+10		-1.425327e+10
9.507704e+09		-1.425327e+10		-4.413451e+10
-1.737529e+10		2.697390e-05		1.132476e+10
2.697390e-05		-1.737529e+10		-8.005119e+09
1.132476e+10		-8.005119e+09		-3.867402e+10
-1.609538e+10		-3.183493e-06		1.244870e+10
-3.183493e-06		-1.609538e+10		-2.882994e+09
1.244870e+10		-2.882994e+09		-3.582521e+10
-1.666608e+10		2.870336e-06		1.299724e+10
2.870336e-06		-1.666608e+10		-1.233976e+09
1.299724e+10		-1.233976e+09		-3.709548e+10
-1.736116e+10		1.722551e-05		1.317664e+10
1.722551e-05		-1.736116e+10		-3.022425e-03
1.317664e+10		-3.022425e-03		-3.864259e+10
-1.666608e+10		-3.714114e-06		1.299724e+10
-3.714114e-06		-1.666608e+10		1.233976e+09
1.299724e+10		1.233976e+09		-3.709548e+10
-1.609538e+10		3.707752e-05		1.244870e+10
3.707752e-05		-1.609538e+10		2.882994e+09
1.244870e+10		2.882994e+09		-3.582521e+10
-1.737529e+10		-2.861128e-05		1.132476e+10
-2.861128e-05		-1.737529e+10		8.005119e+09
1.132476e+10		8.005119e+09		-3.867402e+10
-1.982855e+10		8.250814e-05		9.507704e+09
8.250814e-05		-1.982855e+10		1.425327e+10
9.507704e+09		1.425327e+10		-4.413451e+10
5.522716e+09		-5.637649e+08		3.015738e+09
-5.637649e+08		5.671664e+09		5.865282e+09
3.015738e+09		5.865282e+09		3.187625e+10
5.516959e+09		-2.141117e+07		5.393952e+09
-2.141117e+07		8.516471e+09		3.219753e+09
5.393952e+09		3.219753e+09		3.091540e+10
5.998012e+09		8.138014e-03		5.627118e+09
8.138014e-03		1.038314e+10		-3.366053e-03
5.627118e+09		-3.366053e-03		3.146299e+10
5.516959e+09		2.141117e+07		5.393952e+09
2.141117e+07		8.516471e+09		-3.219753e+09
5.393952e+09		-3.219753e+09		3.091540e+10
5.522716e+09		5.637649e+08		3.015738e+09
5.637649e+08		5.671664e+09		-5.865282e+09
3.015738e+09		-5.865282e+09		3.187625e+10
3.205159e+09		-4.524591e+08		6.905992e+08
-4.524591e+08		2.367328e+09		2.795110e+09
6.905992e+08		2.795110e+09		1.424930e+10
3.446112e+09		-2.065728e+08		3.902018e+09
-2.065728e+08		3.715200e+09		1.382144e+09
3.902018e+09		1.382144e+09		1.311672e+10
3.612888e+09		-4.075877e-04		4.346080e+09
-4.075877e-04		4.609487e+09		-2.434365e-03
4.346080e+09		-2.434365e-03		1.311269e+10
3.446112e+09		2.065728e+08		3.902018e+09
2.065728e+08		3.715200e+09		-1.382144e+09
3.902018e+09		-1.382144e+09		1.311672e+10
3.205159e+09		4.524591e+08		6.905992e+08
4.524591e+08		2.367328e+09		-2.795110e+09
6.905992e+08		-2.795110e+09		1.424930e+10
-4.978329e-03		-4.772170e+08		2.435753e+08
-4.772170e+08		-2.367587e-02		5.400453e-03
2.435753e+08		5.400453e-03		-9.273335e-03
1.214802e-02		-3.485559e+08		3.567178e+09
-3.485559e+08		1.485126e-02		2.873424e-03
3.567178e+09		2.873424e-03		9.205818e-03
1.223391e-02		-2.504572e-03		3.956382e+09
-2.504572e-03		1.748835e-02		-7.394440e-04
3.956382e+09		-7.394440e-04		1.070559e-02
8.143216e-03		3.485559e+08		3.567178e+09
3.485559e+08		1.181804e-02		-4.087590e-03
3.567178e+09		-4.087590e-03		6.885171e-03
-1.295805e-02		4.772170e+08		2.435753e+08
4.772170e+08		-3.286596e-02		-6.789771e-03
2.435753e+08		-6.789771e-03		-1.488847e-02
-3.205159e+09		-4.524591e+08		6.905992e+08
-4.524591e+08		-2.367328e+09		-2.795110e+09
6.905992e+08		-2.795110e+09		-1.424930e+10
-3.446112e+09		-2.065728e+08		3.902018e+09
-2.065728e+08		-3.715200e+09		-1.382144e+09
3.902018e+09		-1.382144e+09		-1.311672e+10
-3.612888e+09		-2.850518e-03		4.346080e+09
-2.850518e-03		-4.609487e+09		1.057677e-03
4.346080e+09		1.057677e-03		-1.311269e+10
-3.446112e+09		2.065728e+08		3.902018e+09
2.065728e+08		-3.715200e+09		1.382144e+09
3.902018e+09		1.382144e+09		-1.311672e+10
-3.205159e+09		4.524591e+08		6.905992e+08
4.524591e+08		-2.367328e+09		2.795110e+09
6.905992e+08		2.795110e+09		-1.424930e+10
-5.522716e+09		-5.637649e+08		3.015738e+09
-5.637649e+08		-5.671664e+09		-5.865282e+09
3.015738e+09		-5.865282e+09		-3.187625e+10
-5.516959e+09		-2.141117e+07		5.393952e+09
-2.141117e+07		-8.516471e+09		-3.219753e+09
5.393952e+09		-3.219753e+09		-3.091540e+10
-5.998012e+09		2.057849e-03		5.627118e+09
2.057849e-03		-1.038314e+10		1.740843e-03
5.627118e+09		1.740843e-03		-3.146299e+10
-5.516959e+09		2.141117e+07		5.393952e+09
2.141117e+07		-8.516471e+09		3.219753e+09
5.393952e+09		3.219753e+09		-3.091540e+10
-5.522716e+09		5.637649e+08		3.015738e+09
5.637649e+08		-5.671664e+09		5.865282e+09
3.015738e+09		5.865282e+09		-3.187625e+10
-2.085232e+09		3.283319e+08		-1.627790e+09
3.283319e+08		-1.970407e+09		-7.156574e+08
-1.627790e+09		-7.156574e+08		2.280041e+10
-1.136261e+09		3.892859e+08		-7.820599e+08
3.892859e+08		1.542932e+09		1.662213e+09
-7.820599e+08		1.662213e+09		2.502757e+10
-8.924265e+08		-6.424945e+07		-8.542000e+08
-6.424945e+07		4.049369e+09		3.178250e+09
-8.542000e+08		3.178250e+09		2.655609e+10
-1.374029e+09		-8.713674e+06		-6.357199e+08
-8.713674e+06		4.018863e+09		1.215325e+09
-6.357199e+08		1.215325e+09		2.577692e+10
-1.318299e+09		1.470449e-02		-6.759185e+08
1.470449e-02		4.869918e+09		8.979663e-04
-6.759185e+08		8.979663e-04		2.545986e+10
-1.374029e+09		8.713674e+06		-6.357199e+08
8.713674e+06		4.018863e+09		-1.215325e+09
-6.357199e+08		-1.215325e+09		2.577692e+10
-8.924265e+08		6.424945e+07		-8.542000e+08
6.424945e+07		4.049369e+09		-3.178250e+09
-8.542000e+08		-3.178250e+09		2.655609e+10
-1.136261e+09		-3.892859e+08		-7.820599e+08
-3.892859e+08		1.542932e+09		-1.662213e+09
-7.820599e+08		-1.662213e+09		2.502757e+10
-2.085232e+09		-3.283319e+08		-1.627790e+09
-3.283319e+08		-1.970407e+09		7.156574e+08
-1.627790e+09		7.156574e+08		2.280041e+10
-1.936224e+07		2.305315e+07		6.755187e+08
2.305315e+07		-1.078930e+09		-1.032249e+09
6.755187e+08		-1.032249e+09		1.739828e+10
1.786964e+09		-4.333925e+08		2.491742e+09
-4.333925e+08		4.039650e+09		1.998005e+09
2.491742e+09		1.998005e+09		2.094685e+10
1.545680e+09		3.026100e-03		3.016379e+09
3.026100e-03		4.794902e+09		2.229708e-03
3.016379e+09		2.229708e-03		2.013586e+10
1.786964e+09		4.333925e+08		2.491742e+09
4.333925e+08		4.039650e+09		-1.998005e+09
2.491742e+09		-1.998005e+09		2.094685e+10
-1.936224e+07		-2.305315e+07		6.755187e+08
-2.305315e+07		-1.078930e+09		1.032249e+09
6.755187e+08		1.032249e+09		1.739828e+10
1.235417e+09		-1.359549e+08		2.845057e+09
-1.359549e+08		-4.095906e+08		-5.314500e+08
2.845057e+09		-5.314500e+08		1.213558e+10
2.656169e+09		-2.663709e+08		4.602690e+09
-2.663709e+08		1.959401e+09		6.173662e+08
4.602690e+09		6.173662e+08		1.402266e+10
3.551043e+09		-6.484759e+08		5.364906e+09
-6.484759e+08		3.739057e+09		1.335458e+09
5.364906e+09		1.335458e+09		1.539782e+10
3.335583e+09		-1.290746e+08		5.896836e+09
-1.290746e+08		3.845801e+09		5.007594e+08
5.896836e+09		5.007594e+08		1.500437e+10
3.417034e+09		-6.376454e-04		6.162150e+09
-6.376454e-04		4.394779e+09		1.926271e-03
6.162150e+09		1.926271e-03		1.487728e+10
3.335583e+09		1.290746e+08		5.896836e+09
1.290746e+08		3.845801e+09		-5.007594e+08
5.896836e+09		-5.007594e+08		1.500437e+10
3.551043e+09		6.484759e+08		5.364906e+09
6.484759e+08		3.739057e+09		-1.335458e+09
5.364906e+09		-1.335458e+09		1.539782e+10
2.656169e+09		2.663709e+08		4.602690e+09
2.663709e+08		1.959401e+09		-6.173662e+08
4.602690e+09		-6.173662e+08		1.402266e+10
1.235417e+09		1.359549e+08		2.845057e+09
1.359549e+08		-4.095906e+08		5.314500e+08
2.845057e+09		5.314500e+08		1.213558e+10
-4.394308e+07		-3.777661e+08		2.343404e+09
-3.777661e+08		-5.774200e+08		-2.616135e+08
2.343404e+09		-2.616135e+08		5.644993e+09
1.152091e+09		-8.765319e+08		4.564812e+09
-8.765319e+08		1.522014e+09		6.613558e+08
4.564812e+09		6.613558e+08		7.290501e+09
1.067293e+09		1.322020e-03		5.227407e+09
1.322020e-03		1.848307e+09		2.094118e-03
5.227407e+09		2.094118e-03		7.014566e+09
1.152091e+09		8.765319e+08		4.564812e+09
8.765319e+08		1.522014e+09		-6.613558e+08
4.564812e+09		-6.613558e+08		7.290501e+09
-4.394308e+07		3.777661e+08		2.343404e+09
3.777661e+08		-5.774200e+08		2.616135e+08
2.343404e+09		2.616135e+08		5.644993e+09
-1.723392e-02		-3.718356e+08		2.555082e+09
-3.718356e+08		-5.528015e-02		-1.292382e-02
2.555082e+09		-1.292382e-02		-2.033598e-02
1.417015e-02		-5.857259e+08		4.287394e+09
-5.857259e+08		4.310815e-03		-1.601160e-02
4.287394e+09		-1.601160e-02		9.694934e-03
1.548414e-02		-1.011982e+09		4.907442e+09
-1.011982e+09		1.858716e-02		-8.998066e-03
4.907442e+09		-8.998066e-03		1.355310e-02
9.655267e-03		-2.701249e+08		5.394696e+09
-2.701249e+08		-1.173092e-03		-5.623678e-03
5.394696e+09		-5.623678e-03		6.575808e-03
1.499435e-02		-2.955581e-03		5.553131e+09
-2.955581e-03		2.133404e-02		9.401007e-04
5.553131e+09		9.401007e-04		1.381651e-02
5.890239e-03		2.701249e+08		5.394696e+09
2.701249e+08		-2.881799e-03		7.319510e-03
5.394696e+09		7.319510e-03		3.648013e-03
9.888995e-03		1.011982e+09		4.907442e+09
1.011982e+09		1.421055e-02		1.037412e-02
4.907442e+09		1.037412e-02		8.796927e-03
4.388705e-03		5.857259e+08		4.287394e+09
5.857259e+08		-5.568489e-04		1.623428e-02
4.287394e+09		1.623428e-02		1.457404e-03
-3.024025e-02		3.718356e+08		2.555082e+09
3.718356e+08		-7.174385e-02		1.083583e-02
2.555082e+09		1.083583e-02		-3.282054e-02
4.394308e+07		-3.777661e+08		2.343404e+09
-3.777661e+08		5.774200e+08		2.616135e+08
2.343404e+09		2.616135e+08		-5.644993e+09
-1.152091e+09		-8.765319e+08		4.564812e+09
-8.765319e+08		-1.522014e+09		-6.613558e+08
4.564812e+09		-6.613558e+08		-7.290501e+09
-1.067293e+09		-1.279432e-04		5.227407e+09
-1.279432e-04		-1.848307e+09		-9.313226e-09
5.227407e+09		-9.313226e-09		-7.014566e+09
-1.152091e+09		8.765319e+08		4.564812e+09
8.765319e+08		-1.522014e+09		6.613558e+08
4.564812e+09		6.613558e+08		-7.290501e+09
4.394308e+07		3.777661e+08		2.343404e+09
3.777661e+08		5.774200e+08		-2.616135e+08
2.343404e+09		-2.616135e+08		-5.644993e+09
-1.235417e+09		-1.359549e+08		2.845057e+09
-1.359549e+08		4.095906e+08		5.314500e+08
2.845057e+09		5.314500e+08		-1.213558e+10
-2.656169e+09		-2.663709e+08		4.602690e+09
-2.663709e+08		-1.959401e+09		-6.173662e+08
4.602690e+09		-6.173662e+08		-1.402266e+10
-3.551043e+09		-6.484759e+08		5.364906e+09
-6.484759e+08		-3.739057e+09		-1.335458e+09
5.364906e+09		-1.335458e+09		-1.539782e+10
-3.335583e+09		-1.290746e+08		5.896836e+09
-1.290746e+08		-3.845801e+09		-5.007594e+08
5.896836e+09		-5.007594e+08		-1.500437e+10
-3.417034e+09		-3.355450e-03		6.162150e+09
-3.355450e-03		-4.394779e+09		-8.398145e-04
6.162150e+09		-8.398145e-04		-1.487728e+10
-3.335583e+09		1.290746e+08		5.896836e+09
1.290746e+08		-3.845801e+09		5.007594e+08
5.896836e+09		5.007594e+08		-1.500437e+10
-3.551043e+09		6.484759e+08		5.364906e+09
6.484759e+08		-3.739057e+09		1.335458e+09
5.364906e+09		1.335458e+09		-1.539782e+10
-2.656169e+09		2.663709e+08		4.602690e+09
2.663709e+08		-1.959401e+09		6.173662e+08
4.602690e+09		6.173662e+08		-1.402266e+10
-1.235417e+09		1.359549e+08		2.845057e+09
1.359549e+08		4.095906e+08		-5.314500e+08
2.845057e+09		-5.314500e+08		-1.213558e+10
1.936224e+07		2.305315e+07		6.755187e+08
2.305315e+07		1.078930e+09		1.032249e+09
6.755187e+08		1.032249e+09		-1.739828e+10
-1.786964e+09		-4.333925e+08		2.491742e+09
-4.333925e+08		-4.039650e+09		-1.998005e+09
2.491742e+09		-1.998005e+09		-2.094685e+10
-1.545680e+09		-7.502455e-04		3.016379e+09
-7.502455e-04		-4.794902e+09		-2.032823e-03
3.016379e+09		-2.032823e-03		-2.013586e+10
-1.786964e+09		4.333925e+08		2.491742e+09
4.333925e+08		-4.039650e+09		1.998005e+09
2.491742e+09		1.998005e+09		-2.094685e+10
1.936224e+07		-2.305315e+07		6.755187e+08
-2.305315e+07		1.078930e+09		-1.032249e+09
6.755187e+08		-1.032249e+09		-1.739828e+10
2.085232e+09		3.283319e+08		-1.627790e+09
3.283319e+08		1.970407e+09		7.156574e+08
-1.627790e+09		7.156574e+08		-2.280041e+10
1.136261e+09		3.892859e+08		-7.820599e+08
3.892859e+08		-1.542932e+09		-1.662213e+09
-7.820599e+08		-1.662213e+09		-2.502757e+10
8.924265e+08		-6.424945e+07		-8.542000e+08
-6.424945e+07		-4.049369e+09		-3.178250e+09
-8.542000e+08		-3.178250e+09		-2.655609e+10
1.374029e+09		-8.713674e+06		-6.357199e+08
-8.713674e+06		-4.018863e+09		-1.215325e+09
-6.357199e+08		-1.215325e+09		-2.577692e+10
1.318299e+09		5.611559e-03		-6.759185e+08
5.611559e-03		-4.869918e+09		-1.648985e-03
-6.759185e+08		-1.648985e-03		-2.545986e+10
1.374029e+09		8.713674e+06		-6.357199e+08
8.713674e+06		-4.018863e+09		1.215325e+09
-6.357199e+08		1.215325e+09		-2.577692e+10
8.924265e+08		6.424945e+07		-8.542000e+08
6.424945e+07		-4.049369e+09		3.178250e+09
-8.542000e+08		3.178250e+09		-2.655609e+10
1.136261e+09		-3.892859e+08		-7.820599e+08
-3.892859e+08		-1.542932e+09		1.662213e+09
-7.820599e+08		1.662213e+09		-2.502757e+10
2.085232e+09		-3.283319e+08		-1.627790e+09
-3.283319e+08		1.970407e+09		-7.156574e+08
-1.627790e+09		-7.156574e+08		-2.280041e+10
-1.999905e+09		2.482249e+08		-9.177045e+08
2.482249e+08		-2.073002e+09		-5.841934e+08
-9.177045e+08		-5.841934e+08		1.932860e+10
-1.779114e+09		7.467092e+07		-9.802942e+08
7.467092e+07		1.112523e+09		1.118811e+09
-9.802942e+08		1.118811e+09		2.178673e+10
-1.624911e+09		1.640408e-02		-9.537944e+08
1.640408e-02		2.577118e+09		-4.330315e-03
-9.537944e+08		-4.330315e-03		2.228076e+10
-1.779114e+09		-7.467092e+07		-9.802942e+08
-7.467092e+07		1.112523e+09		-1.118811e+09
-9.802942e+08		-1.118811e+09		2.178673e+10
-1.999905e+09		-2.482249e+08		-9.177045e+08
-2.482249e+08		-2.073002e+09		5.841934e+08
-9.177045e+08		5.841934e+08		1.932860e+10
-5.347785e+08		-2.890368e+08		2.642202e+09
-2.890368e+08		-1.036381e+09		-6.617677e+08
2.642202e+09		-6.617677e+08		9.706473e+09
8.083521e+08		-6.231438e+08		4.233930e+09
-6.231438e+08		1.291485e+09		2.812321e+08
4.233930e+09		2.812321e+08		1.218347e+10
9.737548e+08		4.566312e-04		4.648769e+09
4.566312e-04		2.292794e+09		-2.904017e-03
4.648769e+09		-2.904017e-03		1.268558e+10
8.083521e+08		6.231438e+08		4.233930e+09
6.231438e+08		1.291485e+09		-2.812321e+08
4.233930e+09		-2.812321e+08		1.218347e+10
-5.347785e+08		2.890368e+08		2.642202e+09
2.890368e+08		-1.036381e+09		6.617677e+08
2.642202e+09		6.617677e+08		9.706473e+09
-1.486014e-02		-4.757915e+08		3.911697e+09
-4.757915e+08		-6.254143e-02		5.918013e-03
3.911697e+09		5.918013e-03		-2.495976e-02
2.653444e-02		-1.028700e+09		5.456756e+09
-1.028700e+09		3.343223e-02		1.184170e-03
5.456756e+09		1.184170e-03		1.621767e-02
2.653774e-02		-4.113559e-03		5.949007e+09
-4.113559e-03		3.978770e-02		1.528605e-04
5.949007e+09		1.528605e-04		1.761154e-02
1.897628e-02		1.028700e+09		5.456756e+09
1.028700e+09		2.774216e-02		-9.669910e-04
5.456756e+09		-9.669910e-04		1.295555e-02
-2.762190e-02		4.757915e+08		3.911697e+09
4.757915e+08		-7.514806e-02		-2.625601e-03
3.911697e+09		-2.625601e-03		-3.147158e-02
5.347785e+08		-2.890368e+08		2.642202e+09
-2.890368e+08		1.036381e+09		6.617677e+08
2.642202e+09		6.617677e+08		-9.706473e+09
-8.083521e+08		-6.231438e+08		4.233930e+09
-6.231438e+08		-1.291485e+09		-2.812321e+08
4.233930e+09		-2.812321e+08		-1.218347e+10
-9.737548e+08		-4.670467e-03		4.648769e+09
-4.670467e-03		-2.292794e+09		3.423777e-03
4.648769e+09		3.423777e-03		-1.268558e+10
-8.083521e+08		6.231438e+08		4.233930e+09
6.231438e+08		-1.291485e+09		2.812321e+08
4.233930e+09		2.812321e+08		-1.218347e+10
5.347785e+08		2.890368e+08		2.642202e+09
2.890368e+08		1.036381e+09		-6.617677e+08
2.642202e+09		-6.617677e+08		-9.706473e+09
1.999905e+09		2.482249e+08		-9.177045e+08
2.482249e+08		2.073002e+09		5.841934e+08
-9.177045e+08		5.841934e+08		-1.932860e+10
1.779114e+09		7.467092e+07		-9.802942e+08
7.467092e+07		-1.112523e+09		-1.118811e+09
-9.802942e+08		-1.118811e+09		-2.178673e+10
1.624911e+09		7.689979e-03		-9.537944e+08
7.689979e-03		-2.577118e+09		5.304419e-03
-9.537944e+08		5.304419e-03		-2.228076e+10
1.779114e+09		-7.467092e+07		-9.802942e+08
-7.467092e+07		-1.112523e+09		1.118811e+09
-9.802942e+08		1.118811e+09		-2.178673e+10
1.999905e+09		-2.482249e+08		-9.177045e+08
-2.482249e+08		2.073002e+09		-5.841934e+08
-9.177045e+08		-5.841934e+08		-1.932860e+10
1.612847e+08		1.367985e+08		-9.114827e+05
1.367985e+08		8.105996e+07		-3.876623e+08
-9.114827e+05		-3.876623e+08		1.877953e+10
4.517309e+08		1.201650e+08		-8.715549e+07
1.201650e+08		5.407797e+08		-9.323592e+07
-8.715549e+07		-9.323592e+07		2.057525e+10
1.430915e+08		8.575279e+07		-1.207919e+08
8.575279e+07		8.507407e+08		-5.612568e+07
-1.207919e+08		-5.612568e+07		2.092026e+10
2.627521e+08		4.486688e+07		-1.321868e+08
4.486688e+07		1.798882e+09		1.641878e+08
-1.321868e+08		1.641878e+08		2.126575e+10
2.728707e+08		1.337507e-02		-1.920299e+08
1.337507e-02		2.130230e+09		-7.273506e-03
-1.920299e+08		-7.273506e-03		2.129782e+10
2.627521e+08		-4.486688e+07		-1.321868e+08
-4.486688e+07		1.798882e+09		-1.641878e+08
-1.321868e+08		-1.641878e+08		2.126575e+10
1.430915e+08		-8.575279e+07		-1.207919e+08
-8.575279e+07		8.507407e+08		5.612568e+07
-1.207919e+08		5.612568e+07		2.092026e+10
4.517309e+08		-1.201650e+08		-8.715549e+07
-1.201650e+08		5.407797e+08		9.323592e+07
-8.715549e+07		9.323592e+07		2.057525e+10
1.612847e+08		-1.367985e+08		-9.114828e+05
-1.367985e+08		8.105996e+07		3.876623e+08
-9.114828e+05		3.876623e+08		1.877953e+10
-4.016887e+08		-8.227762e+07		1.890140e+09
-8.227762e+07		-2.411492e+07		-3.125805e+08
1.890140e+09		-3.125805e+08		1.419337e+10
3.781173e+07		-2.322520e+08		2.112960e+09
-2.322520e+08		8.457556e+08		-1.374832e+08
2.112960e+09		-1.374832e+08		1.668974e+10
2.033138e+08		5.388733e-03		2.238446e+09
5.388733e-03		1.975636e+09		-1.176592e-02
2.238446e+09		-1.176592e-02		1.727805e+10
3.781173e+07		2.322520e+08		2.112960e+09
2.322520e+08		8.457556e+08		1.374832e+08
2.112960e+09		1.374832e+08		1.668974e+10
-4.016887e+08		8.227762e+07		1.890140e+09
8.227762e+07		-2.411492e+07		3.125805e+08
1.890140e+09		3.125805e+08		1.419337e+10
-7.755313e+08		-1.819389e+08		3.590780e+09
-1.819389e+08		-8.374514e+07		-2.886555e+08
3.590780e+09		-2.886555e+08		9.536697e+09
-2.774518e+08		-3.845868e+08		3.709503e+09
-3.845868e+08		2.465095e+08		-2.117867e+08
3.709503e+09		-2.117867e+08		1.086341e+10
-2.063737e+08		-5.183453e+08		4.037175e+09
-5.183453e+08		4.697430e+08		-2.386532e+08
4.037175e+09		-2.386532e+08		1.139415e+10
-1.046569e+08		-2.375689e+08		4.237513e+09
-2.375689e+08		1.096077e+09		2.164836e+07
4.237513e+09		2.164836e+07		1.180365e+10
-8.883963e+07		8.334704e-04		4.331969e+09
8.334704e-04		1.338805e+09		-6.194645e-03
4.331969e+09		-6.194645e-03		1.193936e+10
-1.046569e+08		2.375689e+08		4.237513e+09
2.375689e+08		1.096077e+09		-2.164836e+07
4.237513e+09		-2.164836e+07		1.180365e+10
-2.063737e+08		5.183453e+08		4.037175e+09
5.183453e+08		4.697430e+08		2.386532e+08
4.037175e+09		2.386532e+08		1.139415e+10
-2.774518e+08		3.845868e+08		3.709503e+09
3.845868e+08		2.465095e+08		2.117867e+08
3.709503e+09		2.117867e+08		1.086341e+10
-7.755313e+08		1.819389e+08		3.590780e+09
1.819389e+08		-8.374514e+07		2.886555e+08
3.590780e+09		2.886555e+08		9.536697e+09
-3.024817e+08		-2.500331e+08		4.528083e+09
-2.500331e+08		-2.854274e+07		-1.689791e+08
4.528083e+09		-1.689791e+08		4.850736e+09
1.545795e+08		-7.731942e+08		5.022521e+09
-7.731942e+08		3.408848e+08		-1.303858e+08
5.022521e+09		-1.303858e+08		5.888796e+09
2.914734e+08		4.212346e-03		5.377781e+09
4.212346e-03		8.195324e+08		-7.537471e-03
5.377781e+09		-7.537471e-03		6.208420e+09
1.545795e+08		7.731942e+08		5.022521e+09
7.731942e+08		3.408848e+08		1.303858e+08
5.022521e+09		1.303858e+08		5.888796e+09
-3.024817e+08		2.500331e+08		4.528083e+09
2.500331e+08		-2.854274e+07		1.689791e+08
4.528083e+09		1.689791e+08		4.850736e+09
-3.311745e-02		-2.825988e+08		5.130487e+09
-2.825988e+08		-9.194309e-02		7.722842e-03
5.130487e+09		7.722842e-03		-4.110803e-02
1.666827e-02		-7.013943e+08		5.179598e+09
-7.013943e+08		3.623787e-03		-1.360883e-03
5.179598e+09		-1.360883e-03		8.008610e-03
2.104522e-02		-9.447715e+08		5.607562e+09
-9.447715e+08		2.579922e-02		-2.134953e-03
5.607562e+09		-2.134953e-03		1.834214e-02
1.525360e-02		-4.163372e+08		5.886251e+09
-4.163372e+08		-1.239404e-04		-2.777986e-03
5.886251e+09		-2.777986e-03		1.318556e-02
2.380138e-02		-1.768573e-03		6.022986e+09
-1.768573e-03		3.306103e-02		-2.665676e-03
6.022986e+09		-2.665676e-03		2.411124e-02
1.211976e-02		4.163372e+08		5.886251e+09
4.163372e+08		-1.252695e-03		-2.819292e-03
5.886251e+09		-2.819292e-03		1.156715e-02
1.651402e-02		9.447715e+08		5.607562e+09
9.447715e+08		2.252997e-02		-3.046260e-03
5.607562e+09		-3.046260e-03		1.567771e-02
8.671701e-03		7.013943e+08		5.179598e+09
7.013943e+08		3.021434e-04		-2.619912e-03
5.179598e+09		-2.619912e-03		3.612254e-03
-3.936539e-02		2.825988e+08		5.130487e+09
2.825988e+08		-9.600106e-02		-2.061111e-03
5.130487e+09		-2.061111e-03		-4.481300e-02
3.024817e+08		-2.500331e+08		4.528083e+09
-2.500331e+08		2.854274e+07		1.689791e+08
4.528083e+09		1.689791e+08		-4.850736e+09
-1.545795e+08		-7.731942e+08		5.022521e+09
-7.731942e+08		-3.408848e+08		1.303858e+08
5.022521e+09		1.303858e+08		-5.888796e+09
-2.914734e+08		2.817225e-03		5.377781e+09
2.817225e-03		-8.195324e+08		-5.018767e-04
5.377781e+09		-5.018767e-04		-6.208420e+09
-1.545795e+08		7.731942e+08		5.022521e+09
7.731942e+08		-3.408848e+08		-1.303858e+08
5.022521e+09		-1.303858e+08		-5.888796e+09
3.024817e+08		2.500331e+08		4.528083e+09
2.500331e+08		2.854274e+07		-1.689791e+08
4.528083e+09		-1.689791e+08		-4.850736e+09
7.755313e+08		-1.819389e+08		3.590780e+09
-1.819389e+08		8.374514e+07		2.886555e+08
3.590780e+09		2.886555e+08		-9.536697e+09
2.774518e+08		-3.845868e+08		3.709503e+09
-3.845868e+08		-2.465095e+08		2.117867e+08
3.709503e+09		2.117867e+08		-1.086341e+10
2.063737e+08		-5.183453e+08		4.037175e+09
-5.183453e+08		-4.697430e+08		2.386532e+08
4.037175e+09		2.386532e+08		-1.139415e+10
1.046569e+08		-2.375689e+08		4.237513e+09
-2.375689e+08		-1.096077e+09		-2.164836e+07
4.237513e+09		-2.164836e+07		-1.180365e+10
8.883963e+07		-2.051654e-03		4.331969e+09
-2.051654e-03		-1.338805e+09		1.768326e-03
4.331969e+09		1.768326e-03		-1.193936e+10
1.046569e+08		2.375689e+08		4.237513e+09
2.375689e+08		-1.096077e+09		2.164836e+07
4.237513e+09		2.164836e+07		-1.180365e+10
2.063737e+08		5.183453e+08		4.037175e+09
5.183453e+08		-4.697430e+08		-2.386532e+08
4.037175e+09		-2.386532e+08		-1.139415e+10
2.774518e+08		3.845868e+08		3.709503e+09
3.845868e+08		-2.465095e+08		-2.117867e+08
3.709503e+09		-2.117867e+08		-1.086341e+10
7.755313e+08		1.819389e+08		3.590780e+09
1.819389e+08		8.374514e+07		-2.886555e+08
3.590780e+09		-2.886555e+08		-9.536697e+09
4.016887e+08		-8.227762e+07		1.890140e+09
-8.227762e+07		2.411492e+07		3.125805e+08
1.890140e+09		3.125805e+08		-1.419337e+10
-3.781173e+07		-2.322520e+08		2.112960e+09
-2.322520e+08		-8.457556e+08		1.374832e+08
2.112960e+09		1.374832e+08		-1.668974e+10
-2.033138e+08		2.098348e-03		2.238446e+09
2.098348e-03		-1.975636e+09		6.300252e-03
2.238446e+09		6.300252e-03		-1.727805e+10
-3.781173e+07		2.322520e+08		2.112960e+09
2.322520e+08		-8.457556e+08		-1.374832e+08
2.112960e+09		-1.374832e+08		-1.668974e+10
4.016887e+08		8.227762e+07		1.890140e+09
8.227762e+07		2.411492e+07		-3.125805e+08
1.890140e+09		-3.125805e+08		-1.419337e+10
-1.612847e+08		1.367985e+08		-9.114827e+05
1.367985e+08		-8.105996e+07		3.876623e+08
-9.114827e+05		3.876623e+08		-1.877953e+10
-4.517309e+08		1.201650e+08		-8.715549e+07
1.201650e+08		-5.407797e+08		9.323592e+07
-8.715549e+07		9.323592e+07		-2.057525e+10
-1.430915e+08		8.575279e+07		-1.207919e+08
8.575279e+07		-8.507407e+08		5.612568e+07
-1.207919e+08		5.612568e+07		-2.092026e+10
-2.627521e+08		4.486688e+07		-1.321868e+08
4.486688e+07		-1.798882e+09		-1.641878e+08
-1.321868e+08		-1.641878e+08		-2.126575e+10
-2.728707e+08		1.118257e-02		-1.920299e+08
1.118257e-02		-2.130230e+09		5.378600e-03
-1.920299e+08		5.378600e-03		-2.129782e+10
-2.627521e+08		-4.486688e+07		-1.321868e+08
-4.486688e+07		-1.798882e+09		1.641878e+08
-1.321868e+08		1.641878e+08		-2.126575e+10
-1.430915e+08		-8.575279e+07		-1.207919e+08
-8.575279e+07		-8.507407e+08		-5.612568e+07
-1.207919e+08		-5.612568e+07		-2.092026e+10
-4.517309e+08		-1.201650e+08		-8.715549e+07
-1.201650e+08		-5.407797e+08		-9.323592e+07
-8.715549e+07		-9.323592e+07		-2.057525e+10
-1.612847e+08		-1.367985e+08		-9.114828e+05
-1.367985e+08		-8.105996e+07		-3.876623e+08
-9.114828e+05		-3.876623e+08		-1.877953e+10
1.868641e+08		1.669816e+07		3.292490e+08
1.669816e+07		1.369169e+08		-1.318305e+08
3.292490e+08		-1.318305e+08		1.810529e+10
1.892729e+08		2.345663e+07		1.796809e+08
2.345663e+07		7.131587e+08		-3.935542e+08
1.796809e+08		-3.935542e+08		1.949176e+10
2.146788e+08		8.795344e-03		1.659539e+08
8.795344e-03		1.470240e+09		-4.902944e-03
1.659539e+08		-4.902944e-03		1.983977e+10
1.892729e+08		-2.345663e+07		1.796809e+08
-2.345663e+07		7.131587e+08		3.935542e+08
1.796809e+08		3.935542e+08		1.949176e+10
1.868641e+08		-1.669816e+07		3.292490e+08
-1.669816e+07		1.369169e+08		1.318305e+08
3.292490e+08		1.318305e+08		1.810529e+10
-4.285207e+08		-1.131019e+08		4.026956e+09
-1.131019e+08		6.691499e+07		4.632365e+06
4.026956e+09		4.632365e+06		9.084319e+09
-1.605416e+08		-4.485842e+08		3.798016e+09
-4.485842e+08		2.989303e+08		-2.459444e+08
3.798016e+09		-2.459444e+08		1.011630e+10
-1.482765e+08		4.447913e-03		3.948672e+09
4.447913e-03		7.540951e+08		-3.866468e-03
3.948672e+09		-3.866468e-03		1.046823e+10
-1.605416e+08		4.485842e+08		3.798016e+09
4.485842e+08		2.989303e+08		2.459444e+08
3.798016e+09		2.459444e+08		1.011630e+10
-4.285207e+08		1.131019e+08		4.026956e+09
1.131019e+08		6.691499e+07		-4.632365e+06
4.026956e+09		-4.632365e+06		9.084319e+09
-1.563062e-02		-1.721267e+08		5.512647e+09
-1.721267e+08		-6.650767e-02		2.707419e-03
5.512647e+09		2.707419e-03		-2.285323e-02
2.787517e-02		-7.754554e+08		5.278348e+09
-7.754554e+08		3.331732e-02		4.350643e-04
5.278348e+09		4.350643e-04		1.899904e-02
2.966500e-02		2.430517e-03		5.504772e+09
2.430517e-03		4.107341e-02		3.285893e-04
5.504772e+09		3.285893e-04		2.011259e-02
2.425927e-02		7.754554e+08		5.278348e+09
7.754554e+08		3.043535e-02		-9.462936e-06
5.278348e+09		-9.462936e-06		1.598667e-02
-1.758167e-02		1.721267e+08		5.512647e+09
1.721267e+08		-6.337898e-02		2.110806e-03
5.512647e+09		2.110806e-03		-2.418736e-02
4.285207e+08		-1.131019e+08		4.026956e+09
-1.131019e+08		-6.691499e+07		-4.632365e+06
4.026956e+09		-4.632365e+06		-9.084319e+09
1.605416e+08		-4.485842e+08		3.798016e+09
-4.485842e+08		-2.989303e+08		2.459444e+08
3.798016e+09		2.459444e+08		-1.011630e+10
1.482765e+08		2.440273e-03		3.948672e+09
2.440273e-03		-7.540951e+08		5.475124e-03
3.948672e+09		5.475124e-03		-1.046823e+10
1.605416e+08		4.485842e+08		3.798016e+09
4.485842e+08		-2.989303e+08		-2.459444e+08
3.798016e+09		-2.459444e+08		-1.011630e+10
4.285207e+08		1.131019e+08		4.026956e+09
1.131019e+08		-6.691499e+07		4.632365e+06
4.026956e+09		4.632365e+06		-9.084319e+09
-1.868641e+08		1.669817e+07		3.292490e+08
1.669817e+07		-1.369169e+08		1.318305e+08
3.292490e+08		1.318305e+08		-1.810529e+10
-1.892729e+08		2.345663e+07		1.796809e+08
2.345663e+07		-7.131587e+08		3.935542e+08
1.796809e+08		3.935542e+08		-1.949176e+10
-2.146788e+08		1.022116e-02		1.659539e+08
1.022116e-02		-1.470240e+09		8.435383e-03
1.659539e+08		8.435383e-03		-1.983977e+10
-1.892729e+08		-2.345663e+07		1.796809e+08
-2.345663e+07		-7.131587e+08		-3.935542e+08
1.796809e+08		-3.935542e+08		-1.949176e+10
-1.868641e+08		-1.669817e+07		3.292490e+08
-1.669817e+07		-1.369169e+08		-1.318305e+08
3.292490e+08		-1.318305e+08		-1.810529e+10
-1.299588e+08		-2.953065e+05		5.243998e+08
-2.953065e+05		-1.519886e+08		-3.644875e+08
5.243998e+08		-3.644875e+08		1.652177e+10
-1.084428e+07		3.306335e+07		2.362236e+08
3.306335e+07		2.062597e+08		-6.503122e+08
2.362236e+08		-6.503122e+08		1.707940e+10
-7.007781e+07		9.481833e+06		2.373224e+08
9.481833e+06		4.562827e+08		-8.238482e+08
2.373224e+08		-8.238482e+08		1.738614e+10
-6.733336e+07		2.324574e+07		1.981420e+08
2.324574e+07		7.040391e+08		-3.578718e+08
1.981420e+08		-3.578718e+08		1.765465e+10
-3.332249e+07		-7.705369e-04		2.055715e+08
-7.705369e-04		9.118011e+08		-6.472614e-03
2.055715e+08		-6.472614e-03		1.784299e+10
-6.733336e+07		-2.324574e+07		1.981420e+08
-2.324574e+07		7.040391e+08		3.578718e+08
1.981420e+08		3.578718e+08		1.765465e+10
-7.007781e+07		-9.481833e+06		2.373224e+08
-9.481833e+06		4.562827e+08		8.238482e+08
2.373224e+08		8.238482e+08		1.738614e+10
-1.084428e+07		-3.306335e+07		2.362236e+08
-3.306335e+07		2.062597e+08		6.503122e+08
2.362236e+08		6.503122e+08		1.707940e+10
-1.299588e+08		2.953065e+05		5.243998e+08
2.953065e+05		-1.519886e+08		3.644875e+08
5.243998e+08		3.644875e+08		1.652177e+10
-1.981173e+08		-5.615565e+07		2.609987e+09
-5.615565e+07		-1.252521e+08		-1.283731e+08
2.609987e+09		-1.283731e+08		1.217355e+10
-6.008556e+07		-1.891695e+08		2.065896e+09
-1.891695e+08		3.091969e+08		-5.217731e+08
2.065896e+09		-5.217731e+08		1.302108e+10
3.821895e+06		5.602369e-03		2.033200e+09
5.602369e-03		6.757521e+08		-1.138433e-02
2.033200e+09		-1.138433e-02		1.349012e+10
-6.008556e+07		1.891695e+08		2.065896e+09
1.891695e+08		3.091969e+08		5.217731e+08
2.065896e+09		5.217731e+08		1.302108e+10
-1.981173e+08		5.615565e+07		2.609987e+09
5.615565e+07		-1.252521e+08		1.283731e+08
2.609987e+09		1.283731e+08		1.217355e+10
-2.497061e+08		-6.421114e+07		4.643478e+09
-6.421114e+07		-4.598720e+07		-7.080836e+07
4.643478e+09		-7.080836e+07		8.105816e+09
-1.443122e+08		-2.121218e+08		4.085282e+09
-2.121218e+08		6.213465e+07		-2.304035e+08
4.085282e+09		-2.304035e+08		8.406966e+09
-1.053563e+08		-3.584184e+08		3.849656e+09
-3.584184e+08		1.537252e+08		-3.413845e+08
3.849656e+09		-3.413845e+08		8.703440e+09
-8.449422e+07		-1.721913e+08		3.833448e+09
-1.721913e+08		3.036420e+08		-1.575189e+08
3.833448e+09		-1.575189e+08		8.941485e+09
-6.215025e+07		3.896200e-03		3.820223e+09
3.896200e-03		4.134628e+08		-6.269478e-03
3.820223e+09		-6.269478e-03		9.066494e+09
-8.449422e+07		1.721913e+08		3.833448e+09
1.721913e+08		3.036420e+08		1.575189e+08
3.833448e+09		1.575189e+08		8.941485e+09
-1.053563e+08		3.584184e+08		3.849656e+09
3.584184e+08		1.537252e+08		3.413845e+08
3.849656e+09		3.413845e+08		8.703440e+09
-1.443122e+08		2.121218e+08		4.085282e+09
2.121218e+08		6.213465e+07		2.304035e+08
4.085282e+09		2.304035e+08		8.406966e+09
-2.497061e+08		6.421114e+07		4.643478e+09
6.421114e+07		-4.598720e+07		7.080836e+07
4.643478e+09		7.080836e+07		8.105816e+09
-2.013711e+08		-9.466943e+07		5.443372e+09
-9.466943e+07		-5.535566e+07		-5.252146e+07
5.443372e+09		-5.252146e+07		4.023230e+09
-7.583295e+07		-4.760621e+08		4.694088e+09
-4.760621e+08		6.550981e+07		-1.752888e+08
4.694088e+09		-1.752888e+08		4.363013e+09
-4.224689e+07		7.991722e-03		4.712181e+09
7.991722e-03		1.979161e+08		-6.200223e-03
4.712181e+09		-6.200223e-03		4.567305e+09
-7.583295e+07		4.760621e+08		4.694088e+09
4.760621e+08		6.550981e+07		1.752888e+08
4.694088e+09		1.752888e+08		4.363013e+09
-2.013711e+08		9.466943e+07		5.443372e+09
9.466943e+07		-5.535566e+07		5.252146e+07
5.443372e+09		5.252146e+07		4.023230e+09
-2.826575e-02		-9.525650e+07		6.149458e+09
-9.525650e+07		-7.077029e-02		1.349379e-02
6.149458e+09		1.349379e-02		-3.975753e-02
6.495047e-03		-3.438860e+08		5.559482e+09
-3.438860e+08		-3.083210e-03		1.583418e-02
5.559482e+09		1.583418e-02		-8.923411e-03
1.157714e-02		-5.583700e+08		5.364221e+09
-5.583700e+08		1.327514e-02		1.029756e-02
5.364221e+09		1.029756e-02		4.002923e-03
8.990319e-03		-2.790739e+08		5.375926e+09
-2.790739e+08		-3.432162e-03		5.314905e-03
5.375926e+09		5.314905e-03		-1.356848e-03
1.611675e-02		4.437523e-03		5.391722e+09
4.437523e-03		2.024278e-02		-9.684199e-04
5.391722e+09		-9.684199e-04		1.088660e-02
1.103817e-02		2.790739e+08		5.375926e+09
2.790739e+08		-1.740157e-03		-7.576279e-03
5.375926e+09		-7.576279e-03		1.661628e-03
1.401433e-02		5.583700e+08		5.364221e+09
5.583700e+08		1.507569e-02		-1.204101e-02
5.364221e+09		-1.204101e-02		7.696563e-03
1.182276e-02		3.438860e+08		5.559482e+09
3.438860e+08		1.044972e-03		-1.702525e-02
5.559482e+09		-1.702525e-02		-4.788265e-04
-1.793746e-02		9.525650e+07		6.149458e+09
9.525650e+07		-5.405591e-02		-1.189916e-02
6.149458e+09		-1.189916e-02		-2.674888e-02
2.013711e+08		-9.466943e+07		5.443372e+09
-9.466943e+07		5.535566e+07		5.252146e+07
5.443372e+09		5.252146e+07		-4.023230e+09
7.583295e+07		-4.760621e+08		4.694088e+09
-4.760621e+08		-6.550981e+07		1.752888e+08
4.694088e+09		1.752888e+08		-4.363013e+09
4.224689e+07		8.316515e-03		4.712181e+09
8.316515e-03		-1.979161e+08		5.047990e-03
4.712181e+09		5.047990e-03		-4.567305e+09
7.583295e+07		4.760621e+08		4.694088e+09
4.760621e+08		-6.550981e+07		-1.752888e+08
4.694088e+09		-1.752888e+08		-4.363013e+09
2.013711e+08		9.466943e+07		5.443372e+09
9.466943e+07		5.535566e+07		-5.252146e+07
5.443372e+09		-5.252146e+07		-4.023230e+09
2.497061e+08		-6.421114e+07		4.643478e+09
-6.421114e+07		4.598720e+07		7.080836e+07
4.643478e+09		7.080836e+07		-8.105816e+09
1.443122e+08		-2.121218e+08		4.085282e+09
-2.121218e+08		-6.213465e+07		2.304035e+08
4.085282e+09		2.304035e+08		-8.406966e+09
1.053563e+08		-3.584184e+08		3.849656e+09
-3.584184e+08		-1.537252e+08		3.413845e+08
3.849656e+09		3.413845e+08		-8.703440e+09
8.449422e+07		-1.721913e+08		3.833448e+09
-1.721913e+08		-3.036420e+08		1.575189e+08
3.833448e+09		1.575189e+08		-8.941485e+09
6.215025e+07		4.594128e-03		3.820223e+09
4.594128e-03		-4.134628e+08		6.759638e-03
3.820223e+09		6.759638e-03		-9.066494e+09
8.449422e+07		1.721913e+08		3.833448e+09
1.721913e+08		-3.036420e+08		-1.575189e+08
3.833448e+09		-1.575189e+08		-8.941485e+09
1.053563e+08		3.584184e+08		3.849656e+09
3.584184e+08		-1.537252e+08		-3.413845e+08
3.849656e+09		-3.413845e+08		-8.703440e+09
1.443122e+08		2.121218e+08		4.085282e+09
2.121218e+08		-6.213465e+07		-2.304035e+08
4.085282e+09		-2.304035e+08		-8.406966e+09
2.497061e+08		6.421114e+07		4.643478e+09
6.421114e+07		4.598720e+07		-7.080836e+07
4.643478e+09		-7.080836e+07		-8.105816e+09
1.981173e+08		-5.615565e+07		2.609987e+09
-5.615565e+07		1.252521e+08		1.283731e+08
2.609987e+09		1.283731e+08		-1.217355e+10
6.008556e+07		-1.891695e+08		2.065896e+09
-1.891695e+08		-3.091969e+08		5.217731e+08
2.065896e+09		5.217731e+08		-1.302108e+10
-3.821895e+06		6.595542e-03		2.033200e+09
6.595542e-03		-6.757521e+08		1.552465e-02
2.033200e+09		1.552465e-02		-1.349012e+10
6.008556e+07		1.891695e+08		2.065896e+09
1.891695e+08		-3.091969e+08		-5.217731e+08
2.065896e+09		-5.217731e+08		-1.302108e+10
1.981173e+08		5.615565e+07		2.609987e+09
5.615565e+07		1.252521e+08		-1.283731e+08
2.609987e+09		-1.283731e+08		-1.217355e+10
1.299588e+08		-2.953064e+05		5.243998e+08
-2.953064e+05		1.519886e+08		3.644875e+08
5.243998e+08		3.644875e+08		-1.652177e+10
1.084428e+07		3.306335e+07		2.362236e+08
3.306335e+07		-2.062597e+08		6.503122e+08
2.362236e+08		6.503122e+08		-1.707940e+10
7.007781e+07		9.481833e+06		2.373224e+08
9.481833e+06		-4.562827e+08		8.238482e+08
2.373224e+08		8.238482e+08		-1.738614e+10
6.733336e+07		2.324574e+07		1.981420e+08
2.324574e+07		-7.040391e+08		3.578718e+08
1.981420e+08		3.578718e+08		-1.765465e+10
3.332249e+07		5.778252e-03		2.055715e+08
5.778252e-03		-9.118011e+08		1.099624e-02
2.055715e+08		1.099624e-02		-1.784299e+10
6.733336e+07		-2.324574e+07		1.981420e+08
-2.324574e+07		-7.040391e+08		-3.578718e+08
1.981420e+08		-3.578718e+08		-1.765465e+10
7.007781e+07		-9.481833e+06		2.373224e+08
-9.481833e+06		-4.562827e+08		-8.238482e+08
2.373224e+08		-8.238482e+08		-1.738614e+10
1.084428e+07		-3.306335e+07		2.362236e+08
-3.306335e+07		-2.062597e+08		-6.503122e+08
2.362236e+08		-6.503122e+08		-1.707940e+10
1.299588e+08		2.953064e+05		5.243998e+08
2.953064e+05		1.519886e+08		-3.644875e+08
5.243998e+08		-3.644875e+08		-1.652177e+10
-5.404257e+07		1.790192e+06		4.259753e+08
1.790192e+06		-8.683877e+07		-4.020942e+08
4.259753e+08		-4.020942e+08		1.462554e+10
-4.024182e+07		-2.812574e+06		7.724431e+07
-2.812574e+06		2.651888e+08		-8.665215e+08
7.724431e+07		-8.665215e+08		1.518562e+10
-3.299822e+07		-1.870842e-03		5.133763e+07
-1.870842e-03		5.318526e+08		-2.961203e-03
5.133763e+07		-2.961203e-03		1.543701e+10
-4.024182e+07		2.812574e+06		7.724431e+07
2.812574e+06		2.651888e+08		8.665215e+08
7.724431e+07		8.665215e+08		1.518562e+10
-5.404257e+07		-1.790192e+06		4.259753e+08
-1.790192e+06		-8.683877e+07		4.020942e+08
4.259753e+08		4.020942e+08		1.462554e+10
-1.618984e+08		-4.408686e+07		4.763146e+09
-4.408686e+07		-3.737053e+07		-5.640491e+07
4.763146e+09		-5.640491e+07		7.139639e+09
-6.062607e+07		-2.603229e+08		3.693070e+09
-2.603229e+08		7.594223e+07		-2.830470e+08
3.693070e+09		-2.830470e+08		7.558148e+09
-4.742991e+07		7.285086e-03		3.540867e+09
7.285086e-03		2.104338e+08		-3.074451e-03
3.540867e+09		-3.074451e-03		7.765210e+09
-6.062607e+07		2.603229e+08		3.693070e+09
2.603229e+08		7.594223e+07		2.830470e+08
3.693070e+09		2.830470e+08		7.558148e+09
-1.618984e+08		4.408686e+07		4.763146e+09
4.408686e+07		-3.737053e+07		5.640491e+07
4.763146e+09		5.640491e+07		7.139639e+09
2.913104e-03		-5.999416e+07		6.131573e+09
-5.999416e+07		-2.089689e-02		-1.073799e-02
6.131573e+09		-1.073799e-02		-1.208164e-03
2.060784e-02		-3.952239e+08		5.033740e+09
-3.952239e+08		1.722947e-02		2.575994e-04
5.033740e+09		2.575994e-04		1.514971e-02
2.381486e-02		1.096795e-02		4.877707e+09
1.096795e-02		2.092842e-02		4.964299e-05
4.877707e+09		4.964299e-05		1.645163e-02
2.540938e-02		3.952239e+08		5.033740e+09
3.952239e+08		1.927753e-02		-2.097009e-04
5.033740e+09		-2.097009e-04		1.648579e-02
1.418870e-02		5.999416e+07		6.131573e+09
5.999416e+07		-7.856629e-03		8.760442e-03
6.131573e+09		8.760442e-03		4.800618e-03
1.618984e+08		-4.408686e+07		4.763146e+09
-4.408686e+07		3.737053e+07		5.640491e+07
4.763146e+09		5.640491e+07		-7.139639e+09
6.062607e+07		-2.603229e+08		3.693070e+09
-2.603229e+08		-7.594223e+07		2.830470e+08
3.693070e+09		2.830470e+08		-7.558148e+09
4.742991e+07		1.154503e-02		3.540867e+09
1.154503e-02		-2.104338e+08		4.210050e-03
3.540867e+09		4.210050e-03		-7.765210e+09
6.062607e+07		2.603229e+08		3.693070e+09
2.603229e+08		-7.594223e+07		-2.830470e+08
3.693070e+09		-2.830470e+08		-7.558148e+09
1.618984e+08		4.408686e+07		4.763146e+09
4.408686e+07		3.737053e+07		-5.640491e+07
4.763146e+09		-5.640491e+07		-7.139639e+09
5.404257e+07		1.790192e+06		4.259753e+08
1.790192e+06		8.683877e+07		4.020942e+08
4.259753e+08		4.020942e+08		-1.462554e+10
4.024182e+07		-2.812574e+06		7.724431e+07
-2.812574e+06		-2.651888e+08		8.665215e+08
7.724431e+07		8.665215e+08		-1.518562e+10
3.299822e+07		2.137488e-03		5.133763e+07
2.137488e-03		-5.318526e+08		5.685728e-03
5.133763e+07		5.685728e-03		-1.543701e+10
4.024182e+07		2.812574e+06		7.724431e+07
2.812574e+06		-2.651888e+08		-8.665215e+08
7.724431e+07		-8.665215e+08		-1.518562e+10
5.404257e+07		-1.790192e+06		4.259753e+08
-1.790192e+06		8.683877e+07		-4.020942e+08
4.259753e+08		-4.020942e+08		-1.462554e+10
2.265687e+07		1.405785e+07		6.501872e+08
1.405785e+07		1.395941e+07		-4.623071e+08
6.501872e+08		-4.623071e+08		1.272879e+10
3.777566e+07		1.251129e+07		2.657729e+08
1.251129e+07		9.276125e+07		-7.613302e+08
2.657729e+08		-7.613302e+08		1.293244e+10
7.809988e+06		-1.480137e+06		2.683638e+08
-1.480137e+06		1.736397e+08		-9.572017e+08
2.683638e+08		-9.572017e+08		1.305026e+10
2.315109e+07		3.631381e+06		2.083739e+08
3.631381e+06		2.935084e+08		-4.428737e+08
2.083739e+08		-4.428737e+08		1.317763e+10
6.171128e+06		-5.116042e-03		2.491373e+08
-5.116042e-03		3.253551e+08		2.794031e-03
2.491373e+08		2.794031e-03		1.319098e+10
2.315109e+07		-3.631381e+06		2.083739e+08
-3.631381e+06		2.935084e+08		4.428737e+08
2.083739e+08		4.428737e+08		1.317763e+10
7.809988e+06		1.480137e+06		2.683638e+08
1.480137e+06		1.736397e+08		9.572017e+08
2.683638e+08		9.572017e+08		1.305026e+10
3.777566e+07		-1.251129e+07		2.657729e+08
-1.251129e+07		9.276125e+07		7.613302e+08
2.657729e+08		7.613302e+08		1.293244e+10
2.265687e+07		-1.405785e+07		6.501872e+08
-1.405785e+07		1.395941e+07		4.623071e+08
6.501872e+08		4.623071e+08		1.272879e+10
-4.742948e+07		-2.434041e+07		3.023631e+09
-2.434041e+07		-1.189703e+07		-1.179506e+08
3.023631e+09		-1.179506e+08		9.404602e+09
-1.083390e+07		-9.367072e+07		2.133979e+09
-9.367072e+07		1.043049e+08		-5.287645e+08
2.133979e+09		-5.287645e+08		9.746434e+09
-1.134408e+07		3.244896e-03		1.996597e+09
3.244896e-03		2.015176e+08		2.092130e-03
1.996597e+09		2.092130e-03		9.890016e+09
-1.083390e+07		9.367072e+07		2.133979e+09
9.367072e+07		1.043049e+08		5.287645e+08
2.133979e+09		5.287645e+08		9.746434e+09
-4.742948e+07		2.434041e+07		3.023631e+09
2.434041e+07		-1.189703e+07		1.179506e+08
3.023631e+09		1.179506e+08		9.404602e+09
-6.162111e+07		-3.805490e+07		5.192188e+09
-3.805490e+07		5.247540e+06		-6.437548e+07
5.192188e+09		-6.437548e+07		6.226738e+09
-2.504917e+07		-1.079118e+08		4.336604e+09
-1.079118e+08		2.447572e+07		-1.809006e+08
4.336604e+09		-1.809006e+08		6.353718e+09
-1.371459e+07		-1.731034e+08		3.867171e+09
-1.731034e+08		4.589493e+07		-2.729179e+08
3.867171e+09		-2.729179e+08		6.460410e+09
-6.673600e+06		-8.927634e+07		3.679419e+09
-8.927634e+07		9.467686e+07		-1.443189e+08
3.679419e+09		-1.443189e+08		6.556492e+09
-2.252295e+07		4.272172e-03		3.613112e+09
4.272172e-03		9.315347e+07		6.723041e-04
3.613112e+09		6.723041e-04		6.565783e+09
-6.673600e+06		8.927634e+07		3.679419e+09
8.927634e+07		9.467686e+07		1.443189e+08
3.679419e+09		1.443189e+08		6.556492e+09
-1.371459e+07		1.731034e+08		3.867171e+09
1.731034e+08		4.589493e+07		2.729179e+08
3.867171e+09		2.729179e+08		6.460410e+09
-2.504917e+07		1.079118e+08		4.336604e+09
1.079118e+08		2.447572e+07		1.809006e+08
4.336604e+09		1.809006e+08		6.353718e+09
-6.162111e+07		3.805490e+07		5.192188e+09
3.805490e+07		5.247540e+06		6.437548e+07
5.192188e+09		6.437548e+07		6.226738e+09
-5.684393e+07		-4.534732e+07		5.885712e+09
-4.534732e+07		-7.318386e+06		-2.141160e+07
5.885712e+09		-2.141160e+07		3.104669e+09
-1.736685e+07		-2.175621e+08		4.602330e+09
-2.175621e+08		1.830985e+07		-1.282987e+08
4.602330e+09		-1.282987e+08		3.235273e+09
-1.472705e+07		8.138509e-03		4.335179e+09
8.138509e-03		4.457150e+07		1.874236e-03
4.335179e+09		1.874236e-03		3.301588e+09
-1.736685e+07		2.175621e+08		4.602330e+09
2.175621e+08		1.830985e+07		1.282987e+08
4.602330e+09		1.282987e+08		3.235273e+09
-5.684393e+07		4.534732e+07		5.885712e+09
4.534732e+07		-7.318386e+06		2.141160e+07
5.885712e+09		2.141160e+07		3.104669e+09
6.449463e-03		-4.788226e+07		6.485195e+09
-4.788226e+07		5.520832e-03		1.907251e-04
6.485195e+09		1.907251e-04		-2.348639e-03
7.010357e-03		-1.600535e+08		5.618381e+09
-1.600535e+08		-2.846960e-04		2.142957e-02
5.618381e+09		2.142957e-02		-8.536123e-03
3.514447e-03		-2.514122e+08		5.131806e+09
-2.514122e+08		-2.089311e-03		1.617272e-02
5.131806e+09		1.617272e-02		-6.817347e-03
9.376002e-03		-1.336057e+08		4.899288e+09
-1.336057e+08		9.800289e-04		1.013121e-02
4.899288e+09		1.013121e-02		-8.675141e-03
4.983979e-03		8.015389e-03		4.824017e+09
8.015389e-03		-2.655350e-03		1.840258e-03
4.824017e+09		1.840258e-03		-7.131726e-03
1.351593e-02		1.336057e+08		4.899288e+09
1.336057e+08		2.838974e-03		-6.079719e-03
4.899288e+09		-6.079719e-03		-7.142531e-03
8.153089e-03		2.514122e+08		5.131806e+09
2.514122e+08		-4.653651e-04		-1.227964e-02
5.131806e+09		-1.227964e-02		-5.424920e-03
1.716978e-02		1.600535e+08		5.618381e+09
1.600535e+08		4.074250e-03		-1.801093e-02
5.618381e+09		-1.801093e-02		-4.509535e-03
1.621627e-02		4.788226e+07		6.485195e+09
4.788226e+07		1.437974e-02		-3.670828e-03
6.485195e+09		-3.670828e-03		3.046302e-03
5.684393e+07		-4.534732e+07		5.885712e+09
-4.534732e+07		7.318386e+06		2.141160e+07
5.885712e+09		2.141160e+07		-3.104669e+09
1.736685e+07		-2.175621e+08		4.602330e+09
-2.175621e+08		-1.830985e+07		1.282987e+08
4.602330e+09		1.282987e+08		-3.235273e+09
1.472705e+07		9.923007e-03		4.335179e+09
9.923007e-03		-4.457150e+07		5.154955e-03
4.335179e+09		5.154955e-03		-3.301588e+09
1.736685e+07		2.175621e+08		4.602330e+09
2.175621e+08		-1.830985e+07		-1.282987e+08
4.602330e+09		-1.282987e+08		-3.235273e+09
5.684393e+07		4.534732e+07		5.885712e+09
4.534732e+07		7.318386e+06		-2.141160e+07
5.885712e+09		-2.141160e+07		-3.104669e+09
6.162111e+07		-3.805490e+07		5.192188e+09
-3.805490e+07		-5.247540e+06		6.437548e+07
5.192188e+09		6.437548e+07		-6.226738e+09
2.504917e+07		-1.079118e+08		4.336604e+09
-1.079118e+08		-2.447572e+07		1.809006e+08
4.336604e+09		1.809006e+08		-6.353718e+09
1.371459e+07		-1.731034e+08		3.867171e+09
-1.731034e+08		-4.589493e+07		2.729179e+08
3.867171e+09		2.729179e+08		-6.460410e+09
6.673600e+06		-8.927634e+07		3.679419e+09
-8.927634e+07		-9.467686e+07		1.443189e+08
3.679419e+09		1.443189e+08		-6.556492e+09
2.252295e+07		8.466579e-03		3.613112e+09
8.466579e-03		-9.315347e+07		4.254231e-03
3.613112e+09		4.254231e-03		-6.565783e+09
6.673600e+06		8.927634e+07		3.679419e+09
8.927634e+07		-9.467686e+07		-1.443189e+08
3.679419e+09		-1.443189e+08		-6.556492e+09
1.371459e+07		1.731034e+08		3.867171e+09
1.731034e+08		-4.589493e+07		-2.729179e+08
3.867171e+09		-2.729179e+08		-6.460410e+09
2.504917e+07		1.079118e+08		4.336604e+09
1.079118e+08		-2.447572e+07		-1.809006e+08
4.336604e+09		-1.809006e+08		-6.353718e+09
6.162111e+07		3.805490e+07		5.192188e+09
3.805490e+07		-5.247540e+06		-6.437548e+07
5.192188e+09		-6.437548e+07		-6.226738e+09
4.742948e+07		-2.434041e+07		3.023631e+09
-2.434041e+07		1.189703e+07		1.179506e+08
3.023631e+09		1.179506e+08		-9.404602e+09
1.083390e+07		-9.367072e+07		2.133979e+09
-9.367072e+07		-1.043049e+08		5.287645e+08
2.133979e+09		5.287645e+08		-9.746434e+09
1.134408e+07		6.623012e-03		1.996597e+09
6.623012e-03		-2.015176e+08		7.312400e-03
1.996597e+09		7.312400e-03		-9.890016e+09
1.083390e+07		9.367072e+07		2.133979e+09
9.367072e+07		-1.043049e+08		-5.287645e+08
2.133979e+09		-5.287645e+08		-9.746434e+09
4.742948e+07		2.434041e+07		3.023631e+09
2.434041e+07		1.189703e+07		-1.179506e+08
3.023631e+09		-1.179506e+08		-9.404602e+09
-2.265687e+07		1.405785e+07		6.501872e+08
1.405785e+07		-1.395941e+07		4.623071e+08
6.501872e+08		4.623071e+08		-1.272879e+10
-3.777566e+07		1.251129e+07		2.657729e+08
1.251129e+07		-9.276125e+07		7.613302e+08
2.657729e+08		7.613302e+08		-1.293244e+10
-7.809988e+06		-1.480137e+06		2.683638e+08
-1.480137e+06		-1.736397e+08		9.572017e+08
2.683638e+08		9.572017e+08		-1.305026e+10
-2.315109e+07		3.631381e+06		2.083739e+08
3.631381e+06		-2.935084e+08		4.428737e+08
2.083739e+08		4.428737e+08		-1.317763e+10
-6.171128e+06		-7.707351e-03		2.491373e+08
-7.707351e-03		-3.253551e+08		3.774278e-03
2.491373e+08		3.774278e-03		-1.319098e+10
-2.315109e+07		-3.631381e+06		2.083739e+08
-3.631381e+06		-2.935084e+08		-4.428737e+08
2.083739e+08		-4.428737e+08		-1.317763e+10
-7.809988e+06		1.480137e+06		2.683638e+08
1.480137e+06		-1.736397e+08		-9.572017e+08
2.683638e+08		-9.572017e+08		-1.305026e+10
-3.777566e+07		-1.251129e+07		2.657729e+08
-1.251129e+07		-9.276125e+07		-7.613302e+08
2.657729e+08		-7.613302e+08		-1.293244e+10
-2.265687e+07		-1.405785e+07		6.501872e+08
-1.405785e+07		-1.395941e+07		-4.623071e+08
6.501872e+08		-4.623071e+08		-1.272879e+10
-4.699445e+06		6.099987e+06		5.002998e+08
6.099987e+06		-1.571229e+07		-4.395176e+08
5.002998e+08		-4.395176e+08		1.063145e+10
2.982974e+06		-3.106127e+06		1.016132e+08
-3.106127e+06		1.016139e+08		-9.535026e+08
1.016132e+08		-9.535026e+08		1.086140e+10
9.814925e+06		-3.236231e-03		8.238596e+07
-3.236231e-03		2.083076e+08		3.430024e-04
8.238596e+07		3.430024e-04		1.096248e+10
2.982974e+06		3.106127e+06		1.016132e+08
3.106127e+06		1.016139e+08		9.535026e+08
1.016132e+08		9.535026e+08		1.086140e+10
-4.699445e+06		-6.099987e+06		5.002998e+08
-6.099987e+06		-1.571229e+07		4.395176e+08
5.002998e+08		4.395176e+08		1.063145e+10
-3.610082e+07		-2.039799e+07		5.135998e+09
-2.039799e+07		-1.114052e+06		-4.225264e+07
5.135998e+09		-4.225264e+07		5.233955e+09
8.380727e+06		-1.167580e+08		3.692380e+09
-1.167580e+08		3.326914e+07		-2.410050e+08
3.692380e+09		-2.410050e+08		5.403314e+09
1.251495e+07		3.572364e-03		3.385918e+09
3.572364e-03		7.063447e+07		-8.567981e-04
3.385918e+09		-8.567981e-04		5.483201e+09
8.380727e+06		1.167580e+08		3.692380e+09
1.167580e+08		3.326914e+07		2.410050e+08
3.692380e+09		2.410050e+08		5.403314e+09
-3.610082e+07		2.039799e+07		5.135998e+09
2.039799e+07		-1.114052e+06		4.225264e+07
5.135998e+09		4.225264e+07		5.233955e+09
3.132448e-02		-2.640704e+07		6.434858e+09
-2.640704e+07		4.384352e-02		-2.011914e-02
6.434858e+09		-2.011914e-02		2.422560e-02
1.249651e-02		-1.685118e+08		4.952514e+09
-1.685118e+08		-2.379307e-03		1.387673e-04
4.952514e+09		1.387673e-04		5.936109e-03
1.365627e-02		1.002372e-02		4.569150e+09
1.002372e-02		-7.089350e-03		-3.707236e-04
4.569150e+09		-3.707236e-04		6.295528e-03
2.131530e-02		1.685118e+08		4.952514e+09
1.685118e+08		1.772837e-03		-7.161839e-04
4.952514e+09		-7.161839e-04		1.121228e-02
4.375333e-02		2.640703e+07		6.434858e+09
2.640703e+07		4.924592e-02		1.749721e-02
6.434858e+09		1.749721e-02		3.179754e-02
3.610082e+07		-2.039799e+07		5.135998e+09
-2.039799e+07		1.114052e+06		4.225264e+07
5.135998e+09		4.225264e+07		-5.233955e+09
-8.380727e+06		-1.167580e+08		3.692380e+09
-1.167580e+08		-3.326914e+07		2.410050e+08
3.692380e+09		2.410050e+08		-5.403314e+09
-1.251495e+07		1.039140e-02		3.385918e+09
1.039140e-02		-7.063447e+07		-3.425404e-05
3.385918e+09		-3.425404e-05		-5.483201e+09
-8.380727e+06		1.167580e+08		3.692380e+09
1.167580e+08		-3.326914e+07		-2.410050e+08
3.692380e+09		-2.410050e+08		-5.403314e+09
3.610082e+07		2.039798e+07		5.135998e+09
2.039798e+07		1.114052e+06		-4.225264e+07
5.135998e+09		-4.225264e+07		-5.233955e+09
4.699445e+06		6.099987e+06		5.002998e+08
6.099987e+06		1.571229e+07		4.395176e+08
5.002998e+08		4.395176e+08		-1.063145e+10
-2.982974e+06		-3.106127e+06		1.016132e+08
-3.106127e+06		-1.016139e+08		9.535026e+08
1.016132e+08		9.535026e+08		-1.086140e+10
-9.814925e+06		-6.658227e-03		8.238596e+07
-6.658227e-03		-2.083076e+08		-1.267195e-03
8.238596e+07		-1.267195e-03		-1.096248e+10
-2.982974e+06		3.106127e+06		1.016132e+08
3.106127e+06		-1.016139e+08		-9.535026e+08
1.016132e+08		-9.535026e+08		-1.086140e+10
4.699445e+06		-6.099987e+06		5.002998e+08
-6.099987e+06		1.571229e+07		-4.395176e+08
5.002998e+08		-4.395176e+08		-1.063145e+10
-2.807687e+06		2.254928e+06		6.837434e+08
2.254928e+06		-7.950323e+06		-4.649818e+08
6.837434e+08		-4.649818e+08		8.565626e+09
8.331557e+06		4.335719e+06		2.691587e+08
4.335719e+06		2.762083e+07		-7.927343e+08
2.691587e+08		-7.927343e+08		8.637240e+09
-2.856361e+06		-1.530589e+06		2.708663e+08
-1.530589e+06		5.834440e+07		-9.915974e+08
2.708663e+08		-9.915974e+08		8.676152e+09
-7.071274e+05		5.966399e+05		2.012979e+08
5.966399e+05		9.993403e+07		-4.636149e+08
2.012979e+08		-4.636149e+08		8.712275e+09
-4.362259e+06		9.896274e-04		2.506344e+08
9.896274e-04		1.199218e+08		5.139031e-03
2.506344e+08		5.139031e-03		8.723913e+09
-7.071274e+05		-5.966399e+05		2.012979e+08
-5.966399e+05		9.993403e+07		4.636149e+08
2.012979e+08		4.636149e+08		8.712275e+09
-2.856361e+06		1.530589e+06		2.708663e+08
1.530589e+06		5.834440e+07		9.915974e+08
2.708663e+08		9.915974e+08		8.676152e+09
8.331557e+06		-4.335719e+06		2.691587e+08
-4.335719e+06		2.762083e+07		7.927343e+08
2.691587e+08		7.927343e+08		8.637240e+09
-2.807687e+06		-2.254928e+06		6.837434e+08
-2.254928e+06		-7.950323e+06		4.649818e+08
6.837434e+08		4.649818e+08		8.565626e+09
-1.533734e+07		-9.428091e+06		3.156047e+09
-9.428091e+06		-9.473332e+06		-9.817141e+07
3.156047e+09		-9.817141e+07		6.374786e+09
2.030898e+06		-3.910475e+07		2.127159e+09
-3.910475e+07		3.667845e+07		-5.149230e+08
2.127159e+09		-5.149230e+08		6.494106e+09
3.174883e+06		-1.468401e-03		1.934434e+09
-1.468401e-03		7.546438e+07		5.567030e-03
1.934434e+09		5.567030e-03		6.545117e+09
2.030898e+06		3.910475e+07		2.127159e+09
3.910475e+07		3.667845e+07		5.149230e+08
2.127159e+09		5.149230e+08		6.494106e+09
-1.533734e+07		9.428091e+06		3.156047e+09
9.428091e+06		-9.473332e+06		9.817141e+07
3.156047e+09		9.817141e+07		6.374786e+09
-1.329030e+07		-1.424290e+07		5.407813e+09
-1.424290e+07		4.463938e+05		-5.050655e+07
5.407813e+09		-5.050655e+07		4.233676e+09
4.277746e+06		-4.392829e+07		4.438263e+09
-4.392829e+07		1.150498e+07		-1.548955e+08
4.438263e+09		-1.548955e+08		4.281111e+09
8.608188e+06		-7.175440e+07		3.857632e+09
-7.175440e+07		1.874704e+07		-2.365384e+08
3.857632e+09		-2.365384e+08		4.319358e+09
1.009136e+07		-3.726707e+07		3.597113e+09
-3.726707e+07		3.336266e+07		-1.294340e+08
3.597113e+09		-1.294340e+08		4.347969e+09
7.005691e+06		-3.823731e-05		3.499541e+09
-3.823731e-05		3.651969e+07		2.354284e-03
3.499541e+09		2.354284e-03		4.354299e+09
1.009136e+07		3.726707e+07		3.597113e+09
3.726707e+07		3.336266e+07		1.294340e+08
3.597113e+09		1.294340e+08		4.347969e+09
8.608188e+06		7.175440e+07		3.857632e+09
7.175440e+07		1.874704e+07		2.365384e+08
3.857632e+09		2.365384e+08		4.319358e+09
4.277746e+06		4.392829e+07		4.438263e+09
4.392829e+07		1.150498e+07		1.548955e+08
4.438263e+09		1.548955e+08		4.281111e+09
-1.329030e+07		1.424290e+07		5.407813e+09
1.424290e+07		4.463937e+05		5.050655e+07
5.407813e+09		5.050655e+07		4.233676e+09
-1.416987e+07		-1.824370e+07		6.092072e+09
-1.824370e+07		-5.250760e+06		-7.832969e+06
6.092072e+09		-7.832969e+06		2.104597e+09
3.170766e+06		-8.910002e+07		4.574203e+09
-8.910002e+07		5.773229e+06		-1.041519e+08
4.574203e+09		-1.041519e+08		2.152953e+09
4.269311e+06		2.631394e-03		4.177493e+09
2.631394e-03		1.440759e+07		1.899428e-03
4.177493e+09		1.899428e-03		2.173572e+09
3.170766e+06		8.910002e+07		4.574203e+09
8.910002e+07		5.773229e+06		1.041519e+08
4.574203e+09		1.041519e+08		2.152953e+09
-1.416987e+07		1.824370e+07		6.092072e+09
1.824370e+07		-5.250760e+06		7.832969e+06
6.092072e+09		7.832969e+06		2.104597e+09
4.355305e-02		-1.859820e+07		6.711205e+09
-1.859820e+07		7.742969e-02		-1.165533e-02
6.711205e+09		-1.165533e-02		4.199638e-02
1.856535e-02		-6.456088e+07		5.732251e+09
-6.456088e+07		1.124088e-02		1.136108e-02
5.732251e+09		1.136108e-02		1.158094e-02
3.502826e-03		-1.025557e+08		5.115464e+09
-1.025557e+08		-8.708389e-03		8.432648e-03
5.115464e+09		8.432648e-03		-3.276644e-03
1.859091e-02		-5.408013e+07		4.782030e+09
-5.408013e+07		1.351686e-02		5.275883e-03
4.782030e+09		5.275883e-03		4.395715e-03
-1.155988e-04		3.570701e-03		4.664137e+09
3.570701e-03		-1.708683e-02		9.629666e-05
4.664137e+09		9.629666e-05		-1.085982e-02
2.144896e-02		5.408013e+07		4.782030e+09
5.408013e+07		1.436457e-02		-3.738876e-03
4.782030e+09		-3.738876e-03		4.190083e-03
6.729046e-03		1.025557e+08		5.115464e+09
1.025557e+08		-8.063031e-03		-7.651963e-03
5.115464e+09		-7.651963e-03		-3.995670e-03
2.518809e-02		6.456088e+07		5.732251e+09
6.456088e+07		1.284685e-02		-9.503613e-03
5.732251e+09		-9.503613e-03		1.009640e-02
4.410428e-02		1.859820e+07		6.711205e+09
1.859820e+07		6.997754e-02		1.434537e-02
6.711205e+09		1.434537e-02		3.627178e-02
1.416987e+07		-1.824370e+07		6.092072e+09
-1.824370e+07		5.250760e+06		7.832969e+06
6.092072e+09		7.832969e+06		-2.104597e+09
-3.170766e+06		-8.910002e+07		4.574203e+09
-8.910002e+07		-5.773230e+06		1.041519e+08
4.574203e+09		1.041519e+08		-2.152953e+09
-4.269311e+06		4.158134e-03		4.177493e+09
4.158134e-03		-1.440759e+07		-3.184764e-03
4.177493e+09		-3.184764e-03		-2.173572e+09
-3.170766e+06		8.910002e+07		4.574203e+09
8.910002e+07		-5.773230e+06		-1.041519e+08
4.574203e+09		-1.041519e+08		-2.152953e+09
1.416987e+07		1.824370e+07		6.092072e+09
1.824370e+07		5.250760e+06		-7.832969e+06
6.092072e+09		-7.832969e+06		-2.104597e+09
1.329030e+07		-1.424290e+07		5.407813e+09
-1.424290e+07		-4.463936e+05		5.050655e+07
5.407813e+09		5.050655e+07		-4.233676e+09
-4.277746e+06		-4.392829e+07		4.438263e+09
-4.392829e+07		-1.150498e+07		1.548955e+08
4.438263e+09		1.548955e+08		-4.281111e+09
-8.608188e+06		-7.175440e+07		3.857632e+09
-7.175440e+07		-1.874704e+07		2.365384e+08
3.857632e+09		2.365384e+08		-4.319358e+09
-1.009136e+07		-3.726707e+07		3.597113e+09
-3.726707e+07		-3.336266e+07		1.294340e+08
3.597113e+09		1.294340e+08		-4.347969e+09
-7.005691e+06		3.608613e-03		3.499541e+09
3.608613e-03		-3.651969e+07		-3.963144e-03
3.499541e+09		-3.963144e-03		-4.354299e+09
-1.009136e+07		3.726707e+07		3.597113e+09
3.726707e+07		-3.336266e+07		-1.294340e+08
3.597113e+09		-1.294340e+08		-4.347969e+09
-8.608188e+06		7.175440e+07		3.857632e+09
7.175440e+07		-1.874704e+07		-2.365384e+08
3.857632e+09		-2.365384e+08		-4.319358e+09
-4.277746e+06		4.392829e+07		4.438263e+09
4.392829e+07		-1.150498e+07		-1.548955e+08
4.438263e+09		-1.548955e+08		-4.281111e+09
1.329030e+07		1.424290e+07		5.407813e+09
1.424290e+07		-4.463936e+05		-5.050655e+07
5.407813e+09		-5.050655e+07		-4.233676e+09
1.533734e+07		-9.428091e+06		3.156047e+09
-9.428091e+06		9.473333e+06		9.817141e+07
3.156047e+09		9.817141e+07		-6.374786e+09
-2.030898e+06		-3.910475e+07		2.127159e+09
-3.910475e+07		-3.667845e+07		5.149230e+08
2.127159e+09		5.149230e+08		-6.494106e+09
-3.174883e+06		1.222203e-03		1.934434e+09
1.222203e-03		-7.546438e+07		-1.040150e-02
1.934434e+09		-1.040150e-02		-6.545117e+09
-2.030898e+06		3.910475e+07		2.127159e+09
3.910475e+07		-3.667845e+07		-5.149230e+08
2.127159e+09		-5.149230e+08		-6.494106e+09
1.533734e+07		9.428091e+06		3.156047e+09
9.428091e+06		9.473333e+06		-9.817141e+07
3.156047e+09		-9.817141e+07		-6.374786e+09
2.807687e+06		2.254928e+06		6.837434e+08
2.254928e+06		7.950323e+06		4.649818e+08
6.837434e+08		4.649818e+08		-8.565626e+09
-8.331557e+06		4.335719e+06		2.691587e+08
4.335719e+06		-2.762083e+07		7.927343e+08
2.691587e+08		7.927343e+08		-8.637240e+09
2.856361e+06		-1.530589e+06		2.708663e+08
-1.530589e+06		-5.834440e+07		9.915974e+08
2.708663e+08		9.915974e+08		-8.676152e+09
7.071273e+05		5.966399e+05		2.012979e+08
5.966399e+05		-9.993403e+07		4.636149e+08
2.012979e+08		4.636149e+08		-8.712275e+09
4.362259e+06		-8.239573e-03		2.506344e+08
-8.239573e-03		-1.199218e+08		-8.960582e-03
2.506344e+08		-8.960582e-03		-8.723913e+09
7.071273e+05		-5.966399e+05		2.012979e+08
-5.966399e+05		-9.993403e+07		-4.636149e+08
2.012979e+08		-4.636149e+08		-8.712275e+09
2.856361e+06		1.530589e+06		2.708663e+08
1.530589e+06		-5.834440e+07		-9.915974e+08
2.708663e+08		-9.915974e+08		-8.676152e+09
-8.331557e+06		-4.335719e+06		2.691587e+08
-4.335719e+06		-2.762083e+07		-7.927343e+08
2.691587e+08		-7.927343e+08		-8.637240e+09
2.807687e+06		-2.254927e+06		6.837434e+08
-2.254927e+06		7.950323e+06		-4.649818e+08
6.837434e+08		-4.649818e+08		-8.565626e+09
-5.942070e+06		2.272094e+06		5.118928e+08
2.272094e+06		-9.505995e+06		-4.578715e+08
5.118928e+08		-4.578715e+08		6.427334e+09
-2.779981e+06		-1.030805e+06		9.475390e+07
-1.030805e+06		3.233193e+07		-9.916275e+08
9.475390e+07		-9.916275e+08		6.498632e+09
-1.736485e+06		-2.839740e-03		7.466839e+07
-2.839740e-03		7.235177e+07		1.425929e-03
7.466839e+07		1.425929e-03		6.529151e+09
-2.779981e+06		1.030805e+06		9.475390e+07
1.030805e+06		3.233193e+07		9.916275e+08
9.475390e+07		9.916275e+08		6.498632e+09
-5.942070e+06		-2.272094e+06		5.118928e+08
-2.272094e+06		-9.505995e+06		4.578715e+08
5.118928e+08		4.578715e+08		6.427334e+09
-1.058666e+07		-6.396750e+06		5.267778e+09
-6.396750e+06		-2.471304e+06		-4.352936e+07
5.267778e+09		-4.352936e+07		3.183246e+09
7.594083e+06		-4.505702e+07		3.676959e+09
-4.505702e+07		1.088382e+07		-2.246382e+08
3.676959e+09		-2.246382e+08		3.240548e+09
9.623397e+06		-3.285123e-03		3.298032e+09
-3.285123e-03		2.428178e+07		5.384050e-04
3.298032e+09		5.384050e-04		3.266027e+09
7.594083e+06		4.505702e+07		3.676959e+09
4.505702e+07		1.088382e+07		2.246382e+08
3.676959e+09		2.246382e+08		3.240548e+09
-1.058666e+07		6.396750e+06		5.267778e+09
6.396750e+06		-2.471304e+06		4.352936e+07
5.267778e+09		4.352936e+07		3.183246e+09
4.212255e-02		-9.151669e+06		6.585293e+09
-9.151669e+06		7.602217e-02		-1.317119e-02
6.585293e+09		-1.317119e-02		3.273096e-02
1.326090e-03		-6.463734e+07		4.942038e+09
-6.463734e+07		-1.752040e-02		9.136115e-05
4.942038e+09		9.136115e-05		-6.364910e-03
-2.281451e-03		1.113789e-03		4.464218e+09
1.113789e-03		-2.915381e-02		1.495783e-05
4.464218e+09		1.495783e-05		-9.416240e-03
5.438951e-03		6.463734e+07		4.942038e+09
6.463734e+07		-1.502461e-02		-1.276558e-04
4.942038e+09		-1.276558e-04		-4.074774e-03
4.508924e-02		9.151669e+06		6.585293e+09
9.151669e+06		7.325182e-02		1.519076e-02
6.585293e+09		1.519076e-02		3.354623e-02
1.058666e+07		-6.396750e+06		5.267778e+09
-6.396750e+06		2.471304e+06		4.352936e+07
5.267778e+09		4.352936e+07		-3.183246e+09
-7.594083e+06		-4.505702e+07		3.676959e+09
-4.505702e+07		-1.088382e+07		2.246382e+08
3.676959e+09		2.246382e+08		-3.240548e+09
-9.623397e+06		-3.983630e-04		3.298032e+09
-3.983630e-04		-2.428178e+07		-1.756312e-03
3.298032e+09		-1.756312e-03		-3.266027e+09
-7.594083e+06		4.505702e+07		3.676959e+09
4.505702e+07		-1.088382e+07		-2.246382e+08
3.676959e+09		-2.246382e+08		-3.240548e+09
1.058666e+07		6.396750e+06		5.267778e+09
6.396750e+06		2.471304e+06		-4.352936e+07
5.267778e+09		-4.352936e+07		-3.183246e+09
5.942070e+06		2.272094e+06		5.118928e+08
2.272094e+06		9.505995e+06		4.578715e+08
5.118928e+08		4.578715e+08		-6.427334e+09
2.779981e+06		-1.030805e+06		9.475390e+07
-1.030805e+06		-3.233193e+07		9.916275e+08
9.475390e+07		9.916275e+08		-6.498632e+09
1.736484e+06		-5.099088e-03		7.466839e+07
-5.099088e-03		-7.235177e+07		-4.324012e-03
7.466839e+07		-4.324012e-03		-6.529151e+09
2.779981e+06		1.030805e+06		9.475390e+07
1.030805e+06		-3.233193e+07		-9.916275e+08
9.475390e+07		-9.916275e+08		-6.498632e+09
5.942070e+06		-2.272094e+06		5.118928e+08
-2.272094e+06		9.505995e+06		-4.578715e+08
5.118928e+08		-4.578715e+08		-6.427334e+09
9.719566e+05		1.238762e+06		6.878989e+08
1.238762e+06		-5.326802e+05		-4.656826e+08
6.878989e+08		-4.656826e+08		4.299144e+09
3.481093e+06		1.494980e+06		2.675279e+08
1.494980e+06		8.491620e+06		-7.996895e+08
2.675279e+08		-7.996895e+08		4.317858e+09
-3.768483e+05		-4.223123e+05		2.666801e+08
-4.223123e+05		1.733417e+07		-1.003151e+09
2.666801e+08		-1.003151e+09		4.328019e+09
7.101279e+05		8.415794e+04		1.923505e+08
8.415794e+04		3.197978e+07		-4.715776e+08
1.923505e+08		-4.715776e+08		4.339426e+09
-1.061631e+06		-2.693374e-04		2.455327e+08
-2.693374e-04		3.807402e+07		-2.132919e-03
2.455327e+08		-2.132919e-03		4.340440e+09
7.101279e+05		-8.415792e+04		1.923505e+08
-8.415792e+04		3.197978e+07		4.715776e+08
1.923505e+08		4.715776e+08		4.339426e+09
-3.768483e+05		4.223123e+05		2.666801e+08
4.223123e+05		1.733417e+07		1.003151e+09
2.666801e+08		1.003151e+09		4.328019e+09
3.481093e+06		-1.494980e+06		2.675279e+08
-1.494980e+06		8.491620e+06		7.996895e+08
2.675279e+08		7.996895e+08		4.317858e+09
9.719565e+05		-1.238762e+06		6.878989e+08
-1.238762e+06		-5.326803e+05		4.656826e+08
6.878989e+08		4.656826e+08		4.299144e+09
-4.135624e+06		-3.014104e+06		3.196230e+09
-3.014104e+06		-1.841482e+06		-9.027184e+07
3.196230e+09		-9.027184e+07		3.210361e+09
1.326016e+06		-1.292245e+07		2.119025e+09
-1.292245e+07		1.104840e+07		-5.064867e+08
2.119025e+09		-5.064867e+08		3.244205e+09
1.706812e+06		-5.222759e-03		1.903731e+09
-5.222759e-03		2.409487e+07		-3.637895e-03
1.903731e+09		-3.637895e-03		3.259261e+09
1.326016e+06		1.292245e+07		2.119025e+09
1.292245e+07		1.104840e+07		5.064867e+08
2.119025e+09		5.064867e+08		3.244205e+09
-4.135624e+06		3.014104e+06		3.196230e+09
3.014104e+06		-1.841482e+06		9.027184e+07
3.196230e+09		9.027184e+07		3.210361e+09
-2.564557e+06		-4.949025e+06		5.476551e+09
-4.949025e+06		1.591256e+06		-4.582433e+07
5.476551e+09		-4.582433e+07		2.137460e+09
3.791532e+06		-1.463355e+07		4.468174e+09
-1.463355e+07		4.737139e+06		-1.424316e+08
4.468174e+09		-1.424316e+08		2.151040e+09
5.546559e+06		-2.410893e+07		3.847357e+09
-2.410893e+07		6.804224e+06		-2.209690e+08
3.847357e+09		-2.209690e+08		2.162028e+09
6.424309e+06		-1.274149e+07		3.555783e+09
-1.274149e+07		1.183463e+07		-1.222131e+08
3.555783e+09		-1.222131e+08		2.171608e+09
5.088039e+06		-3.205506e-03		3.447560e+09
-3.205506e-03		1.231022e+07		-1.655880e-03
3.447560e+09		-1.655880e-03		2.172421e+09
6.424309e+06		1.274149e+07		3.555783e+09
1.274149e+07		1.183463e+07		1.222131e+08
3.555783e+09		1.222131e+08		2.171608e+09
5.546559e+06		2.410893e+07		3.847357e+09
2.410893e+07		6.804224e+06		2.209690e+08
3.847357e+09		2.209690e+08		2.162028e+09
3.791532e+06		1.463355e+07		4.468174e+09
1.463355e+07		4.737139e+06		1.424316e+08
4.468174e+09		1.424316e+08		2.151040e+09
-2.564557e+06		4.949025e+06		5.476551e+09
4.949025e+06		1.591256e+06		4.582433e+07
5.476551e+09		4.582433e+07		2.137460e+09
-3.887377e+06		-6.315954e+06		6.175263e+09
-6.315954e+06		-1.374188e+06		-3.509904e+06
6.175263e+09		-3.509904e+06		1.064693e+09
2.387780e+06		-3.017344e+07		4.573542e+09
-3.017344e+07		1.998160e+06		-9.423663e+07
4.573542e+09		-9.423663e+07		1.078843e+09
3.026481e+06		-3.200640e-03		4.128730e+09
-3.200640e-03		4.893115e+06		-2.267287e-03
4.128730e+09		-2.267287e-03		1.085244e+09
2.387780e+06		3.017344e+07		4.573542e+09
3.017344e+07		1.998160e+06		9.423663e+07
4.573542e+09		9.423663e+07		1.078843e+09
-3.887377e+06		6.315954e+06		6.175263e+09
6.315954e+06		-1.374188e+06		3.509904e+06
6.175263e+09		3.509904e+06		1.064693e+09
4.872023e-02		-7.067373e+06		6.805332e+09
-7.067373e+06		9.075357e-02		-7.802780e-03
6.805332e+09		-7.802780e-03		5.519515e-02
1.854642e-02		-2.231742e+07		5.786004e+09
-2.231742e+07		1.623273e-02		-3.094462e-03
5.786004e+09		-3.094462e-03		2.598788e-02
1.658605e-03		-3.504139e+07		5.120955e+09
-3.504139e+07		-8.739553e-03		-3.199731e-03
5.120955e+09		-3.199731e-03		4.604487e-03
1.738604e-02		-1.857610e+07		4.748396e+09
-1.857610e+07		1.972810e-02		-2.172051e-03
4.748396e+09		-2.172051e-03		2.071947e-02
-3.448451e-03		-1.983184e-03		4.617334e+09
-1.983184e-03		-1.809511e-02		-8.608055e-04
4.617334e+09		-8.608055e-04		-1.873230e-03
1.833165e-02		1.857610e+07		4.748396e+09
1.857610e+07		2.053070e-02		-2.106035e-04
4.748396e+09		-2.106035e-04		2.315459e-02
3.514285e-03		3.504139e+07		5.120955e+09
3.504139e+07		-6.337871e-03		1.023682e-03
5.120955e+09		1.023682e-03		8.377970e-03
2.018974e-02		2.231742e+07		5.786004e+09
2.231742e+07		1.797572e-02		4.878437e-04
5.786004e+09		4.878437e-04		3.124476e-02
4.812036e-02		7.067373e+06		6.805332e+09
7.067373e+06		8.853441e-02		8.883716e-03
6.805332e+09		8.883716e-03		5.730576e-02
3.887377e+06		-6.315953e+06		6.175263e+09
-6.315953e+06		1.374188e+06		3.509904e+06
6.175263e+09		3.509904e+06		-1.064693e+09
-2.387780e+06		-3.017344e+07		4.573542e+09
-3.017344e+07		-1.998160e+06		9.423663e+07
4.573542e+09		9.423663e+07		-1.078843e+09
-3.026481e+06		-3.117409e-03		4.128730e+09
-3.117409e-03		-4.893115e+06		-3.005250e-03
4.128730e+09		-3.005250e-03		-1.085244e+09
-2.387780e+06		3.017344e+07		4.573542e+09
3.017344e+07		-1.998160e+06		-9.423663e+07
4.573542e+09		-9.423663e+07		-1.078843e+09
3.887377e+06		6.315954e+06		6.175263e+09
6.315954e+06		1.374188e+06		-3.509904e+06
6.175263e+09		-3.509904e+06		-1.064693e+09
2.564557e+06		-4.949024e+06		5.476551e+09
-4.949024e+06		-1.591256e+06		4.582433e+07
5.476551e+09		4.582433e+07		-2.137460e+09
-3.791532e+06		-1.463355e+07		4.468174e+09
-1.463355e+07		-4.737139e+06		1.424316e+08
4.468174e+09		1.424316e+08		-2.151040e+09
-5.546559e+06		-2.410893e+07		3.847357e+09
-2.410893e+07		-6.804224e+06		2.209690e+08
3.847357e+09		2.209690e+08		-2.162028e+09
-6.424309e+06		-1.274149e+07		3.555783e+09
-1.274149e+07		-1.183463e+07		1.222131e+08
3.555783e+09		1.222131e+08		-2.171608e+09
-5.088039e+06		-3.557968e-03		3.447560e+09
-3.557968e-03		-1.231022e+07		-2.708524e-03
3.447560e+09		-2.708524e-03		-2.172421e+09
-6.424309e+06		1.274149e+07		3.555783e+09
1.274149e+07		-1.183463e+07		-1.222131e+08
3.555783e+09		-1.222131e+08		-2.171608e+09
-5.546559e+06		2.410893e+07		3.847357e+09
2.410893e+07		-6.804224e+06		-2.209690e+08
3.847357e+09		-2.209690e+08		-2.162028e+09
-3.791532e+06		1.463355e+07		4.468174e+09
1.463355e+07		-4.737139e+06		-1.424316e+08
4.468174e+09		-1.424316e+08		-2.151040e+09
2.564557e+06		4.949025e+06		5.476551e+09
4.949025e+06		-1.591256e+06		-4.582433e+07
5.476551e+09		-4.582433e+07		-2.137460e+09
4.135624e+06		-3.014104e+06		3.196230e+09
-3.014104e+06		1.841482e+06		9.027184e+07
3.196230e+09		9.027184e+07		-3.210361e+09
-1.326016e+06		-1.292245e+07		2.119025e+09
-1.292245e+07		-1.104840e+07		5.064867e+08
2.119025e+09		5.064867e+08		-3.244205e+09
-1.706813e+06		-4.739997e-03		1.903731e+09
-4.739997e-03		-2.409487e+07		-7.286026e-03
1.903731e+09		-7.286026e-03		-3.259261e+09
-1.326016e+06		1.292245e+07		2.119025e+09
1.292245e+07		-1.104840e+07		-5.064867e+08
2.119025e+09		-5.064867e+08		-3.244205e+09
4.135625e+06		3.014104e+06		3.196230e+09
3.014104e+06		1.841482e+06		-9.027184e+07
3.196230e+09		-9.027184e+07		-3.210361e+09
-9.719565e+05		1.238762e+06		6.878989e+08
1.238762e+06		5.326804e+05		4.656826e+08
6.878989e+08		4.656826e+08		-4.299144e+09
-3.481093e+06		1.494980e+06		2.675279e+08
1.494980e+06		-8.491620e+06		7.996895e+08
2.675279e+08		7.996895e+08		-4.317858e+09
3.768482e+05		-4.223123e+05		2.666801e+08
-4.223123e+05		-1.733417e+07		1.003151e+09
2.666801e+08		1.003151e+09		-4.328019e+09
-7.101279e+05		8.415790e+04		1.923505e+08
8.415790e+04		-3.197978e+07		4.715776e+08
1.923505e+08		4.715776e+08		-4.339426e+09
1.061631e+06		1.976495e-03		2.455327e+08
1.976495e-03		-3.807402e+07		-6.327629e-03
2.455327e+08		-6.327629e-03		-4.340440e+09
-7.101279e+05		-8.415789e+04		1.923505e+08
-8.415789e+04		-3.197978e+07		-4.715776e+08
1.923505e+08		-4.715776e+08		-4.339426e+09
3.768483e+05		4.223123e+05		2.666801e+08
4.223123e+05		-1.733417e+07		-1.003151e+09
2.666801e+08		-1.003151e+09		-4.328019e+09
-3.481093e+06		-1.494980e+06		2.675279e+08
-1.494980e+06		-8.491620e+06		-7.996895e+08
2.675279e+08		-7.996895e+08		-4.317858e+09
-9.719564e+05		-1.238762e+06		6.878989e+08
-1.238762e+06		5.326805e+05		-4.656826e+08
6.878989e+08		-4.656826e+08		-4.299144e+09
-1.266734e+06		7.826442e+05		5.158873e+08
7.826442e+05		-1.912894e+06		-4.621455e+08
5.158873e+08		-4.621455e+08		2.147672e+09
-2.994331e+05		-1.573974e+05		9.438658e+07
-1.573974e+05		7.651338e+06		-1.002405e+09
9.438658e+07		-1.002405e+09		2.163842e+09
2.718479e+05		-8.286671e-03		7.407673e+07
-8.286671e-03		1.817627e+07		-1.038536e-04
7.407673e+07		-1.038536e-04		2.170978e+09
-2.994331e+05		1.573974e+05		9.438658e+07
1.573974e+05		7.651338e+06		1.002405e+09
9.438658e+07		1.002405e+09		2.163842e+09
-1.266734e+06		-7.826441e+05		5.158873e+08
-7.826441e+05		-1.912894e+06		4.621455e+08
5.158873e+08		4.621455e+08		2.147672e+09
-2.619165e+06		-1.572183e+06		5.310177e+09
-1.572183e+06		-5.390904e+05		-4.280814e+07
5.310177e+09		-4.280814e+07		1.067296e+09
2.531185e+06		-1.122087e+07		3.671708e+09
-1.122087e+07		2.801416e+06		-2.172467e+08
3.671708e+09		-2.172467e+08		1.080722e+09
3.206891e+06		-3.433207e-03		3.267221e+09
-3.433207e-03		6.185733e+06		4.461240e-04
3.267221e+09		4.461240e-04		1.086920e+09
2.531185e+06		1.122087e+07		3.671708e+09
1.122087e+07		2.801416e+06		2.172467e+08
3.671708e+09		2.172467e+08		1.080722e+09
-2.619165e+06		1.572183e+06		5.310177e+09
1.572183e+06		-5.390904e+05		4.280814e+07
5.310177e+09		4.280814e+07		1.067296e+09
1.949752e-02		-2.496917e+06		6.641030e+09
-2.496917e+06		5.636550e-02		5.564372e-03
6.641030e+09		5.564372e-03		1.740646e-02
-1.797917e-02		-1.634678e+07		4.945315e+09
-1.634678e+07		-2.577644e-02		-1.335728e-04
4.945315e+09		-1.335728e-04		-1.826464e-02
-2.527846e-02		-1.916751e-03		4.435443e+09
-1.916751e-03		-3.805833e-02		9.294307e-04
4.435443e+09		9.294307e-04		-2.383842e-02
-2.285311e-02		1.634678e+07		4.945315e+09
1.634678e+07		-2.820119e-02		1.613797e-03
4.945315e+09		1.613797e-03		-2.208379e-02
1.374311e-02		2.496917e+06		6.641030e+09
2.496917e+06		5.547916e-02		-6.388600e-03
6.641030e+09		-6.388600e-03		1.336438e-02
2.619165e+06		-1.572183e+06		5.310177e+09
-1.572183e+06		5.390905e+05		4.280814e+07
5.310177e+09		4.280814e+07		-1.067296e+09
-2.531185e+06		-1.122087e+07		3.671708e+09
-1.122087e+07		-2.801417e+06		2.172467e+08
3.671708e+09		2.172467e+08		-1.080722e+09
-3.206891e+06		-6.980534e-03		3.267221e+09
-6.980534e-03		-6.185733e+06		7.451102e-04
3.267221e+09		7.451102e-04		-1.086920e+09
-2.531185e+06		1.122087e+07		3.671708e+09
1.122087e+07		-2.801417e+06		-2.172467e+08
3.671708e+09		-2.172467e+08		-1.080722e+09
2.619165e+06		1.572183e+06		5.310177e+09
1.572183e+06		5.390905e+05		-4.280814e+07
5.310177e+09		-4.280814e+07		-1.067296e+09
1.266734e+06		7.826441e+05		5.158873e+08
7.826441e+05		1.912894e+06		4.621455e+08
5.158873e+08		4.621455e+08		-2.147672e+09
2.994331e+05		-1.573975e+05		9.438658e+07
-1.573975e+05		-7.651338e+06		1.002405e+09
9.438658e+07		1.002405e+09		-2.163842e+09
-2.718479e+05		-4.586330e-03		7.407673e+07
-4.586330e-03		-1.817627e+07		-3.261864e-04
7.407673e+07		-3.261864e-04		-2.170978e+09
2.994331e+05		1.573975e+05		9.438658e+07
1.573975e+05		-7.651338e+06		-1.002405e+09
9.438658e+07		-1.002405e+09		-2.163842e+09
1.266734e+06		-7.826440e+05		5.158873e+08
-7.826440e+05		1.912894e+06		-4.621455e+08
5.158873e+08		-4.621455e+08		-2.147672e+09
1.438974e-01		1.955880e-01		6.893685e+08
1.955880e-01		8.709934e-01		-4.654792e+08
6.893685e+08		-4.654792e+08		5.268408e-01
3.004871e-01		1.261036e-01		2.677521e+08
1.261036e-01		7.342273e-01		-8.016162e+08
2.677521e+08		-8.016162e+08		3.228646e-01
7.325393e-02		1.454651e-01		2.663214e+08
1.454651e-01		3.324103e-01		-1.006499e+09
2.663214e+08		-1.006499e+09		9.587971e-02
-6.681222e-02		4.977749e-03		1.907148e+08
4.977749e-03		1.625352e-02		-4.737877e+08
1.907148e+08		-4.737877e+08		-3.656874e-02
-1.520986e-02		-9.246442e-03		2.451085e+08
-9.246442e-03		-7.257502e-02		-5.875021e-03
2.451085e+08		-5.875021e-03		-5.856188e-02
-8.017569e-02		-1.021757e-02		1.907148e+08
-1.021757e-02		8.082855e-03		4.737877e+08
1.907148e+08		4.737877e+08		-4.363389e-02
4.751007e-02		-1.543192e-01		2.663214e+08
-1.543192e-01		3.273681e-01		1.006499e+09
2.663214e+08		1.006499e+09		8.609396e-02
2.671158e-01		-1.219541e-01		2.677521e+08
-1.219541e-01		7.155488e-01		8.016162e+08
2.677521e+08		8.016162e+08		3.066261e-01
9.132710e-02		-1.572850e-01		6.893685e+08
-1.572850e-01		8.347911e-01		4.654792e+08
6.893685e+08		4.654792e+08		5.004218e-01
-2.426242e-01		7.699479e-02		3.204872e+09
7.699479e-02		1.180740e-01		-8.821076e+07
3.204872e+09		-8.821076e+07		1.899731e-01
7.191460e-02		8.051631e-02		2.116155e+09
8.051631e-02		2.005322e-02		-5.043506e+08
2.116155e+09		-5.043506e+08		9.687619e-02
3.285843e-02		-3.939700e-03		1.895027e+09
-3.939700e-03		4.903595e-02		-7.527677e-03
1.895027e+09		-7.527677e-03		2.480740e-02
7.429614e-02		-8.641825e-02		2.116155e+09
-8.641825e-02		3.076386e-02		5.043506e+08
2.116155e+09		5.043506e+08		1.010764e-01
-2.467466e-01		-5.844871e-02		3.204872e+09
-5.844871e-02		1.145949e-01		8.821076e+07
3.204872e+09		8.821076e+07		1.904595e-01
-3.477201e-01		-5.956357e-02		5.493093e+09
-5.956357e-02		-1.923123e-01		-4.439345e+07
5.493093e+09		-4.439345e+07		-5.918625e-03
4.758393e-02		-8.653588e-02		4.476078e+09
-8.653588e-02		-1.219598e-01		-1.391625e+08
4.476078e+09		-1.391625e+08		1.329656e-01
2.412639e-01		-1.227909e-02		3.845065e+09
-1.227909e-02		-4.808836e-02		-2.170465e+08
3.845065e+09		-2.170465e+08		2.242908e-01
9.213483e-02		2.028765e-02		3.545974e+09
2.028765e-02		5.305801e-02		-1.203115e+08
3.545974e+09		-1.203115e+08		8.438074e-02
6.196642e-02		6.681374e-05		3.434636e+09
6.681374e-05		1.523761e-01		-2.838969e-03
3.434636e+09		-2.838969e-03		1.003661e-01
9.514899e-02		-1.715858e-02		3.545974e+09
-1.715858e-02		5.295926e-02		1.203115e+08
3.545974e+09		1.203115e+08		8.540586e-02
2.489255e-01		1.033937e-02		3.845065e+09
1.033937e-02		-4.000010e-02		2.170465e+08
3.845065e+09		2.170465e+08		2.296454e-01
5.606702e-02		8.476155e-02		4.476078e+09
8.476155e-02		-1.199194e-01		1.391625e+08
4.476078e+09		1.391625e+08		1.377325e-01
-3.424848e-01		6.816751e-02		5.493093e+09
6.816751e-02		-1.918269e-01		4.439345e+07
5.493093e+09		4.439345e+07		-1.840604e-03
-1.286746e-01		-6.837304e-02		6.195305e+09
-6.837304e-02		-9.995220e-02		-2.551693e+06
6.195305e+09		-2.551693e+06		2.180203e-02
1.741511e-01		-6.414408e-02		4.573343e+09
-6.414408e-02		-2.140531e-02		-9.169743e+07
4.573343e+09		-9.169743e+07		1.461658e-01
8.779399e-02		-2.354272e-03		4.116347e+09
-2.354272e-03		1.043016e-01		-1.145411e-03
4.116347e+09		-1.145411e-03		9.586692e-02
1.764027e-01		6.057019e-02		4.573343e+09
6.057019e-02		-1.659770e-02		9.169743e+07
4.573343e+09		9.169743e+07		1.497966e-01
-1.251184e-01		7.894376e-02		6.195305e+09
7.894376e-02		-9.317392e-02		2.551693e+06
6.195305e+09		2.551693e+06		2.881467e-02
1.890268e-02		-5.157024e-02		6.828817e+09
-5.157024e-02		5.188053e-02		9.030626e-03
6.828817e+09		9.030626e-03		3.280356e-02
-7.027873e-03		-5.714401e-02		5.800243e+09
-5.714401e-02		4.347851e-03		-9.950073e-03
5.800243e+09		-9.950073e-03		1.491994e-02
-1.002261e-02		-6.844284e-02		5.123141e+09
-6.844284e-02		-8.858506e-03		-8.553953e-03
5.123141e+09		-8.553953e-03		3.252953e-03
-9.167502e-03		-3.299650e-02		4.741103e+09
-3.299650e-02		6.161979e-03		-4.518039e-03
4.741103e+09		-4.518039e-03		1.258496e-02
-1.501171e-02		3.243656e-04		4.606529e+09
3.243656e-04		-1.542414e-02		1.649740e-03
4.606529e+09		1.649740e-03		-9.255554e-04
-1.207735e-02		3.634679e-02		4.741103e+09
3.634679e-02		5.436395e-03		4.793400e-03
4.741103e+09		4.793400e-03		1.269638e-02
-1.400359e-02		6.698574e-02		5.123141e+09
6.698574e-02		-1.064718e-02		1.009996e-02
5.123141e+09		1.009996e-02		3.399858e-03
-1.447008e-02		5.481203e-02		5.800243e+09
5.481203e-02		2.290234e-03		7.685062e-03
5.800243e+09		7.685062e-03		1.536831e-02
1.837401e-02		5.715181e-02		6.828817e+09
5.715181e-02		5.941600e-02		-1.870579e-02
6.828817e+09		-1.870579e-02		3.818676e-02
2.027213e-01		-8.412801e-02		6.195305e+09
-8.412801e-02		2.196668e-01		2.551693e+06
6.195305e+09		2.551693e+06		7.349273e-02
-1.589280e-01		-6.518279e-02		4.573343e+09
-6.518279e-02		1.361828e-02		9.169743e+07
4.573343e+09		9.169743e+07		-1.145215e-01
-7.990137e-02		-4.038194e-03		4.116347e+09
-4.038194e-03		-1.300110e-01		6.399730e-03
4.116347e+09		6.399730e-03		-7.379947e-02
-1.530566e-01		5.910386e-02		4.573343e+09
5.910386e-02		1.425085e-02		-9.169743e+07
4.573343e+09		-9.169743e+07		-1.062016e-01
2.209361e-01		1.030847e-01		6.195305e+09
1.030847e-01		2.417131e-01		-2.551693e+06
6.195305e+09		-2.551693e+06		9.567039e-02
3.893727e-01		-9.256956e-02		5.493093e+09
-9.256956e-02		2.956008e-01		4.439345e+07
5.493093e+09		4.439345e+07		7.258598e-02
-4.920585e-02		-8.763727e-02		4.476078e+09
-8.763727e-02		1.363592e-01		1.391625e+08
4.476078e+09		1.391625e+08		-9.655031e-02
-2.542382e-01		-1.383240e-02		3.845065e+09
-1.383240e-02		3.344303e-02		2.170465e+08
3.845065e+09		2.170465e+08		-2.136049e-01
-9.528205e-02		1.962101e-02		3.545974e+09
1.962101e-02		-3.273019e-02		1.203115e+08
3.545974e+09		1.203115e+08		-4.914744e-02
-8.250832e-02		-3.836647e-03		3.434636e+09
-3.836647e-03		-1.784636e-01		6.032117e-03
3.434636e+09		6.032117e-03		-9.548135e-02
-9.823642e-02		-1.832901e-02		3.545974e+09
-1.832901e-02		-3.073114e-02		-1.203115e+08
3.545974e+09		-1.203115e+08		-4.435394e-02
-2.615391e-01		6.098918e-03		3.845065e+09
6.098918e-03		2.785834e-02		-2.170465e+08
3.845065e+09		-2.170465e+08		-2.111882e-01
-5.673005e-02		8.597152e-02		4.476078e+09
8.597152e-02		1.390530e-01		-1.391625e+08
4.476078e+09		-1.391625e+08		-8.520316e-02
3.936700e-01		1.210948e-01		5.493093e+09
1.210948e-01		3.188549e-01		-4.439345e+07
5.493093e+09		-4.439345e+07		9.085382e-02
3.092671e-01		4.199549e-02		3.204872e+09
4.199549e-02		-3.246725e-03		8.821076e+07
3.204872e+09		8.821076e+07		-9.824776e-02
-6.323791e-02		7.708961e-02		2.116155e+09
7.708961e-02		-3.076190e-02		5.043506e+08
2.116155e+09		5.043506e+08		-6.655021e-02
-3.094698e-02		-7.025002e-03		1.895027e+09
-7.025002e-03		-7.653458e-02		1.171483e-02
1.895027e+09		1.171483e-02		-4.698019e-04
-5.429860e-02		-8.706723e-02		2.116155e+09
-8.706723e-02		-2.843351e-02		-5.043506e+08
2.116155e+09		-5.043506e+08		-4.829080e-02
3.393364e-01		-1.022668e-02		3.204872e+09
-1.022668e-02		4.119716e-02		-8.821076e+07
3.204872e+09		-8.821076e+07		-5.383728e-02
-9.726363e-03		1.136912e-01		6.893685e+08
1.136912e-01		-7.284429e-01		4.654792e+08
6.893685e+08		4.654792e+08		-4.194124e-01
-1.973945e-01		8.565410e-02		2.677521e+08
8.565410e-02		-6.716232e-01		8.016162e+08
2.677521e+08		8.016162e+08		-2.377209e-01
1.486527e-02		1.059127e-01		2.663214e+08
1.059127e-01		-3.018382e-01		1.006499e+09
2.663214e+08		1.006499e+09		-3.906554e-02
1.812448e-01		-8.148653e-03		1.907148e+08
-8.148653e-03		5.828061e-02		4.737877e+08
1.907148e+08		4.737877e+08		1.291000e-01
1.149308e-01		-2.288633e-03		2.451085e+08
-2.288633e-03		1.012715e-01		7.776026e-03
2.451085e+08		7.776026e-03		1.206388e-01
2.139739e-01		2.025800e-02		1.907148e+08
2.025800e-02		7.837231e-02		-4.737877e+08
1.907148e+08		-4.737877e+08		1.555065e-01
7.435531e-02		-9.992762e-02		2.663214e+08
-9.992762e-02		-2.754503e-01		-1.006499e+09
2.663214e+08		-1.006499e+09		-2.820101e-04
-1.159101e-01		-7.086278e-02		2.677521e+08
-7.086278e-02		-6.238214e-01		-8.016162e+08
2.677521e+08		-8.016162e+08		-1.729983e-01
1.006903e-01		-5.873203e-02		6.893685e+08
-5.873203e-02		-6.400885e-01		-4.654792e+08
6.893685e+08		-4.654792e+08		-3.403862e-01
1.266734e+06		-7.826439e+05		5.158873e+08
-7.826439e+05		1.912895e+06		-4.621455e+08
5.158873e+08		-4.621455e+08		-2.147672e+09
2.994334e+05		1.573976e+05		9.438658e+07
1.573976e+05		-7.651337e+06		-1.002405e+09
9.438658e+07		-1.002405e+09		-2.163842e+09
-2.718480e+05		-1.209541e-02		7.407673e+07
-1.209541e-02		-1.817627e+07		-1.691073e-03
7.407673e+07		-1.691073e-03		-2.170978e+09
2.994334e+05		-1.573976e+05		9.438658e+07
-1.573976e+05		-7.651337e+06		1.002405e+09
9.438658e+07		1.002405e+09		-2.163842e+09
1.266734e+06		7.826439e+05		5.158873e+08
7.826439e+05		1.912895e+06		4.621455e+08
5.158873e+08		4.621455e+08		-2.147672e+09
2.619165e+06		1.572183e+06		5.310177e+09
1.572183e+06		5.390903e+05		-4.280814e+07
5.310177e+09		-4.280814e+07		-1.067296e+09
-2.531184e+06		1.122087e+07		3.671708e+09
1.122087e+07		-2.801417e+06		-2.172467e+08
3.671708e+09		-2.172467e+08		-1.080722e+09
-3.206891e+06		3.840910e-03		3.267221e+09
3.840910e-03		-6.185733e+06		-6.117355e-04
3.267221e+09		-6.117355e-04		-1.086920e+09
-2.531184e+06		-1.122087e+07		3.671708e+09
-1.122087e+07		-2.801417e+06		2.172467e+08
3.671708e+09		2.172467e+08		-1.080722e+09
2.619165e+06		-1.572183e+06		5.310177e+09
-1.572183e+06		5.390903e+05		4.280814e+07
5.310177e+09		4.280814e+07		-1.067296e+09
-2.065148e-02		2.496917e+06		6.641030e+09
2.496917e+06		1.043462e-02		2.145992e-02
6.641030e+09		2.145992e-02		-6.674062e-03
-3.812192e-02		1.634678e+07		4.945315e+09
1.634678e+07		-2.580596e-02		-9.809264e-04
4.945315e+09		-9.809264e-04		-2.306414e-02
-4.220148e-02		5.751673e-03		4.435443e+09
5.751673e-03		-3.053107e-02		5.269584e-04
4.435443e+09		5.269584e-04		-2.510048e-02
-4.592188e-02		-1.634678e+07		4.945315e+09
-1.634678e+07		-3.206240e-02		1.811362e-03
4.945315e+09		1.811362e-03		-2.644213e-02
-2.735804e-02		-2.496917e+06		6.641030e+09
-2.496917e+06		1.184842e-02		-2.545510e-02
6.641030e+09		-2.545510e-02		-7.196933e-03
-2.619165e+06		1.572183e+06		5.310177e+09
1.572183e+06		-5.390903e+05		4.280814e+07
5.310177e+09		4.280814e+07		1.067296e+09
2.531184e+06		1.122087e+07		3.671708e+09
1.122087e+07		2.801417e+06		2.172467e+08
3.671708e+09		2.172467e+08		1.080722e+09
3.206891e+06		-1.724772e-03		3.267221e+09
-1.724772e-03		6.185733e+06		2.263159e-03
3.267221e+09		2.263159e-03		1.086920e+09
2.531184e+06		-1.122087e+07		3.671708e+09
-1.122087e+07		2.801417e+06		-2.172467e+08
3.671708e+09		-2.172467e+08		1.080722e+09
-2.619165e+06		-1.572183e+06		5.310177e+09
-1.572183e+06		-5.390903e+05		-4.280814e+07
5.310177e+09		-4.280814e+07		1.067296e+09
-1.266733e+06		-7.826440e+05		5.158873e+08
-7.826440e+05		-1.912895e+06		4.621455e+08
5.158873e+08		4.621455e+08		2.147672e+09
-2.994333e+05		1.573976e+05		9.438658e+07
1.573976e+05		7.651338e+06		1.002405e+09
9.438658e+07		1.002405e+09		2.163842e+09
2.718481e+05		-1.379260e-02		7.407673e+07
-1.379260e-02		1.817627e+07		3.934674e-03
7.407673e+07		3.934674e-03		2.170978e+09
-2.994333e+05		-1.573976e+05		9.438658e+07
-1.573976e+05		7.651338e+06		-1.002405e+09
9.438658e+07		-1.002405e+09		2.163842e+09
-1.266733e+06		7.826440e+05		5.158873e+08
7.826440e+05		-1.912895e+06		-4.621455e+08
5.158873e+08		-4.621455e+08		2.147672e+09
-9.719568e+05		-1.238761e+06		6.878989e+08
-1.238761e+06		5.326810e+05		-4.656826e+08
6.878989e+08		-4.656826e+08		-4.299144e+09
-3.481093e+06		-1.494980e+06		2.675279e+08
-1.494980e+06		-8.491619e+06		-7.996895e+08
2.675279e+08		-7.996895e+08		-4.317858e+09
3.768487e+05		4.223123e+05		2.666801e+08
4.223123e+05		-1.733417e+07		-1.003151e+09
2.666801e+08		-1.003151e+09		-4.328019e+09
-7.101277e+05		-8.415791e+04		1.923505e+08
-8.415791e+04		-3.197978e+07		-4.715776e+08
1.923505e+08		-4.715776e+08		-4.339426e+09
1.061631e+06		-1.228695e-02		2.455327e+08
-1.228695e-02		-3.807402e+07		-1.460165e-03
2.455327e+08		-1.460165e-03		-4.340440e+09
-7.101277e+05		8.415790e+04		1.923505e+08
8.415790e+04		-3.197978e+07		4.715776e+08
1.923505e+08		4.715776e+08		-4.339426e+09
3.768487e+05		-4.223123e+05		2.666801e+08
-4.223123e+05		-1.733417e+07		1.003151e+09
2.666801e+08		1.003151e+09		-4.328019e+09
-3.481093e+06		1.494980e+06		2.675279e+08
1.494980e+06		-8.491619e+06		7.996895e+08
2.675279e+08		7.996895e+08		-4.317858e+09
-9.719568e+05		1.238761e+06		6.878989e+08
1.238761e+06		5.326811e+05		4.656826e+08
6.878989e+08		4.656826e+08		-4.299144e+09
4.135624e+06		3.014104e+06		3.196230e+09
3.014104e+06		1.841482e+06		-9.027185e+07
3.196230e+09		-9.027185e+07		-3.210361e+09
-1.326015e+06		1.292245e+07		2.119025e+09
1.292245e+07		-1.104840e+07		-5.064867e+08
2.119025e+09		-5.064867e+08		-3.244205e+09
-1.706813e+06		3.884565e-04		1.903731e+09
3.884565e-04		-2.409487e+07		-1.040339e-03
1.903731e+09		-1.040339e-03		-3.259261e+09
-1.326015e+06		-1.292245e+07		2.119025e+09
-1.292245e+07		-1.104840e+07		5.064867e+08
2.119025e+09		5.064867e+08		-3.244205e+09
4.135624e+06		-3.014104e+06		3.196230e+09
-3.014104e+06		1.841482e+06		9.027185e+07
3.196230e+09		9.027185e+07		-3.210361e+09
2.564557e+06		4.949024e+06		5.476551e+09
4.949024e+06		-1.591256e+06		-4.582433e+07
5.476551e+09		-4.582433e+07		-2.137460e+09
-3.791532e+06		1.463355e+07		4.468174e+09
1.463355e+07		-4.737139e+06		-1.424316e+08
4.468174e+09		-1.424316e+08		-2.151040e+09
-5.546559e+06		2.410893e+07		3.847357e+09
2.410893e+07		-6.804224e+06		-2.209690e+08
3.847357e+09		-2.209690e+08		-2.162028e+09
-6.424309e+06		1.274149e+07		3.555783e+09
1.274149e+07		-1.183463e+07		-1.222131e+08
3.555783e+09		-1.222131e+08		-2.171608e+09
-5.088039e+06		4.901096e-03		3.447560e+09
4.901096e-03		-1.231022e+07		-1.497474e-04
3.447560e+09		-1.497474e-04		-2.172421e+09
-6.424309e+06		-1.274149e+07		3.555783e+09
-1.274149e+07		-1.183463e+07		1.222131e+08
3.555783e+09		1.222131e+08		-2.171608e+09
-5.546559e+06		-2.410893e+07		3.847357e+09
-2.410893e+07		-6.804224e+06		2.209690e+08
3.847357e+09		2.209690e+08		-2.162028e+09
-3.791532e+06		-1.463355e+07		4.468174e+09
-1.463355e+07		-4.737139e+06		1.424316e+08
4.468174e+09		1.424316e+08		-2.151040e+09
2.564557e+06		-4.949024e+06		5.476551e+09
-4.949024e+06		-1.591256e+06		4.582433e+07
5.476551e+09		4.582433e+07		-2.137460e+09
3.887377e+06		6.315953e+06		6.175263e+09
6.315953e+06		1.374188e+06		-3.509904e+06
6.175263e+09		-3.509904e+06		-1.064693e+09
-2.387780e+06		3.017344e+07		4.573542e+09
3.017344e+07		-1.998160e+06		-9.423663e+07
4.573542e+09		-9.423663e+07		-1.078843e+09
-3.026481e+06		2.853314e-03		4.128730e+09
2.853314e-03		-4.893115e+06		5.981121e-04
4.128730e+09		5.981121e-04		-1.085244e+09
-2.387780e+06		-3.017344e+07		4.573542e+09
-3.017344e+07		-1.998160e+06		9.423663e+07
4.573542e+09		9.423663e+07		-1.078843e+09
3.887377e+06		-6.315953e+06		6.175263e+09
-6.315953e+06		1.374188e+06		3.509904e+06
6.175263e+09		3.509904e+06		-1.064693e+09
-2.060319e-02		7.067373e+06		6.805332e+09
7.067373e+06		-1.379816e-03		1.965970e-02
6.805332e+09		1.965970e-02		-6.051962e-03
-4.150219e-02		2.231742e+07		5.786004e+09
2.231742e+07		-1.730097e-02		-1.045496e-02
5.786004e+09		-1.045496e-02		-1.719463e-02
-2.562287e-02		3.504139e+07		5.120955e+09
3.504139e+07		-1.191044e-02		-9.577175e-03
5.120955e+09		-9.577175e-03		-1.010648e-02
-4.323873e-02		1.857610e+07		4.748396e+09
1.857610e+07		-1.879252e-02		-4.463274e-03
4.748396e+09		-4.463274e-03		-1.856561e-02
-2.748845e-02		6.630531e-03		4.617334e+09
6.630531e-03		-1.311977e-02		8.800897e-04
4.617334e+09		8.800897e-04		-1.233733e-02
-4.784781e-02		-1.857610e+07		4.748396e+09
-1.857610e+07		-2.127473e-02		6.500191e-03
4.748396e+09		6.500191e-03		-2.444972e-02
-3.268981e-02		-3.504139e+07		5.120955e+09
-3.504139e+07		-1.926133e-02		1.142352e-02
5.120955e+09		1.142352e-02		-1.904787e-02
-5.287518e-02		-2.231742e+07		5.786004e+09
-2.231742e+07		-2.385131e-02		1.243003e-02
5.786004e+09		1.243003e-02		-3.066557e-02
-2.583067e-02		-7.067373e+06		6.805332e+09
-7.067373e+06		1.522151e-05		-2.092265e-02
6.805332e+09		-2.092265e-02		-1.179209e-02
-3.887377e+06		6.315953e+06		6.175263e+09
6.315953e+06		-1.374188e+06		3.509904e+06
6.175263e+09		3.509904e+06		1.064693e+09
2.387780e+06		3.017344e+07		4.573542e+09
3.017344e+07		1.998160e+06		9.423663e+07
4.573542e+09		9.423663e+07		1.078843e+09
3.026481e+06		1.494498e-03		4.128730e+09
1.494498e-03		4.893115e+06		4.220605e-03
4.128730e+09		4.220605e-03		1.085244e+09
2.387780e+06		-3.017344e+07		4.573542e+09
-3.017344e+07		1.998160e+06		-9.423663e+07
4.573542e+09		-9.423663e+07		1.078843e+09
-3.887377e+06		-6.315953e+06		6.175263e+09
-6.315953e+06		-1.374188e+06		-3.509904e+06
6.175263e+09		-3.509904e+06		1.064693e+09
-2.564557e+06		4.949024e+06		5.476551e+09
4.949024e+06		1.591256e+06		4.582433e+07
5.476551e+09		4.582433e+07		2.137460e+09
3.791532e+06		1.463355e+07		4.468174e+09
1.463355e+07		4.737139e+06		1.424316e+08
4.468174e+09		1.424316e+08		2.151040e+09
5.546559e+06		2.410893e+07		3.847357e+09
2.410893e+07		6.804224e+06		2.209690e+08
3.847357e+09		2.209690e+08		2.162028e+09
6.424309e+06		1.274149e+07		3.555783e+09
1.274149e+07		1.183463e+07		1.222131e+08
3.555783e+09		1.222131e+08		2.171608e+09
5.088039e+06		2.371626e-03		3.447560e+09
2.371626e-03		1.231022e+07		4.165446e-03
3.447560e+09		4.165446e-03		2.172421e+09
6.424309e+06		-1.274149e+07		3.555783e+09
-1.274149e+07		1.183463e+07		-1.222131e+08
3.555783e+09		-1.222131e+08		2.171608e+09
5.546559e+06		-2.410893e+07		3.847357e+09
-2.410893e+07		6.804224e+06		-2.209690e+08
3.847357e+09		-2.209690e+08		2.162028e+09
3.791532e+06		-1.463355e+07		4.468174e+09
-1.463355e+07		4.737139e+06		-1.424316e+08
4.468174e+09		-1.424316e+08		2.151040e+09
-2.564557e+06		-4.949024e+06		5.476551e+09
-4.949024e+06		1.591256e+06		-4.582433e+07
5.476551e+09		-4.582433e+07		2.137460e+09
-4.135624e+06		3.014104e+06		3.196230e+09
3.014104e+06		-1.841482e+06		9.027185e+07
3.196230e+09		9.027185e+07		3.210361e+09
1.326015e+06		1.292245e+07		2.119025e+09
1.292245e+07		1.104840e+07		5.064867e+08
2.119025e+09		5.064867e+08		3.244205e+09
1.706813e+06		-3.252082e-03		1.903731e+09
-3.252082e-03		2.409487e+07		1.050863e-02
1.903731e+09		1.050863e-02		3.259261e+09
1.326015e+06		-1.292245e+07		2.119025e+09
-1.292245e+07		1.104840e+07		-5.064867e+08
2.119025e+09		-5.064867e+08		3.244205e+09
-4.135624e+06		-3.014104e+06		3.196230e+09
-3.014104e+06		-1.841482e+06		-9.027185e+07
3.196230e+09		-9.027185e+07		3.210361e+09
9.719570e+05		-1.238761e+06		6.878989e+08
-1.238761e+06		-5.326809e+05		4.656826e+08
6.878989e+08		4.656826e+08		4.299144e+09
3.481093e+06		-1.494980e+06		2.675279e+08
-1.494980e+06		8.491619e+06		7.996895e+08
2.675279e+08		7.996895e+08		4.317858e+09
-3.768485e+05		4.223123e+05		2.666801e+08
4.223123e+05		1.733417e+07		1.003151e+09
2.666801e+08		1.003151e+09		4.328019e+09
7.101279e+05		-8.415791e+04		1.923505e+08
-8.415791e+04		3.197978e+07		4.715776e+08
1.923505e+08		4.715776e+08		4.339426e+09
-1.061631e+06		-1.712334e-02		2.455327e+08
-1.712334e-02		3.807402e+07		8.838471e-03
2.455327e+08		8.838471e-03		4.340440e+09
7.101279e+05		8.415790e+04		1.923505e+08
8.415790e+04		3.197978e+07		-4.715776e+08
1.923505e+08		-4.715776e+08		4.339426e+09
-3.768485e+05		-4.223123e+05		2.666801e+08
-4.223123e+05		1.733417e+07		-1.003151e+09
2.666801e+08		-1.003151e+09		4.328019e+09
3.481093e+06		1.494980e+06		2.675279e+08
1.494980e+06		8.491619e+06		-7.996895e+08
2.675279e+08		-7.996895e+08		4.317858e+09
9.719571e+05		1.238761e+06		6.878989e+08
1.238761e+06		-5.326809e+05		-4.656826e+08
6.878989e+08		-4.656826e+08		4.299144e+09
5.942070e+06		-2.272094e+06		5.118928e+08
-2.272094e+06		9.505994e+06		-4.578715e+08
5.118928e+08		-4.578715e+08		-6.427334e+09
2.779981e+06		1.030805e+06		9.475390e+07
1.030805e+06		-3.233193e+07		-9.916275e+08
9.475390e+07		-9.916275e+08		-6.498632e+09
1.736485e+06		-8.360287e-03		7.466839e+07
-8.360287e-03		-7.235177e+07		-1.888700e-03
7.466839e+07		-1.888700e-03		-6.529151e+09
2.779981e+06		-1.030805e+06		9.475390e+07
-1.030805e+06		-3.233193e+07		9.916275e+08
9.475390e+07		9.916275e+08		-6.498632e+09
5.942070e+06		2.272094e+06		5.118928e+08
2.272094e+06		9.505994e+06		4.578715e+08
5.118928e+08		4.578715e+08		-6.427334e+09
1.058666e+07		6.396750e+06		5.267778e+09
6.396750e+06		2.471304e+06		-4.352936e+07
5.267778e+09		-4.352936e+07		-3.183246e+09
-7.594083e+06		4.505702e+07		3.676959e+09
4.505702e+07		-1.088382e+07		-2.246382e+08
3.676959e+09		-2.246382e+08		-3.240548e+09
-9.623397e+06		7.772166e-03		3.298032e+09
7.772166e-03		-2.428178e+07		-1.361869e-03
3.298032e+09		-1.361869e-03		-3.266027e+09
-7.594083e+06		-4.505702e+07		3.676959e+09
-4.505702e+07		-1.088382e+07		2.246382e+08
3.676959e+09		2.246382e+08		-3.240548e+09
1.058666e+07		-6.396750e+06		5.267778e+09
-6.396750e+06		2.471304e+06		4.352936e+07
5.267778e+09		4.352936e+07		-3.183246e+09
-4.695144e-02		9.151669e+06		6.585293e+09
9.151669e+06		-3.037527e-02		2.102961e-02
6.585293e+09		2.102961e-02		-2.159361e-02
-4.012833e-02		6.463734e+07		4.942038e+09
6.463734e+07		-1.595815e-02		-1.393949e-03
4.942038e+09		-1.393949e-03		-1.547413e-02
-3.666708e-02		1.208250e-02		4.464218e+09
1.208250e-02		-9.374491e-03		-1.207373e-03
4.464218e+09		-1.207373e-03		-1.212295e-02
-4.081205e-02		-6.463734e+07		4.942038e+09
-6.463734e+07		-1.848376e-02		-4.990536e-04
4.942038e+09		-4.990536e-04		-1.386917e-02
-4.528648e-02		-9.151669e+06		6.585293e+09
-9.151669e+06		-2.907074e-02		-1.732934e-02
6.585293e+09		-1.732934e-02		-1.677157e-02
-1.058666e+07		6.396750e+06		5.267778e+09
6.396750e+06		-2.471304e+06		4.352936e+07
5.267778e+09		4.352936e+07		3.183246e+09
7.594083e+06		4.505702e+07		3.676959e+09
4.505702e+07		1.088382e+07		2.246382e+08
3.676959e+09		2.246382e+08		3.240548e+09
9.623397e+06		7.528178e-03		3.298032e+09
7.528178e-03		2.428178e+07		1.821946e-04
3.298032e+09		1.821946e-04		3.266027e+09
7.594083e+06		-4.505702e+07		3.676959e+09
-4.505702e+07		1.088382e+07		-2.246382e+08
3.676959e+09		-2.246382e+08		3.240548e+09
-1.058666e+07		-6.396750e+06		5.267778e+09
-6.396750e+06		-2.471304e+06		-4.352936e+07
5.267778e+09		-4.352936e+07		3.183246e+09
-5.942070e+06		-2.272094e+06		5.118928e+08
-2.272094e+06		-9.505994e+06		4.578715e+08
5.118928e+08		4.578715e+08		6.427334e+09
-2.779981e+06		1.030805e+06		9.475390e+07
1.030805e+06		3.233193e+07		9.916275e+08
9.475390e+07		9.916275e+08		6.498632e+09
-1.736485e+06		-1.531233e-02		7.466839e+07
-1.531233e-02		7.235177e+07		2.842098e-03
7.466839e+07		2.842098e-03		6.529151e+09
-2.779981e+06		-1.030805e+06		9.475390e+07
-1.030805e+06		3.233193e+07		-9.916275e+08
9.475390e+07		-9.916275e+08		6.498632e+09
-5.942070e+06		2.272094e+06		5.118928e+08
2.272094e+06		-9.505994e+06		-4.578715e+08
5.118928e+08		-4.578715e+08		6.427334e+09
2.807687e+06		-2.254928e+06		6.837434e+08
-2.254928e+06		7.950322e+06		-4.649818e+08
6.837434e+08		-4.649818e+08		-8.565626e+09
-8.331557e+06		-4.335719e+06		2.691587e+08
-4.335719e+06		-2.762083e+07		-7.927343e+08
2.691587e+08		-7.927343e+08		-8.637240e+09
2.856361e+06		1.530589e+06		2.708663e+08
1.530589e+06		-5.834440e+07		-9.915974e+08
2.708663e+08		-9.915974e+08		-8.676152e+09
7.071276e+05		-5.966397e+05		2.012979e+08
-5.966397e+05		-9.993403e+07		-4.636149e+08
2.012979e+08		-4.636149e+08		-8.712275e+09
4.362258e+06		-5.026601e-03		2.506344e+08
-5.026601e-03		-1.199218e+08		3.919862e-03
2.506344e+08		3.919862e-03		-8.723913e+09
7.071276e+05		5.966397e+05		2.012979e+08
5.966397e+05		-9.993403e+07		4.636149e+08
2.012979e+08		4.636149e+08		-8.712275e+09
2.856361e+06		-1.530589e+06		2.708663e+08
-1.530589e+06		-5.834440e+07		9.915974e+08
2.708663e+08		9.915974e+08		-8.676152e+09
-8.331557e+06		4.335719e+06		2.691587e+08
4.335719e+06		-2.762083e+07		7.927343e+08
2.691587e+08		7.927343e+08		-8.637240e+09
2.807687e+06		2.254928e+06		6.837434e+08
2.254928e+06		7.950322e+06		4.649818e+08
6.837434e+08		4.649818e+08		-8.565626e+09
1.533734e+07		9.428091e+06		3.156047e+09
9.428091e+06		9.473332e+06		-9.817141e+07
3.156047e+09		-9.817141e+07		-6.374786e+09
-2.030898e+06		3.910475e+07		2.127159e+09
3.910475e+07		-3.667845e+07		-5.149230e+08
2.127159e+09		-5.149230e+08		-6.494106e+09
-3.174883e+06		2.404657e-03		1.934434e+09
2.404657e-03		-7.546438e+07		5.548599e-03
1.934434e+09		5.548599e-03		-6.545117e+09
-2.030898e+06		-3.910475e+07		2.127159e+09
-3.910475e+07		-3.667845e+07		5.149230e+08
2.127159e+09		5.149230e+08		-6.494106e+09
1.533734e+07		-9.428091e+06		3.156047e+09
-9.428091e+06		9.473332e+06		9.817141e+07
3.156047e+09		9.817141e+07		-6.374786e+09
1.329030e+07		1.424290e+07		5.407813e+09
1.424290e+07		-4.463937e+05		-5.050655e+07
5.407813e+09		-5.050655e+07		-4.233676e+09
-4.277746e+06		4.392829e+07		4.438263e+09
4.392829e+07		-1.150498e+07		-1.548955e+08
4.438263e+09		-1.548955e+08		-4.281111e+09
-8.608188e+06		7.175440e+07		3.857632e+09
7.175440e+07		-1.874704e+07		-2.365384e+08
3.857632e+09		-2.365384e+08		-4.319358e+09
-1.009136e+07		3.726707e+07		3.597113e+09
3.726707e+07		-3.336266e+07		-1.294340e+08
3.597113e+09		-1.294340e+08		-4.347969e+09
-7.005691e+06		4.091341e-03		3.499541e+09
4.091341e-03		-3.651969e+07		1.984821e-03
3.499541e+09		1.984821e-03		-4.354299e+09
-1.009136e+07		-3.726707e+07		3.597113e+09
-3.726707e+07		-3.336266e+07		1.294340e+08
3.597113e+09		1.294340e+08		-4.347969e+09
-8.608188e+06		-7.175440e+07		3.857632e+09
-7.175440e+07		-1.874704e+07		2.365384e+08
3.857632e+09		2.365384e+08		-4.319358e+09
-4.277746e+06		-4.392829e+07		4.438263e+09
-4.392829e+07		-1.150498e+07		1.548955e+08
4.438263e+09		1.548955e+08		-4.281111e+09
1.329030e+07		-1.424290e+07		5.407813e+09
-1.424290e+07		-4.463938e+05		5.050655e+07
5.407813e+09		5.050655e+07		-4.233676e+09
1.416987e+07		1.824370e+07		6.092072e+09
1.824370e+07		5.250760e+06		-7.832969e+06
6.092072e+09		-7.832969e+06		-2.104597e+09
-3.170766e+06		8.910002e+07		4.574203e+09
8.910002e+07		-5.773230e+06		-1.041519e+08
4.574203e+09		-1.041519e+08		-2.152953e+09
-4.269311e+06		6.012289e-03		4.177493e+09
6.012289e-03		-1.440759e+07		-6.588935e-04
4.177493e+09		-6.588935e-04		-2.173572e+09
-3.170766e+06		-8.910002e+07		4.574203e+09
-8.910002e+07		-5.773230e+06		1.041519e+08
4.574203e+09		1.041519e+08		-2.152953e+09
1.416987e+07		-1.824370e+07		6.092072e+09
-1.824370e+07		5.250760e+06		7.832969e+06
6.092072e+09		7.832969e+06		-2.104597e+09
-4.346748e-02		1.859820e+07		6.711205e+09
1.859820e+07		-4.487133e-02		6.486374e-03
6.711205e+09		6.486374e-03		-3.810105e-02
-5.011962e-02		6.456088e+07		5.732251e+09
6.456088e+07		-2.802455e-02		-1.011618e-02
5.732251e+09		-1.011618e-02		-4.037480e-02
-2.631655e-02		1.025557e+08		5.115464e+09
1.025557e+08		-1.077112e-02		-8.164758e-03
5.115464e+09		-8.164758e-03		-1.991237e-02
-4.733738e-02		5.408013e+07		4.782030e+09
5.408013e+07		-2.930782e-02		-4.859714e-03
4.782030e+09		-4.859714e-03		-3.610749e-02
-2.155509e-02		7.084798e-03		4.664137e+09
7.084798e-03		-3.278433e-03		-3.074362e-03
4.664137e+09		-3.074362e-03		-1.432852e-02
-4.603129e-02		-5.408013e+07		4.782030e+09
-5.408013e+07		-2.884472e-02		3.366496e-03
4.782030e+09		3.366496e-03		-3.674165e-02
-2.542635e-02		-1.025557e+08		5.115464e+09
-1.025557e+08		-1.137830e-02		4.596109e-03
5.115464e+09		4.596109e-03		-2.135640e-02
-4.668457e-02		-6.456088e+07		5.732251e+09
-6.456088e+07		-2.722196e-02		1.275695e-02
5.732251e+09		1.275695e-02		-4.256227e-02
-4.225553e-02		-1.859820e+07		6.711205e+09
-1.859820e+07		-4.779390e-02		9.693372e-03
6.711205e+09		9.693372e-03		-4.170332e-02
-1.416987e+07		1.824370e+07		6.092072e+09
1.824370e+07		-5.250760e+06		7.832969e+06
6.092072e+09		7.832969e+06		2.104597e+09
3.170766e+06		8.910002e+07		4.574203e+09
8.910002e+07		5.773230e+06		1.041519e+08
4.574203e+09		1.041519e+08		2.152953e+09
4.269312e+06		6.628816e-03		4.177493e+09
6.628816e-03		1.440759e+07		-7.555505e-03
4.177493e+09		-7.555505e-03		2.173572e+09
3.170766e+06		-8.910002e+07		4.574203e+09
-8.910002e+07		5.773230e+06		-1.041519e+08
4.574203e+09		-1.041519e+08		2.152953e+09
-1.416987e+07		-1.824370e+07		6.092072e+09
-1.824370e+07		-5.250760e+06		-7.832969e+06
6.092072e+09		-7.832969e+06		2.104597e+09
-1.329030e+07		1.424290e+07		5.407813e+09
1.424290e+07		4.463937e+05		5.050655e+07
5.407813e+09		5.050655e+07		4.233676e+09
4.277746e+06		4.392829e+07		4.438263e+09
4.392829e+07		1.150498e+07		1.548955e+08
4.438263e+09		1.548955e+08		4.281111e+09
8.608188e+06		7.175440e+07		3.857632e+09
7.175440e+07		1.874704e+07		2.365384e+08
3.857632e+09		2.365384e+08		4.319358e+09
1.009136e+07		3.726707e+07		3.597113e+09
3.726707e+07		3.336266e+07		1.294340e+08
3.597113e+09		1.294340e+08		4.347969e+09
7.005691e+06		6.396959e-03		3.499541e+09
6.396959e-03		3.651969e+07		-6.088018e-03
3.499541e+09		-6.088018e-03		4.354299e+09
1.009136e+07		-3.726707e+07		3.597113e+09
-3.726707e+07		3.336266e+07		-1.294340e+08
3.597113e+09		-1.294340e+08		4.347969e+09
8.608188e+06		-7.175440e+07		3.857632e+09
-7.175440e+07		1.874704e+07		-2.365384e+08
3.857632e+09		-2.365384e+08		4.319358e+09
4.277746e+06		-4.392829e+07		4.438263e+09
-4.392829e+07		1.150498e+07		-1.548955e+08
4.438263e+09		-1.548955e+08		4.281111e+09
-1.329030e+07		-1.424290e+07		5.407813e+09
-1.424290e+07		4.463937e+05		-5.050655e+07
5.407813e+09		-5.050655e+07		4.233676e+09
-1.533734e+07		9.428091e+06		3.156047e+09
9.428091e+06		-9.473332e+06		9.817141e+07
3.156047e+09		9.817141e+07		6.374786e+09
2.030898e+06		3.910475e+07		2.127159e+09
3.910475e+07		3.667845e+07		5.149230e+08
2.127159e+09		5.149230e+08		6.494106e+09
3.174883e+06		3.697102e-03		1.934434e+09
3.697102e-03		7.546438e+07		-8.586624e-03
1.934434e+09		-8.586624e-03		6.545117e+09
2.030898e+06		-3.910475e+07		2.127159e+09
-3.910475e+07		3.667845e+07		-5.149230e+08
2.127159e+09		-5.149230e+08		6.494106e+09
-1.533734e+07		-9.428091e+06		3.156047e+09
-9.428091e+06		-9.473332e+06		-9.817141e+07
3.156047e+09		-9.817141e+07		6.374786e+09
-2.807687e+06		-2.254928e+06		6.837434e+08
-2.254928e+06		-7.950322e+06		4.649818e+08
6.837434e+08		4.649818e+08		8.565626e+09
8.331557e+06		-4.335719e+06		2.691587e+08
-4.335719e+06		2.762083e+07		7.927343e+08
2.691587e+08		7.927343e+08		8.637240e+09
-2.856361e+06		1.530589e+06		2.708663e+08
1.530589e+06		5.834440e+07		9.915974e+08
2.708663e+08		9.915974e+08		8.676152e+09
-7.071274e+05		-5.966397e+05		2.012979e+08
-5.966397e+05		9.993403e+07		4.636149e+08
2.012979e+08		4.636149e+08		8.712275e+09
-4.362258e+06		-1.192020e-02		2.506344e+08
-1.192020e-02		1.199218e+08		-3.428042e-03
2.506344e+08		-3.428042e-03		8.723913e+09
-7.071275e+05		5.966397e+05		2.012979e+08
5.966397e+05		9.993403e+07		-4.636149e+08
2.012979e+08		-4.636149e+08		8.712275e+09
-2.856361e+06		-1.530589e+06		2.708663e+08
-1.530589e+06		5.834440e+07		-9.915974e+08
2.708663e+08		-9.915974e+08		8.676152e+09
8.331557e+06		4.335719e+06		2.691587e+08
4.335719e+06		2.762083e+07		-7.927343e+08
2.691587e+08		-7.927343e+08		8.637240e+09
-2.807687e+06		2.254928e+06		6.837434e+08
2.254928e+06		-7.950322e+06		-4.649818e+08
6.837434e+08		-4.649818e+08		8.565626e+09
4.699445e+06		-6.099987e+06		5.002998e+08
-6.099987e+06		1.571229e+07		-4.395176e+08
5.002998e+08		-4.395176e+08		-1.063145e+10
-2.982974e+06		3.106127e+06		1.016132e+08
3.106127e+06		-1.016139e+08		-9.535026e+08
1.016132e+08		-9.535026e+08		-1.086140e+10
-9.814925e+06		-1.320215e-04		8.238596e+07
-1.320215e-04		-2.083076e+08		-1.313537e-03
8.238596e+07		-1.313537e-03		-1.096248e+10
-2.982974e+06		-3.106127e+06		1.016132e+08
-3.106127e+06		-1.016139e+08		9.535026e+08
1.016132e+08		9.535026e+08		-1.086140e+10
4.699445e+06		6.099987e+06		5.002998e+08
6.099987e+06		1.571229e+07		4.395176e+08
5.002998e+08		4.395176e+08		-1.063145e+10
3.610082e+07		2.039799e+07		5.135998e+09
2.039799e+07		1.114051e+06		-4.225264e+07
5.135998e+09		-4.225264e+07		-5.233955e+09
-8.380727e+06		1.167580e+08		3.692380e+09
1.167580e+08		-3.326914e+07		-2.410050e+08
3.692380e+09		-2.410050e+08		-5.403314e+09
-1.251495e+07		3.466564e-03		3.385918e+09
3.466564e-03		-7.063447e+07		-1.214320e-03
3.385918e+09		-1.214320e-03		-5.483201e+09
-8.380727e+06		-1.167580e+08		3.692380e+09
-1.167580e+08		-3.326914e+07		2.410050e+08
3.692380e+09		2.410050e+08		-5.403314e+09
3.610082e+07		-2.039799e+07		5.135998e+09
-2.039799e+07		1.114051e+06		4.225264e+07
5.135998e+09		4.225264e+07		-5.233955e+09
-4.031265e-02		2.640703e+07		6.434858e+09
2.640703e+07		-5.018539e-02		3.094100e-03
6.434858e+09		3.094100e-03		-2.154668e-02
-1.522007e-02		1.685118e+08		4.952514e+09
1.685118e+08		2.982125e-03		1.025872e-04
4.952514e+09		1.025872e-04		1.034964e-03
-6.387969e-03		8.375539e-03		4.569150e+09
8.375539e-03		1.625157e-02		-1.232594e-03
4.569150e+09		-1.232594e-03		6.164834e-03
-7.375945e-03		-1.685118e+08		4.952514e+09
-1.685118e+08		8.223748e-03		-2.182963e-03
4.952514e+09		-2.182963e-03		3.889687e-03
-3.017128e-02		-2.640703e+07		6.434858e+09
-2.640703e+07		-4.699123e-02		3.770207e-03
6.434858e+09		3.770207e-03		-1.898713e-02
-3.610082e+07		2.039799e+07		5.135998e+09
2.039799e+07		-1.114051e+06		4.225264e+07
5.135998e+09		4.225264e+07		5.233955e+09
8.380727e+06		1.167580e+08		3.692380e+09
1.167580e+08		3.326914e+07		2.410050e+08
3.692380e+09		2.410050e+08		5.403314e+09
1.251495e+07		9.750003e-03		3.385918e+09
9.750003e-03		7.063447e+07		-8.955263e-04
3.385918e+09		-8.955263e-04		5.483201e+09
8.380727e+06		-1.167580e+08		3.692380e+09
-1.167580e+08		3.326914e+07		-2.410050e+08
3.692380e+09		-2.410050e+08		5.403314e+09
-3.610082e+07		-2.039799e+07		5.135998e+09
-2.039799e+07		-1.114051e+06		-4.225264e+07
5.135998e+09		-4.225264e+07		5.233955e+09
-4.699445e+06		-6.099987e+06		5.002998e+08
-6.099987e+06		-1.571229e+07		4.395176e+08
5.002998e+08		4.395176e+08		1.063145e+10
2.982974e+06		3.106127e+06		1.016132e+08
3.106127e+06		1.016139e+08		9.535026e+08
1.016132e+08		9.535026e+08		1.086140e+10
9.814925e+06		1.120920e-03		8.238596e+07
1.120920e-03		2.083076e+08		7.387400e-04
8.238596e+07		7.387400e-04		1.096248e+10
2.982974e+06		-3.106127e+06		1.016132e+08
-3.106127e+06		1.016139e+08		-9.535026e+08
1.016132e+08		-9.535026e+08		1.086140e+10
-4.699445e+06		6.099987e+06		5.002998e+08
6.099987e+06		-1.571229e+07		-4.395176e+08
5.002998e+08		-4.395176e+08		1.063145e+10
-2.265687e+07		-1.405785e+07		6.501872e+08
-1.405785e+07		-1.395941e+07		-4.623071e+08
6.501872e+08		-4.623071e+08		-1.272879e+10
-3.777566e+07		-1.251129e+07		2.657729e+08
-1.251129e+07		-9.276125e+07		-7.613302e+08
2.657729e+08		-7.613302e+08		-1.293244e+10
-7.809989e+06		1.480137e+06		2.683638e+08
1.480137e+06		-1.736397e+08		-9.572017e+08
2.683638e+08		-9.572017e+08		-1.305026e+10
-2.315109e+07		-3.631381e+06		2.083739e+08
-3.631381e+06		-2.935084e+08		-4.428737e+08
2.083739e+08		-4.428737e+08		-1.317763e+10
-6.171128e+06		5.367535e-03		2.491373e+08
5.367535e-03		-3.253551e+08		3.571626e-03
2.491373e+08		3.571626e-03		-1.319098e+10
-2.315109e+07		3.631381e+06		2.083739e+08
3.631381e+06		-2.935084e+08		4.428737e+08
2.083739e+08		4.428737e+08		-1.317763e+10
-7.809989e+06		-1.480137e+06		2.683638e+08
-1.480137e+06		-1.736397e+08		9.572017e+08
2.683638e+08		9.572017e+08		-1.305026e+10
-3.777566e+07		1.251129e+07		2.657729e+08
1.251129e+07		-9.276125e+07		7.613302e+08
2.657729e+08		7.613302e+08		-1.293244e+10
-2.265687e+07		1.405785e+07		6.501872e+08
1.405785e+07		-1.395941e+07		4.623071e+08
6.501872e+08		4.623071e+08		-1.272879e+10
4.742948e+07		2.434041e+07		3.023631e+09
2.434041e+07		1.189703e+07		-1.179506e+08
3.023631e+09		-1.179506e+08		-9.404602e+09
1.083389e+07		9.367072e+07		2.133979e+09
9.367072e+07		-1.043049e+08		-5.287645e+08
2.133979e+09		-5.287645e+08		-9.746434e+09
1.134408e+07		2.041614e-03		1.996597e+09
2.041614e-03		-2.015176e+08		5.573851e-03
1.996597e+09		5.573851e-03		-9.890016e+09
1.083389e+07		-9.367072e+07		2.133979e+09
-9.367072e+07		-1.043049e+08		5.287645e+08
2.133979e+09		5.287645e+08		-9.746434e+09
4.742948e+07		-2.434041e+07		3.023631e+09
-2.434041e+07		1.189703e+07		1.179506e+08
3.023631e+09		1.179506e+08		-9.404602e+09
6.162111e+07		3.805490e+07		5.192188e+09
3.805490e+07		-5.247540e+06		-6.437548e+07
5.192188e+09		-6.437548e+07		-6.226738e+09
2.504917e+07		1.079118e+08		4.336604e+09
1.079118e+08		-2.447572e+07		-1.809006e+08
4.336604e+09		-1.809006e+08		-6.353718e+09
1.371459e+07		1.731034e+08		3.867171e+09
1.731034e+08		-4.589493e+07		-2.729179e+08
3.867171e+09		-2.729179e+08		-6.460410e+09
6.673600e+06		8.927634e+07		3.679419e+09
8.927634e+07		-9.467686e+07		-1.443189e+08
3.679419e+09		-1.443189e+08		-6.556492e+09
2.252295e+07		-1.660772e-04		3.613112e+09
-1.660772e-04		-9.315347e+07		2.528053e-03
3.613112e+09		2.528053e-03		-6.565783e+09
6.673600e+06		-8.927634e+07		3.679419e+09
-8.927634e+07		-9.467686e+07		1.443189e+08
3.679419e+09		1.443189e+08		-6.556492e+09
1.371459e+07		-1.731034e+08		3.867171e+09
-1.731034e+08		-4.589493e+07		2.729179e+08
3.867171e+09		2.729179e+08		-6.460410e+09
2.504917e+07		-1.079118e+08		4.336604e+09
-1.079118e+08		-2.447572e+07		1.809006e+08
4.336604e+09		1.809006e+08		-6.353718e+09
6.162111e+07		-3.805490e+07		5.192188e+09
-3.805490e+07		-5.247540e+06		6.437548e+07
5.192188e+09		6.437548e+07		-6.226738e+09
5.684393e+07		4.534732e+07		5.885712e+09
4.534732e+07		7.318386e+06		-2.141160e+07
5.885712e+09		-2.141160e+07		-3.104669e+09
1.736685e+07		2.175621e+08		4.602330e+09
2.175621e+08		-1.830985e+07		-1.282987e+08
4.602330e+09		-1.282987e+08		-3.235273e+09
1.472705e+07		5.562901e-03		4.335179e+09
5.562901e-03		-4.457150e+07		1.203237e-03
4.335179e+09		1.203237e-03		-3.301588e+09
1.736685e+07		-2.175621e+08		4.602330e+09
-2.175621e+08		-1.830985e+07		1.282987e+08
4.602330e+09		1.282987e+08		-3.235273e+09
5.684393e+07		-4.534732e+07		5.885712e+09
-4.534732e+07		7.318386e+06		2.141160e+07
5.885712e+09		2.141160e+07		-3.104669e+09
-3.609050e-02		4.788226e+07		6.485195e+09
4.788226e+07		-6.385031e-02		-1.839316e-02
6.485195e+09		-1.839316e-02		-4.322754e-02
-1.723338e-02		1.600535e+08		5.618381e+09
1.600535e+08		-1.437159e-02		-6.514818e-03
5.618381e+09		-6.514818e-03		-2.595939e-02
-4.773320e-03		2.514122e+08		5.131806e+09
2.514122e+08		2.270142e-03		-1.007488e-03
5.131806e+09		-1.007488e-03		-8.539855e-03
-1.130055e-02		1.336057e+08		4.899288e+09
1.336057e+08		-1.368863e-02		-1.852286e-03
4.899288e+09		-1.852286e-03		-1.621344e-02
5.351236e-03		2.589816e-03		4.824017e+09
2.589816e-03		1.419701e-02		-1.207946e-03
4.824017e+09		-1.207946e-03		3.052879e-03
-3.126385e-03		-1.336057e+08		4.899288e+09
-1.336057e+08		-8.927895e-03		4.838128e-05
4.899288e+09		4.838128e-05		-7.473424e-03
6.887086e-03		-2.514122e+08		5.131806e+09
-2.514122e+08		1.194682e-02		-1.433761e-03
5.131806e+09		-1.433761e-03		3.789825e-03
1.531724e-03		-1.600535e+08		5.618381e+09
-1.600535e+08		-3.507996e-03		5.329037e-03
5.618381e+09		5.329037e-03		-5.981084e-03
-2.534528e-02		-4.788226e+07		6.485195e+09
-4.788226e+07		-5.946369e-02		2.282610e-02
6.485195e+09		2.282610e-02		-3.163353e-02
-5.684393e+07		4.534732e+07		5.885712e+09
4.534732e+07		-7.318386e+06		2.141160e+07
5.885712e+09		2.141160e+07		3.104669e+09
-1.736685e+07		2.175621e+08		4.602330e+09
2.175621e+08		1.830985e+07		1.282987e+08
4.602330e+09		1.282987e+08		3.235273e+09
-1.472705e+07		8.131571e-03		4.335179e+09
8.131571e-03		4.457150e+07		-5.440400e-03
4.335179e+09		-5.440400e-03		3.301588e+09
-1.736685e+07		-2.175621e+08		4.602330e+09
-2.175621e+08		1.830985e+07		-1.282987e+08
4.602330e+09		-1.282987e+08		3.235273e+09
-5.684393e+07		-4.534732e+07		5.885712e+09
-4.534732e+07		-7.318386e+06		-2.141160e+07
5.885712e+09		-2.141160e+07		3.104669e+09
-6.162111e+07		3.805490e+07		5.192188e+09
3.805490e+07		5.247540e+06		6.437548e+07
5.192188e+09		6.437548e+07		6.226738e+09
-2.504917e+07		1.079118e+08		4.336604e+09
1.079118e+08		2.447572e+07		1.809006e+08
4.336604e+09		1.809006e+08		6.353718e+09
-1.371459e+07		1.731034e+08		3.867171e+09
1.731034e+08		4.589493e+07		2.729179e+08
3.867171e+09		2.729179e+08		6.460410e+09
-6.673600e+06		8.927634e+07		3.679419e+09
8.927634e+07		9.467686e+07		1.443189e+08
3.679419e+09		1.443189e+08		6.556492e+09
-2.252295e+07		4.827193e-03		3.613112e+09
4.827193e-03		9.315347e+07		-5.171093e-03
3.613112e+09		-5.171093e-03		6.565783e+09
-6.673600e+06		-8.927634e+07		3.679419e+09
-8.927634e+07		9.467686e+07		-1.443189e+08
3.679419e+09		-1.443189e+08		6.556492e+09
-1.371459e+07		-1.731034e+08		3.867171e+09
-1.731034e+08		4.589493e+07		-2.729179e+08
3.867171e+09		-2.729179e+08		6.460410e+09
-2.504917e+07		-1.079118e+08		4.336604e+09
-1.079118e+08		2.447572e+07		-1.809006e+08
4.336604e+09		-1.809006e+08		6.353718e+09
-6.162111e+07		-3.805490e+07		5.192188e+09
-3.805490e+07		5.247540e+06		-6.437548e+07
5.192188e+09		-6.437548e+07		6.226738e+09
-4.742948e+07		2.434041e+07		3.023631e+09
2.434041e+07		-1.189703e+07		1.179506e+08
3.023631e+09		1.179506e+08		9.404602e+09
-1.083389e+07		9.367072e+07		2.133979e+09
9.367072e+07		1.043049e+08		5.287645e+08
2.133979e+09		5.287645e+08		9.746434e+09
-1.134408e+07		7.982277e-03		1.996597e+09
7.982277e-03		2.015176e+08		-9.957785e-03
1.996597e+09		-9.957785e-03		9.890016e+09
-1.083389e+07		-9.367072e+07		2.133979e+09
-9.367072e+07		1.043049e+08		-5.287645e+08
2.133979e+09		-5.287645e+08		9.746434e+09
-4.742948e+07		-2.434041e+07		3.023631e+09
-2.434041e+07		-1.189703e+07		-1.179506e+08
3.023631e+09		-1.179506e+08		9.404602e+09
2.265687e+07		-1.405785e+07		6.501872e+08
-1.405785e+07		1.395941e+07		4.623071e+08
6.501872e+08		4.623071e+08		1.272879e+10
3.777566e+07		-1.251129e+07		2.657729e+08
-1.251129e+07		9.276125e+07		7.613302e+08
2.657729e+08		7.613302e+08		1.293244e+10
7.809989e+06		1.480137e+06		2.683638e+08
1.480137e+06		1.736397e+08		9.572017e+08
2.683638e+08		9.572017e+08		1.305026e+10
2.315109e+07		-3.631381e+06		2.083739e+08
-3.631381e+06		2.935084e+08		4.428737e+08
2.083739e+08		4.428737e+08		1.317763e+10
6.171128e+06		7.992082e-03		2.491373e+08
7.992082e-03		3.253551e+08		-6.084677e-03
2.491373e+08		-6.084677e-03		1.319098e+10
2.315109e+07		3.631381e+06		2.083739e+08
3.631381e+06		2.935084e+08		-4.428737e+08
2.083739e+08		-4.428737e+08		1.317763e+10
7.809988e+06		-1.480137e+06		2.683638e+08
-1.480137e+06		1.736397e+08		-9.572017e+08
2.683638e+08		-9.572017e+08		1.305026e+10
3.777566e+07		1.251129e+07		2.657729e+08
1.251129e+07		9.276125e+07		-7.613302e+08
2.657729e+08		-7.613302e+08		1.293244e+10
2.265687e+07		1.405785e+07		6.501872e+08
1.405785e+07		1.395941e+07		-4.623071e+08
6.501872e+08		-4.623071e+08		1.272879e+10
5.404257e+07		-1.790192e+06		4.259753e+08
-1.790192e+06		8.683877e+07		-4.020942e+08
4.259753e+08		-4.020942e+08		-1.462554e+10
4.024182e+07		2.812574e+06		7.724431e+07
2.812574e+06		-2.651888e+08		-8.665215e+08
7.724431e+07		-8.665215e+08		-1.518562e+10
3.299822e+07		7.771424e-03		5.133763e+07
7.771424e-03		-5.318526e+08		-1.849633e-03
5.133763e+07		-1.849633e-03		-1.543701e+10
4.024182e+07		-2.812574e+06		7.724431e+07
-2.812574e+06		-2.651888e+08		8.665215e+08
7.724431e+07		8.665215e+08		-1.518562e+10
5.404257e+07		1.790192e+06		4.259753e+08
1.790192e+06		8.683877e+07		4.020942e+08
4.259753e+08		4.020942e+08		-1.462554e+10
1.618984e+08		4.408686e+07		4.763146e+09
4.408686e+07		3.737053e+07		-5.640491e+07
4.763146e+09		-5.640491e+07		-7.139639e+09
6.062607e+07		2.603229e+08		3.693070e+09
2.603229e+08		-7.594223e+07		-2.830470e+08
3.693070e+09		-2.830470e+08		-7.558148e+09
4.742991e+07		-5.968013e-04		3.540867e+09
-5.968013e-04		-2.104338e+08		-4.036352e-04
3.540867e+09		-4.036352e-04		-7.765210e+09
6.062607e+07		-2.603229e+08		3.693070e+09
-2.603229e+08		-7.594223e+07		2.830470e+08
3.693070e+09		2.830470e+08		-7.558148e+09
1.618984e+08		-4.408687e+07		4.763146e+09
-4.408687e+07		3.737053e+07		5.640491e+07
4.763146e+09		5.640491e+07		-7.139639e+09
-9.950275e-03		5.999416e+07		6.131573e+09
5.999416e+07		-4.525840e-02		-1.423666e-02
6.131573e+09		-1.423666e-02		-1.373337e-02
2.213543e-02		3.952239e+08		5.033740e+09
3.952239e+08		2.359507e-02		2.344039e-03
5.033740e+09		2.344039e-03		1.600913e-02
2.785406e-02		2.556419e-03		4.877707e+09
2.556419e-03		3.227705e-02		9.330151e-04
4.877707e+09		9.330151e-04		1.846911e-02
2.967041e-02		-3.952239e+08		5.033740e+09
-3.952239e+08		2.885765e-02		-8.542822e-04
5.033740e+09		-8.542822e-04		1.714924e-02
1.059422e-03		-5.999416e+07		6.131573e+09
-5.999416e+07		-3.808787e-02		1.139313e-02
6.131573e+09		1.139313e-02		-1.192534e-02
-1.618984e+08		4.408687e+07		4.763146e+09
4.408687e+07		-3.737053e+07		5.640491e+07
4.763146e+09		5.640491e+07		7.139639e+09
-6.062607e+07		2.603229e+08		3.693070e+09
2.603229e+08		7.594223e+07		2.830470e+08
3.693070e+09		2.830470e+08		7.558148e+09
-4.742991e+07		5.865071e-03		3.540867e+09
5.865071e-03		2.104338e+08		1.904530e-03
3.540867e+09		1.904530e-03		7.765210e+09
-6.062607e+07		-2.603229e+08		3.693070e+09
-2.603229e+08		7.594223e+07		-2.830470e+08
3.693070e+09		-2.830470e+08		7.558148e+09
-1.618984e+08		-4.408687e+07		4.763146e+09
-4.408687e+07		-3.737053e+07		-5.640491e+07
4.763146e+09		-5.640491e+07		7.139639e+09
-5.404257e+07		-1.790192e+06		4.259753e+08
-1.790192e+06		-8.683877e+07		4.020942e+08
4.259753e+08		4.020942e+08		1.462554e+10
-4.024182e+07		2.812574e+06		7.724431e+07
2.812574e+06		2.651888e+08		8.665215e+08
7.724431e+07		8.665215e+08		1.518562e+10
-3.299822e+07		1.292178e-02		5.133763e+07
1.292178e-02		5.318526e+08		1.665492e-03
5.133763e+07		1.665492e-03		1.543701e+10
-4.024182e+07		-2.812574e+06		7.724431e+07
-2.812574e+06		2.651888e+08		-8.665215e+08
7.724431e+07		-8.665215e+08		1.518562e+10
-5.404257e+07		1.790192e+06		4.259753e+08
1.790192e+06		-8.683877e+07		-4.020942e+08
4.259753e+08		-4.020942e+08		1.462554e+10
1.299588e+08		2.953065e+05		5.243998e+08
2.953065e+05		1.519886e+08		-3.644875e+08
5.243998e+08		-3.644875e+08		-1.652177e+10
1.084428e+07		-3.306335e+07		2.362236e+08
-3.306335e+07		-2.062597e+08		-6.503122e+08
2.362236e+08		-6.503122e+08		-1.707940e+10
7.007781e+07		-9.481833e+06		2.373224e+08
-9.481833e+06		-4.562827e+08		-8.238482e+08
2.373224e+08		-8.238482e+08		-1.738614e+10
6.733336e+07		-2.324574e+07		1.981420e+08
-2.324574e+07		-7.040391e+08		-3.578718e+08
1.981420e+08		-3.578718e+08		-1.765465e+10
3.332249e+07		1.103868e-02		2.055715e+08
1.103868e-02		-9.118011e+08		-1.723609e-03
2.055715e+08		-1.723609e-03		-1.784299e+10
6.733336e+07		2.324574e+07		1.981420e+08
2.324574e+07		-7.040391e+08		3.578718e+08
1.981420e+08		3.578718e+08		-1.765465e+10
7.007781e+07		9.481833e+06		2.373224e+08
9.481833e+06		-4.562827e+08		8.238482e+08
2.373224e+08		8.238482e+08		-1.738614e+10
1.084428e+07		3.306335e+07		2.362236e+08
3.306335e+07		-2.062597e+08		6.503122e+08
2.362236e+08		6.503122e+08		-1.707940e+10
1.299588e+08		-2.953065e+05		5.243998e+08
-2.953065e+05		1.519886e+08		3.644875e+08
5.243998e+08		3.644875e+08		-1.652177e+10
1.981173e+08		5.615565e+07		2.609987e+09
5.615565e+07		1.252521e+08		-1.283731e+08
2.609987e+09		-1.283731e+08		-1.217355e+10
6.008556e+07		1.891695e+08		2.065896e+09
1.891695e+08		-3.091969e+08		-5.217731e+08
2.065896e+09		-5.217731e+08		-1.302108e+10
-3.821895e+06		3.334084e-03		2.033200e+09
3.334084e-03		-6.757521e+08		-6.384712e-04
2.033200e+09		-6.384712e-04		-1.349012e+10
6.008556e+07		-1.891695e+08		2.065896e+09
-1.891695e+08		-3.091969e+08		5.217731e+08
2.065896e+09		5.217731e+08		-1.302108e+10
1.981173e+08		-5.615565e+07		2.609987e+09
-5.615565e+07		1.252521e+08		1.283731e+08
2.609987e+09		1.283731e+08		-1.217355e+10
2.497061e+08		6.421114e+07		4.643478e+09
6.421114e+07		4.598720e+07		-7.080836e+07
4.643478e+09		-7.080836e+07		-8.105816e+09
1.443122e+08		2.121218e+08		4.085282e+09
2.121218e+08		-6.213465e+07		-2.304035e+08
4.085282e+09		-2.304035e+08		-8.406966e+09
1.053563e+08		3.584184e+08		3.849656e+09
3.584184e+08		-1.537252e+08		-3.413845e+08
3.849656e+09		-3.413845e+08		-8.703440e+09
8.449422e+07		1.721913e+08		3.833448e+09
1.721913e+08		-3.036420e+08		-1.575189e+08
3.833448e+09		-1.575189e+08		-8.941485e+09
6.215025e+07		-6.726338e-04		3.820223e+09
-6.726338e-04		-4.134628e+08		8.618068e-04
3.820223e+09		8.618068e-04		-9.066494e+09
8.449422e+07		-1.721913e+08		3.833448e+09
-1.721913e+08		-3.036420e+08		1.575189e+08
3.833448e+09		1.575189e+08		-8.941485e+09
1.053563e+08		-3.584184e+08		3.849656e+09
-3.584184e+08		-1.537252e+08		3.413845e+08
3.849656e+09		3.413845e+08		-8.703440e+09
1.443122e+08		-2.121218e+08		4.085282e+09
-2.121218e+08		-6.213465e+07		2.304035e+08
4.085282e+09		2.304035e+08		-8.406966e+09
2.497061e+08		-6.421114e+07		4.643478e+09
-6.421114e+07		4.598720e+07		7.080836e+07
4.643478e+09		7.080836e+07		-8.105816e+09
2.013711e+08		9.466943e+07		5.443372e+09
9.466943e+07		5.535566e+07		-5.252146e+07
5.443372e+09		-5.252146e+07		-4.023230e+09
7.583295e+07		4.760621e+08		4.694088e+09
4.760621e+08		-6.550981e+07		-1.752888e+08
4.694088e+09		-1.752888e+08		-4.363013e+09
4.224689e+07		5.698688e-03		4.712181e+09
5.698688e-03		-1.979161e+08		3.582937e-03
4.712181e+09		3.582937e-03		-4.567305e+09
7.583295e+07		-4.760621e+08		4.694088e+09
-4.760621e+08		-6.550981e+07		1.752888e+08
4.694088e+09		1.752888e+08		-4.363013e+09
2.013711e+08		-9.466943e+07		5.443372e+09
-9.466943e+07		5.535566e+07		5.252146e+07
5.443372e+09		5.252146e+07		-4.023230e+09
-8.265942e-03		9.525650e+07		6.149458e+09
9.525650e+07		-4.981856e-02		-2.326936e-02
6.149458e+09		-2.326936e-02		-1.928820e-02
3.045868e-02		3.438860e+08		5.559482e+09
3.438860e+08		1.097837e-02		1.424637e-03
5.559482e+09		1.424637e-03		1.332060e-02
2.509076e-02		5.583700e+08		5.364221e+09
5.583700e+08		1.995705e-02		6.999020e-03
5.364221e+09		6.999020e-03		1.467327e-02
3.143390e-02		2.790739e+08		5.375926e+09
2.790739e+08		9.820829e-03		3.156394e-03
5.375926e+09		3.156394e-03		1.584513e-02
2.700657e-02		3.264276e-04		5.391722e+09
3.264276e-04		2.346824e-02		3.577018e-03
5.391722e+09		3.577018e-03		1.797307e-02
3.503769e-02		-2.790739e+08		5.375926e+09
-2.790739e+08		1.225078e-02		-9.740602e-04
5.375926e+09		-9.740602e-04		1.943833e-02
2.858694e-02		-5.583700e+08		5.364221e+09
-5.583700e+08		2.211263e-02		-3.040837e-03
5.364221e+09		-3.040837e-03		1.850690e-02
3.846833e-02		-3.438860e+08		5.559482e+09
-3.438860e+08		1.579071e-02		-4.478396e-03
5.559482e+09		-4.478396e-03		2.120566e-02
-3.239289e-04		-9.525650e+07		6.149458e+09
-9.525650e+07		-4.137614e-02		5.591820e-03
6.149458e+09		5.591820e-03		-1.187900e-02
-2.013711e+08		9.466943e+07		5.443372e+09
9.466943e+07		-5.535566e+07		5.252146e+07
5.443372e+09		5.252146e+07		4.023230e+09
-7.583295e+07		4.760621e+08		4.694088e+09
4.760621e+08		6.550981e+07		1.752888e+08
4.694088e+09		1.752888e+08		4.363013e+09
-4.224689e+07		6.699910e-03		4.712181e+09
6.699910e-03		1.979161e+08		6.436452e-03
4.712181e+09		6.436452e-03		4.567305e+09
-7.583295e+07		-4.760621e+08		4.694088e+09
-4.760621e+08		6.550981e+07		-1.752888e+08
4.694088e+09		-1.752888e+08		4.363013e+09
-2.013711e+08		-9.466943e+07		5.443372e+09
-9.466943e+07		-5.535566e+07		-5.252146e+07
5.443372e+09		-5.252146e+07		4.023230e+09
-2.497061e+08		6.421114e+07		4.643478e+09
6.421114e+07		-4.598720e+07		7.080836e+07
4.643478e+09		7.080836e+07		8.105816e+09
-1.443122e+08		2.121218e+08		4.085282e+09
2.121218e+08		6.213465e+07		2.304035e+08
4.085282e+09		2.304035e+08		8.406966e+09
-1.053563e+08		3.584184e+08		3.849656e+09
3.584184e+08		1.537252e+08		3.413845e+08
3.849656e+09		3.413845e+08		8.703440e+09
-8.449422e+07		1.721913e+08		3.833448e+09
1.721913e+08		3.036420e+08		1.575189e+08
3.833448e+09		1.575189e+08		8.941485e+09
-6.215025e+07		1.853908e-03		3.820223e+09
1.853908e-03		4.134628e+08		4.406444e-03
3.820223e+09		4.406444e-03		9.066494e+09
-8.449422e+07		-1.721913e+08		3.833448e+09
-1.721913e+08		3.036420e+08		-1.575189e+08
3.833448e+09		-1.575189e+08		8.941485e+09
-1.053563e+08		-3.584184e+08		3.849656e+09
-3.584184e+08		1.537252e+08		-3.413845e+08
3.849656e+09		-3.413845e+08		8.703440e+09
-1.443122e+08		-2.121218e+08		4.085282e+09
-2.121218e+08		6.213465e+07		-2.304035e+08
4.085282e+09		-2.304035e+08		8.406966e+09
-2.497061e+08		-6.421114e+07		4.643478e+09
-6.421114e+07		-4.598720e+07		-7.080836e+07
4.643478e+09		-7.080836e+07		8.105816e+09
-1.981173e+08		5.615565e+07		2.609987e+09
5.615565e+07		-1.252521e+08		1.283731e+08
2.609987e+09		1.283731e+08		1.217355e+10
-6.008556e+07		1.891695e+08		2.065896e+09
1.891695e+08		3.091969e+08		5.217731e+08
2.065896e+09		5.217731e+08		1.302108e+10
3.821895e+06		5.406744e-03		2.033200e+09
5.406744e-03		6.757521e+08		5.521575e-03
2.033200e+09		5.521575e-03		1.349012e+10
-6.008556e+07		-1.891695e+08		2.065896e+09
-1.891695e+08		3.091969e+08		-5.217731e+08
2.065896e+09		-5.217731e+08		1.302108e+10
-1.981173e+08		-5.615565e+07		2.609987e+09
-5.615565e+07		-1.252521e+08		-1.283731e+08
2.609987e+09		-1.283731e+08		1.217355e+10
-1.299588e+08		2.953066e+05		5.243998e+08
2.953066e+05		-1.519886e+08		3.644875e+08
5.243998e+08		3.644875e+08		1.652177e+10
-1.084428e+07		-3.306335e+07		2.362236e+08
-3.306335e+07		2.062597e+08		6.503122e+08
2.362236e+08		6.503122e+08		1.707940e+10
-7.007781e+07		-9.481833e+06		2.373224e+08
-9.481833e+06		4.562827e+08		8.238482e+08
2.373224e+08		8.238482e+08		1.738614e+10
-6.733336e+07		-2.324574e+07		1.981420e+08
-2.324574e+07		7.040391e+08		3.578718e+08
1.981420e+08		3.578718e+08		1.765465e+10
-3.332249e+07		1.144738e-02		2.055715e+08
1.144738e-02		9.118011e+08		2.000502e-03
2.055715e+08		2.000502e-03		1.784299e+10
-6.733336e+07		2.324574e+07		1.981420e+08
2.324574e+07		7.040391e+08		-3.578718e+08
1.981420e+08		-3.578718e+08		1.765465e+10
-7.007781e+07		9.481833e+06		2.373224e+08
9.481833e+06		4.562827e+08		-8.238482e+08
2.373224e+08		-8.238482e+08		1.738614e+10
-1.084428e+07		3.306335e+07		2.362236e+08
3.306335e+07		2.062597e+08		-6.503122e+08
2.362236e+08		-6.503122e+08		1.707940e+10
-1.299588e+08		-2.953066e+05		5.243998e+08
-2.953066e+05		-1.519886e+08		-3.644875e+08
5.243998e+08		-3.644875e+08		1.652177e+10
-1.868641e+08		-1.669816e+07		3.292490e+08
-1.669816e+07		-1.369169e+08		-1.318305e+08
3.292490e+08		-1.318305e+08		-1.810529e+10
-1.892729e+08		-2.345663e+07		1.796809e+08
-2.345663e+07		-7.131587e+08		-3.935542e+08
1.796809e+08		-3.935542e+08		-1.949176e+10
-2.146788e+08		1.112790e-02		1.659539e+08
1.112790e-02		-1.470240e+09		-2.849251e-03
1.659539e+08		-2.849251e-03		-1.983977e+10
-1.892729e+08		2.345663e+07		1.796809e+08
2.345663e+07		-7.131587e+08		3.935542e+08
1.796809e+08		3.935542e+08		-1.949176e+10
-1.868641e+08		1.669816e+07		3.292490e+08
1.669816e+07		-1.369169e+08		1.318305e+08
3.292490e+08		1.318305e+08		-1.810529e+10
4.285207e+08		1.131019e+08		4.026956e+09
1.131019e+08		-6.691499e+07		4.632365e+06
4.026956e+09		4.632365e+06		-9.084319e+09
1.605416e+08		4.485842e+08		3.798016e+09
4.485842e+08		-2.989303e+08		-2.459444e+08
3.798016e+09		-2.459444e+08		-1.011630e+10
1.482765e+08		2.129471e-03		3.948672e+09
2.129471e-03		-7.540951e+08		-1.259653e-03
3.948672e+09		-1.259653e-03		-1.046823e+10
1.605416e+08		-4.485842e+08		3.798016e+09
-4.485842e+08		-2.989303e+08		2.459444e+08
3.798016e+09		2.459444e+08		-1.011630e+10
4.285207e+08		-1.131019e+08		4.026956e+09
-1.131019e+08		-6.691499e+07		-4.632365e+06
4.026956e+09		-4.632365e+06		-9.084319e+09
2.030545e-02		1.721267e+08		5.512647e+09
1.721267e+08		-2.180696e-02		-1.483277e-02
5.512647e+09		-1.483277e-02		-2.905950e-03
4.623847e-02		7.754554e+08		5.278348e+09
7.754554e+08		3.428545e-02		1.815138e-03
5.278348e+09		1.815138e-03		2.276590e-02
4.514327e-02		2.403396e-03		5.504772e+09
2.403396e-03		3.281228e-02		1.392962e-03
5.504772e+09		1.392962e-03		2.281066e-02
4.355909e-02		-7.754554e+08		5.278348e+09
-7.754554e+08		2.979094e-02		3.509949e-04
5.278348e+09		3.509949e-04		2.171575e-02
2.313925e-02		-1.721267e+08		5.512647e+09
-1.721267e+08		-1.640746e-02		7.510168e-03
5.512647e+09		7.510168e-03		9.422004e-04
-4.285207e+08		1.131019e+08		4.026956e+09
1.131019e+08		6.691499e+07		-4.632365e+06
4.026956e+09		-4.632365e+06		9.084319e+09
-1.605416e+08		4.485842e+08		3.798016e+09
4.485842e+08		2.989303e+08		2.459444e+08
3.798016e+09		2.459444e+08		1.011630e+10
-1.482765e+08		2.269871e-03		3.948672e+09
2.269871e-03		7.540951e+08		2.832558e-03
3.948672e+09		2.832558e-03		1.046823e+10
-1.605416e+08		-4.485842e+08		3.798016e+09
-4.485842e+08		2.989303e+08		-2.459444e+08
3.798016e+09		-2.459444e+08		1.011630e+10
-4.285207e+08		-1.131019e+08		4.026956e+09
-1.131019e+08		6.691499e+07		4.632365e+06
4.026956e+09		4.632365e+06		9.084319e+09
1.868641e+08		-1.669816e+07		3.292490e+08
-1.669816e+07		1.369169e+08		1.318305e+08
3.292490e+08		1.318305e+08		1.810529e+10
1.892729e+08		-2.345663e+07		1.796809e+08
-2.345663e+07		7.131587e+08		3.935542e+08
1.796809e+08		3.935542e+08		1.949176e+10
2.146788e+08		4.425161e-03		1.659539e+08
4.425161e-03		1.470240e+09		2.057001e-03
1.659539e+08		2.057001e-03		1.983977e+10
1.892729e+08		2.345663e+07		1.796809e+08
2.345663e+07		7.131587e+08		-3.935542e+08
1.796809e+08		-3.935542e+08		1.949176e+10
1.868641e+08		1.669816e+07		3.292490e+08
1.669816e+07		1.369169e+08		-1.318305e+08
3.292490e+08		-1.318305e+08		1.810529e+10
-1.612847e+08		-1.367985e+08		-9.114827e+05
-1.367985e+08		-8.105996e+07		-3.876623e+08
-9.114827e+05		-3.876623e+08		-1.877953e+10
-4.517309e+08		-1.201650e+08		-8.715549e+07
-1.201650e+08		-5.407797e+08		-9.323592e+07
-8.715549e+07		-9.323592e+07		-2.057525e+10
-1.430915e+08		-8.575279e+07		-1.207919e+08
-8.575279e+07		-8.507407e+08		-5.612568e+07
-1.207919e+08		-5.612568e+07		-2.092026e+10
-2.627521e+08		-4.486688e+07		-1.321868e+08
-4.486688e+07		-1.798882e+09		1.641878e+08
-1.321868e+08		1.641878e+08		-2.126575e+10
-2.728707e+08		8.550031e-03		-1.920299e+08
8.550031e-03		-2.130230e+09		-5.359482e-03
-1.920299e+08		-5.359482e-03		-2.129782e+10
-2.627521e+08		4.486688e+07		-1.321868e+08
4.486688e+07		-1.798882e+09		-1.641878e+08
-1.321868e+08		-1.641878e+08		-2.126575e+10
-1.430915e+08		8.575279e+07		-1.207919e+08
8.575279e+07		-8.507407e+08		5.612568e+07
-1.207919e+08		5.612568e+07		-2.092026e+10
-4.517309e+08		1.201650e+08		-8.715549e+07
1.201650e+08		-5.407797e+08		9.323592e+07
-8.715549e+07		9.323592e+07		-2.057525e+10
-1.612847e+08		1.367985e+08		-9.114827e+05
1.367985e+08		-8.105996e+07		3.876623e+08
-9.114827e+05		3.876623e+08		-1.877953e+10
4.016887e+08		8.227762e+07		1.890140e+09
8.227762e+07		2.411492e+07		-3.125805e+08
1.890140e+09		-3.125805e+08		-1.419337e+10
-3.781173e+07		2.322520e+08		2.112960e+09
2.322520e+08		-8.457556e+08		-1.374832e+08
2.112960e+09		-1.374832e+08		-1.668974e+10
-2.033138e+08		5.222809e-03		2.238446e+09
5.222809e-03		-1.975636e+09		-7.015750e-03
2.238446e+09		-7.015750e-03		-1.727805e+10
-3.781173e+07		-2.322520e+08		2.112960e+09
-2.322520e+08		-8.457556e+08		1.374832e+08
2.112960e+09		1.374832e+08		-1.668974e+10
4.016887e+08		-8.227762e+07		1.890140e+09
-8.227762e+07		2.411492e+07		3.125805e+08
1.890140e+09		3.125805e+08		-1.419337e+10
7.755313e+08		1.819389e+08		3.590780e+09
1.819389e+08		8.374514e+07		-2.886555e+08
3.590780e+09		-2.886555e+08		-9.536697e+09
2.774518e+08		3.845868e+08		3.709503e+09
3.845868e+08		-2.465095e+08		-2.117867e+08
3.709503e+09		-2.117867e+08		-1.086341e+10
2.063737e+08		5.183453e+08		4.037175e+09
5.183453e+08		-4.697430e+08		-2.386532e+08
4.037175e+09		-2.386532e+08		-1.139415e+10
1.046569e+08		2.375689e+08		4.237513e+09
2.375689e+08		-1.096077e+09		2.164836e+07
4.237513e+09		2.164836e+07		-1.180365e+10
8.883963e+07		2.823981e-03		4.331969e+09
2.823981e-03		-1.338805e+09		-2.781470e-03
4.331969e+09		-2.781470e-03		-1.193936e+10
1.046569e+08		-2.375689e+08		4.237513e+09
-2.375689e+08		-1.096077e+09		-2.164836e+07
4.237513e+09		-2.164836e+07		-1.180365e+10
2.063737e+08		-5.183453e+08		4.037175e+09
-5.183453e+08		-4.697430e+08		2.386532e+08
4.037175e+09		2.386532e+08		-1.139415e+10
2.774518e+08		-3.845868e+08		3.709503e+09
-3.845868e+08		-2.465095e+08		2.117867e+08
3.709503e+09		2.117867e+08		-1.086341e+10
7.755313e+08		-1.819389e+08		3.590780e+09
-1.819389e+08		8.374514e+07		2.886555e+08
3.590780e+09		2.886555e+08		-9.536697e+09
3.024817e+08		2.500331e+08		4.528083e+09
2.500331e+08		2.854274e+07		-1.689791e+08
4.528083e+09		-1.689791e+08		-4.850736e+09
-1.545795e+08		7.731942e+08		5.022521e+09
7.731942e+08		-3.408848e+08		-1.303858e+08
5.022521e+09		-1.303858e+08		-5.888796e+09
-2.914734e+08		6.009553e-03		5.377781e+09
6.009553e-03		-8.195324e+08		-9.584436e-04
5.377781e+09		-9.584436e-04		-6.208420e+09
-1.545795e+08		-7.731942e+08		5.022521e+09
-7.731942e+08		-3.408848e+08		1.303858e+08
5.022521e+09		1.303858e+08		-5.888796e+09
3.024817e+08		-2.500331e+08		4.528083e+09
-2.500331e+08		2.854274e+07		1.689791e+08
4.528083e+09		1.689791e+08		-4.850736e+09
1.606718e-02		2.825988e+08		5.130487e+09
2.825988e+08		-1.873199e-02		-3.577295e-03
5.130487e+09		-3.577295e-03		6.580792e-03
5.122894e-02		7.013943e+08		5.179598e+09
7.013943e+08		2.375325e-02		6.900038e-03
5.179598e+09		6.900038e-03		3.512042e-02
3.457907e-02		9.447715e+08		5.607562e+09
9.447715e+08		2.462189e-02		5.883183e-03
5.607562e+09		5.883183e-03		2.425839e-02
4.515634e-02		4.163372e+08		5.886251e+09
4.163372e+08		1.925238e-02		3.641601e-03
5.886251e+09		3.641601e-03		2.677917e-02
2.921516e-02		2.527151e-03		6.022986e+09
2.527151e-03		1.836194e-02		1.660247e-03
6.022986e+09		1.660247e-03		1.633791e-02
3.969382e-02		-4.163372e+08		5.886251e+09
-4.163372e+08		1.659538e-02		-1.819718e-03
5.886251e+09		-1.819718e-03		1.926845e-02
2.457136e-02		-9.447715e+08		5.607562e+09
-9.447715e+08		1.409491e-02		-3.677623e-03
5.607562e+09		-3.677623e-03		1.153791e-02
3.830240e-02		-7.013943e+08		5.179598e+09
-7.013943e+08		1.635165e-02		-7.336573e-03
5.179598e+09		-7.336573e-03		1.804373e-02
1.221650e-02		-2.825988e+08		5.130487e+09
-2.825988e+08		-1.528377e-02		-3.170801e-03
5.130487e+09		-3.170801e-03		-1.977235e-04
-3.024817e+08		2.500331e+08		4.528083e+09
2.500331e+08		-2.854274e+07		1.689791e+08
4.528083e+09		1.689791e+08		4.850736e+09
1.545795e+08		7.731942e+08		5.022521e+09
7.731942e+08		3.408848e+08		1.303858e+08
5.022521e+09		1.303858e+08		5.888796e+09
2.914734e+08		4.607826e-03		5.377781e+09
4.607826e-03		8.195324e+08		5.044942e-03
5.377781e+09		5.044942e-03		6.208420e+09
1.545795e+08		-7.731942e+08		5.022521e+09
-7.731942e+08		3.408848e+08		-1.303858e+08
5.022521e+09		-1.303858e+08		5.888796e+09
-3.024817e+08		-2.500331e+08		4.528083e+09
-2.500331e+08		-2.854274e+07		-1.689791e+08
4.528083e+09		-1.689791e+08		4.850736e+09
-7.755313e+08		1.819389e+08		3.590780e+09
1.819389e+08		-8.374514e+07		2.886555e+08
3.590780e+09		2.886555e+08		9.536697e+09
-2.774518e+08		3.845868e+08		3.709503e+09
3.845868e+08		2.465095e+08		2.117867e+08
3.709503e+09		2.117867e+08		1.086341e+10
-2.063737e+08		5.183453e+08		4.037175e+09
5.183453e+08		4.697430e+08		2.386532e+08
4.037175e+09		2.386532e+08		1.139415e+10
-1.046569e+08		2.375689e+08		4.237513e+09
2.375689e+08		1.096077e+09		-2.164836e+07
4.237513e+09		-2.164836e+07		1.180365e+10
-8.883963e+07		8.818209e-04		4.331969e+09
8.818209e-04		1.338805e+09		4.438271e-03
4.331969e+09		4.438271e-03		1.193936e+10
-1.046569e+08		-2.375689e+08		4.237513e+09
-2.375689e+08		1.096077e+09		2.164836e+07
4.237513e+09		2.164836e+07		1.180365e+10
-2.063737e+08		-5.183453e+08		4.037175e+09
-5.183453e+08		4.697430e+08		-2.386532e+08
4.037175e+09		-2.386532e+08		1.139415e+10
-2.774518e+08		-3.845868e+08		3.709503e+09
-3.845868e+08		2.465095e+08		-2.117867e+08
3.709503e+09		-2.117867e+08		1.086341e+10
-7.755313e+08		-1.819389e+08		3.590780e+09
-1.819389e+08		-8.374514e+07		-2.886555e+08
3.590780e+09		-2.886555e+08		9.536697e+09
-4.016887e+08		8.227762e+07		1.890140e+09
8.227762e+07		-2.411492e+07		3.125805e+08
1.890140e+09		3.125805e+08		1.419337e+10
3.781173e+07		2.322520e+08		2.112960e+09
2.322520e+08		8.457556e+08		1.374832e+08
2.112960e+09		1.374832e+08		1.668974e+10
2.033138e+08		1.189578e-04		2.238446e+09
1.189578e-04		1.975636e+09		7.278450e-03
2.238446e+09		7.278450e-03		1.727805e+10
3.781173e+07		-2.322520e+08		2.112960e+09
-2.322520e+08		8.457556e+08		-1.374832e+08
2.112960e+09		-1.374832e+08		1.668974e+10
-4.016887e+08		-8.227762e+07		1.890140e+09
-8.227762e+07		-2.411492e+07		-3.125805e+08
1.890140e+09		-3.125805e+08		1.419337e+10
1.612847e+08		-1.367985e+08		-9.114827e+05
-1.367985e+08		8.105996e+07		3.876623e+08
-9.114827e+05		3.876623e+08		1.877953e+10
4.517309e+08		-1.201650e+08		-8.715549e+07
-1.201650e+08		5.407797e+08		9.323592e+07
-8.715549e+07		9.323592e+07		2.057525e+10
1.430915e+08		-8.575279e+07		-1.207919e+08
-8.575279e+07		8.507407e+08		5.612568e+07
-1.207919e+08		5.612568e+07		2.092026e+10
2.627521e+08		-4.486688e+07		-1.321868e+08
-4.486688e+07		1.798882e+09		-1.641878e+08
-1.321868e+08		-1.641878e+08		2.126575e+10
2.728707e+08		-1.873942e-03		-1.920299e+08
-1.873942e-03		2.130230e+09		3.846250e-03
-1.920299e+08		3.846250e-03		2.129782e+10
2.627521e+08		4.486688e+07		-1.321868e+08
4.486688e+07		1.798882e+09		1.641878e+08
-1.321868e+08		1.641878e+08		2.126575e+10
1.430915e+08		8.575279e+07		-1.207919e+08
8.575279e+07		8.507407e+08		-5.612568e+07
-1.207919e+08		-5.612568e+07		2.092026e+10
4.517309e+08		1.201650e+08		-8.715549e+07
1.201650e+08		5.407797e+08		-9.323592e+07
-8.715549e+07		-9.323592e+07		2.057525e+10
1.612847e+08		1.367985e+08		-9.114827e+05
1.367985e+08		8.105996e+07		-3.876623e+08
-9.114827e+05		-3.876623e+08		1.877953e+10
1.999905e+09		-2.482249e+08		-9.177045e+08
-2.482249e+08		2.073002e+09		-5.841934e+08
-9.177045e+08		-5.841934e+08		-1.932860e+10
1.779114e+09		-7.467092e+07		-9.802942e+08
-7.467092e+07		-1.112523e+09		1.118811e+09
-9.802942e+08		1.118811e+09		-2.178673e+10
1.624911e+09		7.019095e-03		-9.537944e+08
7.019095e-03		-2.577118e+09		-2.887957e-03
-9.537944e+08		-2.887957e-03		-2.228076e+10
1.779114e+09		7.467092e+07		-9.802942e+08
7.467092e+07		-1.112523e+09		-1.118811e+09
-9.802942e+08		-1.118811e+09		-2.178673e+10
1.999905e+09		2.482249e+08		-9.177045e+08
2.482249e+08		2.073002e+09		5.841934e+08
-9.177045e+08		5.841934e+08		-1.932860e+10
5.347785e+08		2.890368e+08		2.642202e+09
2.890368e+08		1.036381e+09		-6.617677e+08
2.642202e+09		-6.617677e+08		-9.706473e+09
-8.083521e+08		6.231438e+08		4.233930e+09
6.231438e+08		-1.291485e+09		2.812321e+08
4.233930e+09		2.812321e+08		-1.218347e+10
-9.737548e+08		5.747890e-03		4.648769e+09
5.747890e-03		-2.292794e+09		-2.294080e-03
4.648769e+09		-2.294080e-03		-1.268558e+10
-8.083521e+08		-6.231438e+08		4.233930e+09
-6.231438e+08		-1.291485e+09		-2.812321e+08
4.233930e+09		-2.812321e+08		-1.218347e+10
5.347785e+08		-2.890368e+08		2.642202e+09
-2.890368e+08		1.036381e+09		6.617677e+08
2.642202e+09		6.617677e+08		-9.706473e+09
2.908570e-02		4.757915e+08		3.911697e+09
4.757915e+08		-1.061067e-03		-2.210120e-03
3.911697e+09		-2.210120e-03		4.997626e-03
4.123759e-02		1.028700e+09		5.456756e+09
1.028700e+09		2.744242e-02		-8.259515e-04
5.456756e+09		-8.259515e-04		1.862770e-02
3.563787e-02		4.533533e-03		5.949007e+09
4.533533e-03		2.056453e-02		-8.013963e-04
5.949007e+09		-8.013963e-04		1.652742e-02
3.162824e-02		-1.028700e+09		5.456756e+09
-1.028700e+09		1.761307e-02		-3.380310e-04
5.456756e+09		-3.380310e-04		1.505693e-02
2.267174e-02		-4.757915e+08		3.911697e+09
-4.757915e+08		-6.884784e-04		4.664449e-03
3.911697e+09		4.664449e-03		6.556213e-03
-5.347785e+08		2.890368e+08		2.642202e+09
2.890368e+08		-1.036381e+09		6.617677e+08
2.642202e+09		6.617677e+08		9.706473e+09
8.083521e+08		6.231438e+08		4.233930e+09
6.231438e+08		1.291485e+09		-2.812321e+08
4.233930e+09		-2.812321e+08		1.218347e+10
9.737548e+08		8.914713e-04		4.648769e+09
8.914713e-04		2.292794e+09		1.166649e-04
4.648769e+09		1.166649e-04		1.268558e+10
8.083521e+08		-6.231438e+08		4.233930e+09
-6.231438e+08		1.291485e+09		2.812321e+08
4.233930e+09		2.812321e+08		1.218347e+10
-5.347785e+08		-2.890368e+08		2.642202e+09
-2.890368e+08		-1.036381e+09		-6.617677e+08
2.642202e+09		-6.617677e+08		9.706473e+09
-1.999905e+09		-2.482249e+08		-9.177045e+08
-2.482249e+08		-2.073002e+09		5.841934e+08
-9.177045e+08		5.841934e+08		1.932860e+10
-1.779114e+09		-7.467092e+07		-9.802942e+08
-7.467092e+07		1.112523e+09		-1.118811e+09
-9.802942e+08		-1.118811e+09		2.178673e+10
-1.624911e+09		-5.085528e-03		-9.537944e+08
-5.085528e-03		2.577118e+09		4.920140e-04
-9.537944e+08		4.920140e-04		2.228076e+10
-1.779114e+09		7.467092e+07		-9.802942e+08
7.467092e+07		1.112523e+09		1.118811e+09
-9.802942e+08		1.118811e+09		2.178673e+10
-1.999905e+09		2.482249e+08		-9.177045e+08
2.482249e+08		-2.073002e+09		-5.841934e+08
-9.177045e+08		-5.841934e+08		1.932860e+10
2.085232e+09		-3.283319e+08		-1.627790e+09
-3.283319e+08		1.970407e+09		-7.156574e+08
-1.627790e+09		-7.156574e+08		-2.280041e+10
1.136261e+09		-3.892859e+08		-7.820599e+08
-3.892859e+08		-1.542932e+09		1.662213e+09
-7.820599e+08		1.662213e+09		-2.502757e+10
8.924265e+08		6.424945e+07		-8.542000e+08
6.424945e+07		-4.049369e+09		3.178250e+09
-8.542000e+08		3.178250e+09		-2.655609e+10
1.374029e+09		8.713675e+06		-6.357199e+08
8.713675e+06		-4.018863e+09		1.215325e+09
-6.357199e+08		1.215325e+09		-2.577692e+10
1.318299e+09		8.987291e-04		-6.759185e+08
8.987291e-04		-4.869918e+09		-2.796829e-03
-6.759185e+08		-2.796829e-03		-2.545986e+10
1.374029e+09		-8.713675e+06		-6.357199e+08
-8.713675e+06		-4.018863e+09		-1.215325e+09
-6.357199e+08		-1.215325e+09		-2.577692e+10
8.924265e+08		-6.424945e+07		-8.542000e+08
-6.424945e+07		-4.049369e+09		-3.178250e+09
-8.542000e+08		-3.178250e+09		-2.655609e+10
1.136261e+09		3.892859e+08		-7.820599e+08
3.892859e+08		-1.542932e+09		-1.662213e+09
-7.820599e+08		-1.662213e+09		-2.502757e+10
2.085232e+09		3.283319e+08		-1.627790e+09
3.283319e+08		1.970407e+09		7.156574e+08
-1.627790e+09		7.156574e+08		-2.280041e+10
1.936224e+07		-2.305315e+07		6.755187e+08
-2.305315e+07		1.078930e+09		-1.032249e+09
6.755187e+08		-1.032249e+09		-1.739828e+10
-1.786964e+09		4.333925e+08		2.491742e+09
4.333925e+08		-4.039650e+09		1.998005e+09
2.491742e+09		1.998005e+09		-2.094685e+10
-1.545680e+09		3.696045e-03		3.016379e+09
3.696045e-03		-4.794902e+09		-4.970253e-03
3.016379e+09		-4.970253e-03		-2.013586e+10
-1.786964e+09		-4.333925e+08		2.491742e+09
-4.333925e+08		-4.039650e+09		-1.998005e+09
2.491742e+09		-1.998005e+09		-2.094685e+10
1.936224e+07		2.305315e+07		6.755187e+08
2.305315e+07		1.078930e+09		1.032249e+09
6.755187e+08		1.032249e+09		-1.739828e+10
-1.235417e+09		1.359549e+08		2.845057e+09
1.359549e+08		4.095906e+08		-5.314500e+08
2.845057e+09		-5.314500e+08		-1.213558e+10
-2.656169e+09		2.663709e+08		4.602690e+09
2.663709e+08		-1.959401e+09		6.173662e+08
4.602690e+09		6.173662e+08		-1.402266e+10
-3.551043e+09		6.484759e+08		5.364906e+09
6.484759e+08		-3.739057e+09		1.335458e+09
5.364906e+09		1.335458e+09		-1.539782e+10
-3.335583e+09		1.290746e+08		5.896836e+09
1.290746e+08		-3.845801e+09		5.007594e+08
5.896836e+09		5.007594e+08		-1.500437e+10
-3.417034e+09		3.427511e-03		6.162150e+09
3.427511e-03		-4.394779e+09		-3.303103e-03
6.162150e+09		-3.303103e-03		-1.487728e+10
-3.335583e+09		-1.290746e+08		5.896836e+09
-1.290746e+08		-3.845801e+09		-5.007594e+08
5.896836e+09		-5.007594e+08		-1.500437e+10
-3.551043e+09		-6.484759e+08		5.364906e+09
-6.484759e+08		-3.739057e+09		-1.335458e+09
5.364906e+09		-1.335458e+09		-1.539782e+10
-2.656169e+09		-2.663709e+08		4.602690e+09
-2.663709e+08		-1.959401e+09		-6.173662e+08
4.602690e+09		-6.173662e+08		-1.402266e+10
-1.235417e+09		-1.359549e+08		2.845057e+09
-1.359549e+08		4.095906e+08		5.314500e+08
2.845057e+09		5.314500e+08		-1.213558e+10
4.394308e+07		3.777661e+08		2.343404e+09
3.777661e+08		5.774200e+08		-2.616135e+08
2.343404e+09		-2.616135e+08		-5.644993e+09
-1.152091e+09		8.765319e+08		4.564812e+09
8.765319e+08		-1.522014e+09		6.613558e+08
4.564812e+09		6.613558e+08		-7.290501e+09
-1.067293e+09		4.384696e-03		5.227407e+09
4.384696e-03		-1.848307e+09		-4.932453e-03
5.227407e+09		-4.932453e-03		-7.014566e+09
-1.152091e+09		-8.765319e+08		4.564812e+09
-8.765319e+08		-1.522014e+09		-6.613558e+08
4.564812e+09		-6.613558e+08		-7.290501e+09
4.394308e+07		-3.777661e+08		2.343404e+09
-3.777661e+08		5.774200e+08		2.616135e+08
2.343404e+09		2.616135e+08		-5.644993e+09
1.344144e-02		3.718356e+08		2.555082e+09
3.718356e+08		-3.090121e-03		1.477047e-02
2.555082e+09		1.477047e-02		6.876893e-03
3.026203e-02		5.857259e+08		4.287394e+09
5.857259e+08		1.307943e-02		6.694880e-03
4.287394e+09		6.694880e-03		1.734666e-02
1.992653e-02		1.011982e+09		4.907442e+09
1.011982e+09		1.247082e-02		6.892340e-06
4.907442e+09		6.892340e-06		1.147667e-02
2.613959e-02		2.701249e+08		5.394696e+09
2.701249e+08		1.091143e-02		8.279233e-04
5.394696e+09		8.279233e-04		1.270884e-02
1.439609e-02		2.590838e-03		5.553131e+09
2.590838e-03		7.499933e-03		-2.877089e-03
5.553131e+09		-2.877089e-03		6.982096e-03
2.190575e-02		-2.701249e+08		5.394696e+09
-2.701249e+08		9.999869e-03		-2.054544e-03
5.394696e+09		-2.054544e-03		1.037502e-02
1.240949e-02		-1.011982e+09		4.907442e+09
-1.011982e+09		6.267309e-03		-3.306700e-03
4.907442e+09		-3.306700e-03		6.530281e-03
2.032951e-02		-5.857259e+08		4.287394e+09
-5.857259e+08		9.606866e-03		-4.337315e-03
4.287394e+09		-4.337315e-03		1.107243e-02
9.772824e-03		-3.718356e+08		2.555082e+09
-3.718356e+08		5.034357e-05		-8.408353e-05
2.555082e+09		-8.408353e-05		4.977353e-03
-4.394308e+07		3.777661e+08		2.343404e+09
3.777661e+08		-5.774200e+08		2.616135e+08
2.343404e+09		2.616135e+08		5.644993e+09
1.152091e+09		8.765319e+08		4.564812e+09
8.765319e+08		1.522014e+09		-6.613558e+08
4.564812e+09		-6.613558e+08		7.290501e+09
1.067293e+09		2.381628e-03		5.227407e+09
2.381628e-03		1.848307e+09		-3.907775e-03
5.227407e+09		-3.907775e-03		7.014566e+09
1.152091e+09		-8.765319e+08		4.564812e+09
-8.765319e+08		1.522014e+09		6.613558e+08
4.564812e+09		6.613558e+08		7.290501e+09
-4.394308e+07		-3.777661e+08		2.343404e+09
-3.777661e+08		-5.774200e+08		-2.616135e+08
2.343404e+09		-2.616135e+08		5.644993e+09
1.235417e+09		1.359549e+08		2.845057e+09
1.359549e+08		-4.095906e+08		5.314500e+08
2.845057e+09		5.314500e+08		1.213558e+10
2.656169e+09		2.663709e+08		4.602690e+09
2.663709e+08		1.959401e+09		-6.173662e+08
4.602690e+09		-6.173662e+08		1.402266e+10
3.551043e+09		6.484759e+08		5.364906e+09
6.484759e+08		3.739057e+09		-1.335458e+09
5.364906e+09		-1.335458e+09		1.539782e+10
3.335583e+09		1.290746e+08		5.896836e+09
1.290746e+08		3.845801e+09		-5.007594e+08
5.896836e+09		-5.007594e+08		1.500437e+10
3.417034e+09		4.267716e-04		6.162150e+09
4.267716e-04		4.394779e+09		-2.279244e-03
6.162150e+09		-2.279244e-03		1.487728e+10
3.335583e+09		-1.290746e+08		5.896836e+09
-1.290746e+08		3.845801e+09		5.007594e+08
5.896836e+09		5.007594e+08		1.500437e+10
3.551043e+09		-6.484759e+08		5.364906e+09
-6.484759e+08		3.739057e+09		1.335458e+09
5.364906e+09		1.335458e+09		1.539782e+10
2.656169e+09		-2.663709e+08		4.602690e+09
-2.663709e+08		1.959401e+09		6.173662e+08
4.602690e+09		6.173662e+08		1.402266e+10
1.235417e+09		-1.359549e+08		2.845057e+09
-1.359549e+08		-4.095906e+08		-5.314500e+08
2.845057e+09		-5.314500e+08		1.213558e+10
-1.936224e+07		-2.305315e+07		6.755187e+08
-2.305315e+07		-1.078930e+09		1.032249e+09
6.755187e+08		1.032249e+09		1.739828e+10
1.786964e+09		4.333925e+08		2.491742e+09
4.333925e+08		4.039650e+09		-1.998005e+09
2.491742e+09		-1.998005e+09		2.094685e+10
1.545680e+09		-1.035454e-03		3.016379e+09
-1.035454e-03		4.794902e+09		-2.506686e-03
3.016379e+09		-2.506686e-03		2.013586e+10
1.786964e+09		-4.333925e+08		2.491742e+09
-4.333925e+08		4.039650e+09		1.998005e+09
2.491742e+09		1.998005e+09		2.094685e+10
-1.936224e+07		2.305315e+07		6.755187e+08
2.305315e+07		-1.078930e+09		-1.032249e+09
6.755187e+08		-1.032249e+09		1.739828e+10
-2.085232e+09		-3.283319e+08		-1.627790e+09
-3.283319e+08		-1.970407e+09		7.156574e+08
-1.627790e+09		7.156574e+08		2.280041e+10
-1.136261e+09		-3.892859e+08		-7.820599e+08
-3.892859e+08		1.542932e+09		-1.662213e+09
-7.820599e+08		-1.662213e+09		2.502757e+10
-8.924265e+08		6.424945e+07		-8.542000e+08
6.424945e+07		4.049369e+09		-3.178250e+09
-8.542000e+08		-3.178250e+09		2.655609e+10
-1.374029e+09		8.713675e+06		-6.357199e+08
8.713675e+06		4.018863e+09		-1.215325e+09
-6.357199e+08		-1.215325e+09		2.577692e+10
-1.318299e+09		-4.157137e-03		-6.759185e+08
-4.157137e-03		4.869918e+09		-7.752031e-04
-6.759185e+08		-7.752031e-04		2.545986e+10
-1.374029e+09		-8.713675e+06		-6.357199e+08
-8.713675e+06		4.018863e+09		1.215325e+09
-6.357199e+08		1.215325e+09		2.577692e+10
-8.924265e+08		-6.424945e+07		-8.542000e+08
-6.424945e+07		4.049369e+09		3.178250e+09
-8.542000e+08		3.178250e+09		2.655609e+10
-1.136261e+09		3.892859e+08		-7.820599e+08
3.892859e+08		1.542932e+09		1.662213e+09
-7.820599e+08		1.662213e+09		2.502757e+10
-2.085232e+09		3.283319e+08		-1.627790e+09
3.283319e+08		-1.970407e+09		-7.156574e+08
-1.627790e+09		-7.156574e+08		2.280041e+10
-5.522716e+09		5.637649e+08		3.015738e+09
5.637649e+08		-5.671664e+09		5.865282e+09
3.015738e+09		5.865282e+09		-3.187625e+10
-5.516959e+09		2.141117e+07		5.393952e+09
2.141117e+07		-8.516471e+09		3.219753e+09
5.393952e+09		3.219753e+09		-3.091540e+10
-5.998012e+09		1.366810e-03		5.627118e+09
1.366810e-03		-1.038314e+10		-2.003282e-03
5.627118e+09		-2.003282e-03		-3.146299e+10
-5.516959e+09		-2.141117e+07		5.393952e+09
-2.141117e+07		-8.516471e+09		-3.219753e+09
5.393952e+09		-3.219753e+09		-3.091540e+10
-5.522716e+09		-5.637649e+08		3.015738e+09
-5.637649e+08		-5.671664e+09		-5.865282e+09
3.015738e+09		-5.865282e+09		-3.187625e+10
-3.205159e+09		4.524591e+08		6.905992e+08
4.524591e+08		-2.367328e+09		2.795110e+09
6.905992e+08		2.795110e+09		-1.424930e+10
-3.446112e+09		2.065728e+08		3.902018e+09
2.065728e+08		-3.715200e+09		1.382144e+09
3.902018e+09		1.382144e+09		-1.311672e+10
-3.612888e+09		3.141399e-03		4.346080e+09
3.141399e-03		-4.609487e+09		-1.495235e-03
4.346080e+09		-1.495235e-03		-1.311269e+10
-3.446112e+09		-2.065728e+08		3.902018e+09
-2.065728e+08		-3.715200e+09		-1.382144e+09
3.902018e+09		-1.382144e+09		-1.311672e+10
-3.205159e+09		-4.524591e+08		6.905992e+08
-4.524591e+08		-2.367328e+09		-2.795110e+09
6.905992e+08		-2.795110e+09		-1.424930e+10
1.333147e-02		4.772170e+08		2.435753e+08
4.772170e+08		2.868816e-03		1.657950e-03
2.435753e+08		1.657950e-03		5.829751e-03
1.653078e-02		3.485559e+08		3.567178e+09
3.485559e+08		1.047897e-02		-1.336253e-03
3.567178e+09		-1.336253e-03		9.237558e-03
1.228195e-02		2.073530e-03		3.956382e+09
2.073530e-03		6.367058e-03		-9.427089e-04
3.956382e+09		-9.427089e-04		5.807936e-03
9.639770e-03		-3.485559e+08		3.567178e+09
-3.485559e+08		4.674464e-03		-6.469265e-04
3.567178e+09		-6.469265e-04		3.276378e-03
7.286668e-03		-4.772170e+08		2.435753e+08
-4.772170e+08		1.056597e-03		1.917094e-03
2.435753e+08		1.917094e-03		4.388094e-04
3.205159e+09		4.524591e+08		6.905992e+08
4.524591e+08		2.367328e+09		-2.795110e+09
6.905992e+08		-2.795110e+09		1.424930e+10
3.446112e+09		2.065728e+08		3.902018e+09
2.065728e+08		3.715200e+09		-1.382144e+09
3.902018e+09		-1.382144e+09		1.311672e+10
3.612888e+09		3.165863e-04		4.346080e+09
3.165863e-04		4.609487e+09		-7.356405e-04
4.346080e+09		-7.356405e-04		1.311269e+10
3.446112e+09		-2.065728e+08		3.902018e+09
-2.065728e+08		3.715200e+09		1.382144e+09
3.902018e+09		1.382144e+09		1.311672e+10
3.205159e+09		-4.524591e+08		6.905992e+08
-4.524591e+08		2.367328e+09		2.795110e+09
6.905992e+08		2.795110e+09		1.424930e+10
5.522716e+09		5.637649e+08		3.015738e+09
5.637649e+08		5.671664e+09		-5.865282e+09
3.015738e+09		-5.865282e+09		3.187625e+10
5.516959e+09		2.141117e+07		5.393952e+09
2.141117e+07		8.516471e+09		-3.219753e+09
5.393952e+09		-3.219753e+09		3.091540e+10
5.998012e+09		-3.126795e-03		5.627118e+09
-3.126795e-03		1.038314e+10		-2.613962e-04
5.627118e+09		-2.613962e-04		3.146299e+10
5.516959e+09		-2.141117e+07		5.393952e+09
-2.141117e+07		8.516471e+09		3.219753e+09
5.393952e+09		3.219753e+09		3.091540e+10
5.522716e+09		-5.637649e+08		3.015738e+09
-5.637649e+08		5.671664e+09		5.865282e+09
3.015738e+09		5.865282e+09		3.187625e+10
-1.982855e+10		-2.721034e-04		9.507704e+09
-2.721034e-04		-1.982855e+10		1.425327e+10
9.507704e+09		1.425327e+10		-4.413451e+10
-1.737529e+10		-1.769350e-04		1.132476e+10
-1.769350e-04		-1.737529e+10		8.005119e+09
1.132476e+10		8.005119e+09		-3.867402e+10
-1.609538e+10		-2.417257e-04		1.244870e+10
-2.417257e-04		-1.609538e+10		2.882994e+09
1.244870e+10		2.882994e+09		-3.582521e+10
-1.666608e+10		1.502400e-04		1.299724e+10
1.502400e-04		-1.666608e+10		1.233976e+09
1.299724e+10		1.233976e+09		-3.709548e+10
-1.736116e+10		1.399163e-04		1.317664e+10
1.399163e-04		-1.736116e+10		-3.599562e-05
1.317664e+10		-3.599562e-05		-3.864259e+10
-1.666608e+10		2.181064e-05		1.299724e+10
2.181064e-05		-1.666608e+10		-1.233976e+09
1.299724e+10		-1.233976e+09		-3.709548e+10
-1.609538e+10		-2.141995e-05		1.244870e+10
-2.141995e-05		-1.609538e+10		-2.882994e+09
1.244870e+10		-2.882994e+09		-3.582521e+10
-1.737529e+10		4.454702e-05		1.132476e+10
4.454702e-05		-1.737529e+10		-8.005119e+09
1.132476e+10		-8.005119e+09		-3.867402e+10
-1.982855e+10		3.062747e-04		9.507704e+09
3.062747e-04		-1.982855e+10		-1.425327e+10
9.507704e+09		-1.425327e+10		-4.413451e+10
-1.323881e+10		-6.816164e-05		3.187260e+09
-6.816164e-05		-1.323881e+10		1.060566e+10
3.187260e+09		1.060566e+10		-2.946703e+10
-9.480577e+09		1.990334e-04		6.109113e+09
1.990334e-04		-9.480577e+09		2.132042e+09
6.109113e+09		2.132042e+09		-2.110193e+10
-1.020607e+10		-3.114901e-04		6.538319e+09
-3.114901e-04		-1.020607e+10		-2.471954e-04
6.538319e+09		-2.471954e-04		-2.271674e+10
-9.480577e+09		-1.073666e-04		6.109113e+09
-1.073666e-04		-9.480577e+09		-2.132042e+09
6.109113e+09		-2.132042e+09		-2.110193e+10
-1.323881e+10		-2.217740e-04		3.187260e+09
-2.217740e-04		-1.323881e+10		-1.060566e+10
3.187260e+09		-1.060566e+10		-2.946703e+10
-7.617683e+09		-5.836110e-05		-1.590617e+09
-5.836110e-05		-7.617683e+09		7.003988e+09
-1.590617e+09		7.003988e+09		-1.695549e+10
-5.807516e+09		-4.160544e-05		4.989458e+08
-4.160544e-05		-5.807516e+09		3.910174e+09
4.989458e+08		3.910174e+09		-1.292641e+10
-4.614208e+09		-1.669686e-04		1.738279e+09
-1.669686e-04		-4.614208e+09		1.414637e+09
1.738279e+09		1.414637e+09		-1.027033e+10
-4.735005e+09		-1.470558e-04		1.960218e+09
-1.470558e-04		-4.735005e+09		5.819406e+08
1.960218e+09		5.819406e+08		-1.053920e+10
-5.001333e+09		-1.237722e-04		1.920593e+09
-1.237722e-04		-5.001333e+09		-4.599306e-04
1.920593e+09		-4.599306e-04		-1.113200e+10
-4.735005e+09		-9.147683e-05		1.960218e+09
-9.147683e-05		-4.735005e+09		-5.819406e+08
1.960218e+09		-5.819406e+08		-1.053920e+10
-4.614208e+09		-3.272241e-04		1.738279e+09
-3.272241e-04		-4.614208e+09		-1.414637e+09
1.738279e+09		-1.414637e+09		-1.027033e+10
-5.807516e+09		-1.713503e-04		4.989458e+08
-1.713503e-04		-5.807516e+09		-3.910174e+09
4.989458e+08		-3.910174e+09		-1.292641e+10
-7.617683e+09		-2.359245e-04		-1.590617e+09
-2.359245e-04		-7.617683e+09		-7.003988e+09
-1.590617e+09		-7.003988e+09		-1.695549e+10
-3.611583e+09		1.198170e-04		-2.029634e+09
1.198170e-04		-3.611583e+09		3.551231e+09
-2.029634e+09		3.551231e+09		-8.038684e+09
-2.085509e+09		-8.626748e-05		1.300214e+09
-8.626748e-05		-2.085509e+09		7.240979e+08
1.300214e+09		7.240979e+08		-4.641940e+09
-2.267537e+09		-2.486445e-05		1.503179e+09
-2.486445e-05		-2.267537e+09		-1.128487e-03
1.503179e+09		-1.128487e-03		-5.047099e+09
-2.085509e+09		-2.776589e-04		1.300214e+09
-2.776589e-04		-2.085509e+09		-7.240979e+08
1.300214e+09		-7.240979e+08		-4.641940e+09
-3.611583e+09		-1.804084e-04		-2.029634e+09
-1.804084e-04		-3.611583e+09		-3.551231e+09
-2.029634e+09		-3.551231e+09		-8.038684e+09
-2.096027e-03		-2.761664e-05		-1.769455e+09
-2.761664e-05		-2.088852e-03		4.754839e-03
-1.769455e+09		4.754839e-03		-4.628316e-03
-4.231855e-03		-7.275137e-05		4.235521e+08
-7.275137e-05		-4.084334e-03		4.347410e-03
4.235521e+08		4.347410e-03		-8.944690e-03
-2.030965e-03		-1.897895e-04		1.594838e+09
-1.897895e-04		-2.162229e-03		4.838080e-04
1.594838e+09		4.838080e-04		-4.946947e-03
-2.868116e-03		6.725476e-05		1.854442e+09
6.725476e-05		-2.796561e-03		-2.476890e-04
1.854442e+09		-2.476890e-04		-6.153047e-03
-1.125608e-03		-2.696645e-05		1.882492e+09
-2.696645e-05		-9.707455e-04		-7.249601e-04
1.882492e+09		-7.249601e-04		-2.005510e-03
-1.829714e-04		1.128111e-05		1.854442e+09
1.128111e-05		-1.445264e-04		-1.531575e-03
1.854442e+09		-1.531575e-03		-2.815723e-04
8.251816e-04		-4.750087e-04		1.594838e+09
-4.750087e-04		8.564256e-04		-7.866137e-04
1.594838e+09		-7.866137e-04		1.949698e-03
2.140552e-03		-1.524808e-04		4.235521e+08
-1.524808e-04		2.122790e-03		-3.359541e-03
4.235521e+08		-3.359541e-03		4.707754e-03
1.859963e-03		-4.822537e-04		-1.769455e+09
-4.822537e-04		1.896679e-03		-3.956914e-03
-1.769455e+09		-3.956914e-03		4.257083e-03
3.611583e+09		-1.742042e-04		-2.029634e+09
-1.742042e-04		3.611583e+09		-3.551231e+09
-2.029634e+09		-3.551231e+09		8.038684e+09
2.085509e+09		1.011886e-05		1.300214e+09
1.011886e-05		2.085509e+09		-7.240979e+08
1.300214e+09		-7.240979e+08		4.641940e+09
2.267537e+09		5.906215e-05		1.503179e+09
5.906215e-05		2.267537e+09		-1.439855e-03
1.503179e+09		-1.439855e-03		5.047099e+09
2.085509e+09		-6.451458e-05		1.300214e+09
-6.451458e-05		2.085509e+09		7.240979e+08
1.300214e+09		7.240979e+08		4.641940e+09
3.611583e+09		-1.019239e-04		-2.029634e+09
-1.019239e-04		3.611583e+09		3.551231e+09
-2.029634e+09		3.551231e+09		8.038684e+09
7.617683e+09		-2.839647e-04		-1.590617e+09
-2.839647e-04		7.617683e+09		-7.003988e+09
-1.590617e+09		-7.003988e+09		1.695549e+10
5.807516e+09		-8.579431e-05		4.989458e+08
-8.579431e-05		5.807516e+09		-3.910174e+09
4.989458e+08		-3.910174e+09		1.292641e+10
4.614208e+09		-8.377952e-05		1.738279e+09
-8.377952e-05		4.614208e+09		-1.414637e+09
1.738279e+09		-1.414637e+09		1.027033e+10
4.735005e+09		-1.554643e-04		1.960218e+09
-1.554643e-04		4.735005e+09		-5.819406e+08
1.960218e+09		-5.819406e+08		1.053920e+10
5.001333e+09		-1.552700e-04		1.920593e+09
-1.552700e-04		5.001333e+09		-5.314481e-04
1.920593e+09		-5.314481e-04		1.113200e+10
4.735005e+09		9.693555e-06		1.960218e+09
9.693555e-06		4.735005e+09		5.819406e+08
1.960218e+09		5.819406e+08		1.053920e+10
4.614208e+09		-3.590359e-05		1.738279e+09
-3.590359e-05		4.614208e+09		1.414637e+09
1.738279e+09		1.414637e+09		1.027033e+10
5.807516e+09		-1.636557e-04		4.989458e+08
-1.636557e-04		5.807516e+09		3.910174e+09
4.989458e+08		3.910174e+09		1.292641e+10
7.617683e+09		-5.916879e-05		-1.590617e+09
-5.916879e-05		7.617683e+09		7.003988e+09
-1.590617e+09		7.003988e+09		1.695549e+10
1.323881e+10		5.732710e-05		3.187260e+09
5.732710e-05		1.323881e+10		-1.060566e+10
3.187260e+09		-1.060566e+10		2.946703e+10
9.480577e+09		-1.471710e-04		6.109113e+09
-1.471710e-04		9.480577e+09		-2.132042e+09
6.109113e+09		-2.132042e+09		2.110193e+10
1.020607e+10		9.064400e-05		6.538319e+09
9.064400e-05		1.020607e+10		-5.670935e-04
6.538319e+09		-5.670935e-04		2.271674e+10
9.480577e+09		-1.910725e-05		6.109113e+09
-1.910725e-05		9.480577e+09		2.132042e+09
6.109113e+09		2.132042e+09		2.110193e+10
1.323881e+10		-1.748949e-04		3.187260e+09
-1.748949e-04		1.323881e+10		1.060566e+10
3.187260e+09		1.060566e+10		2.946703e+10
1.982855e+10		1.117676e-04		9.507704e+09
1.117676e-04		1.982855e+10		-1.425327e+10
9.507704e+09		-1.425327e+10		4.413451e+10
1.737529e+10		-5.190354e-05		1.132476e+10
-5.190354e-05		1.737529e+10		-8.005119e+09
1.132476e+10		-8.005119e+09		3.867402e+10
1.609538e+10		-1.121106e-04		1.244870e+10
-1.121106e-04		1.609538e+10		-2.882994e+09
1.244870e+10		-2.882994e+09		3.582521e+10
1.666608e+10		2.436596e-05		1.299724e+10
2.436596e-05		1.666608e+10		-1.233976e+09
1.299724e+10		-1.233976e+09		3.709548e+10
1.736116e+10		3.398601e-04		1.317664e+10
3.398601e-04		1.736116e+10		8.877814e-04
1.317664e+10		8.877814e-04		3.864259e+10
1.666608e+10		-8.476852e-05		1.299724e+10
-8.476852e-05		1.666608e+10		1.233976e+09
1.299724e+10		1.233976e+09		3.709548e+10
1.609538e+10		1.706425e-04		1.244870e+10
1.706425e-04		1.609538e+10		2.882994e+09
1.244870e+10		2.882994e+09		3.582521e+10
1.737529e+10		-7.721782e-05		1.132476e+10
-7.721782e-05		1.737529e+10		8.005119e+09
1.132476e+10		8.005119e+09		3.867402e+10
1.982855e+10		6.133318e-05		9.507704e+09
6.133318e-05		1.982855e+10		1.425327e+10
9.507704e+09		1.425327e+10		4.413451e+10
