# vtk DataFile Version 3.0
output from step 7
ASCII
DATASET UNSTRUCTURED_GRID
POINTS 1325 double
-5.000000e-01		-5.000000e-01		-1.500000e+00
-5.000000e-01		-3.750000e-01		-1.500000e+00
-5.000000e-01		-2.500000e-01		-1.500000e+00
-5.000000e-01		-1.250000e-01		-1.500000e+00
-5.000000e-01		0.000000e+00		-1.500000e+00
-5.000000e-01		1.250000e-01		-1.500000e+00
-5.000000e-01		2.500000e-01		-1.500000e+00
-5.000000e-01		3.750000e-01		-1.500000e+00
-5.000000e-01		5.000000e-01		-1.500000e+00
-3.750000e-01		-5.000000e-01		-1.500000e+00
-3.750000e-01		-2.500000e-01		-1.500000e+00
-3.750000e-01		0.000000e+00		-1.500000e+00
-3.750000e-01		2.500000e-01		-1.500000e+00
-3.750000e-01		5.000000e-01		-1.500000e+00
-2.500000e-01		-5.000000e-01		-1.500000e+00
-2.500000e-01		-3.750000e-01		-1.500000e+00
-2.500000e-01		-2.500000e-01		-1.500000e+00
-2.500000e-01		-1.250000e-01		-1.500000e+00
-2.500000e-01		0.000000e+00		-1.500000e+00
-2.500000e-01		1.250000e-01		-1.500000e+00
-2.500000e-01		2.500000e-01		-1.500000e+00
-2.500000e-01		3.750000e-01		-1.500000e+00
-2.500000e-01		5.000000e-01		-1.500000e+00
-1.250000e-01		-5.000000e-01		-1.500000e+00
-1.250000e-01		-2.500000e-01		-1.500000e+00
-1.250000e-01		0.000000e+00		-1.500000e+00
-1.250000e-01		2.500000e-01		-1.500000e+00
-1.250000e-01		5.000000e-01		-1.500000e+00
0.000000e+00		-5.000000e-01		-1.500000e+00
0.000000e+00		-3.750000e-01		-1.500000e+00
0.000000e+00		-2.500000e-01		-1.500000e+00
0.000000e+00		-1.250000e-01		-1.500000e+00
0.000000e+00		0.000000e+00		-1.500000e+00
0.000000e+00		1.250000e-01		-1.500000e+00
0.000000e+00		2.500000e-01		-1.500000e+00
0.000000e+00		3.750000e-01		-1.500000e+00
0.000000e+00		5.000000e-01		-1.500000e+00
1.250000e-01		-5.000000e-01		-1.500000e+00
1.250000e-01		-2.500000e-01		-1.500000e+00
1.250000e-01		0.000000e+00		-1.500000e+00
1.250000e-01		2.500000e-01		-1.500000e+00
1.250000e-01		5.000000e-01		-1.500000e+00
2.500000e-01		-5.000000e-01		-1.500000e+00
2.500000e-01		-3.750000e-01		-1.500000e+00
2.500000e-01		-2.500000e-01		-1.500000e+00
2.500000e-01		-1.250000e-01		-1.500000e+00
2.500000e-01		0.000000e+00		-1.500000e+00
2.500000e-01		1.250000e-01		-1.500000e+00
2.500000e-01		2.500000e-01		-1.500000e+00
2.500000e-01		3.750000e-01		-1.500000e+00
2.500000e-01		5.000000e-01		-1.500000e+00
3.750000e-01		-5.000000e-01		-1.500000e+00
3.750000e-01		-2.500000e-01		-1.500000e+00
3.750000e-01		0.000000e+00		-1.500000e+00
3.750000e-01		2.500000e-01		-1.500000e+00
3.750000e-01		5.000000e-01		-1.500000e+00
5.000000e-01		-5.000000e-01		-1.500000e+00
5.000000e-01		-3.750000e-01		-1.500000e+00
5.000000e-01		-2.500000e-01		-1.500000e+00
5.000000e-01		-1.250000e-01		-1.500000e+00
5.000000e-01		0.000000e+00		-1.500000e+00
5.000000e-01		1.250000e-01		-1.500000e+00
5.000000e-01		2.500000e-01		-1.500000e+00
5.000000e-01		3.750000e-01		-1.500000e+00
5.000000e-01		5.000000e-01		-1.500000e+00
-5.000000e-01		-5.000000e-01		-1.392857e+00
-5.000000e-01		-2.500000e-01		-1.392857e+00
-5.000000e-01		0.000000e+00		-1.392857e+00
-5.000000e-01		2.500000e-01		-1.392857e+00
-5.000000e-01		5.000000e-01		-1.392857e+00
-2.500000e-01		-5.000000e-01		-1.392857e+00
-2.500000e-01		-2.500000e-01		-1.392857e+00
-2.500000e-01		0.000000e+00		-1.392857e+00
-2.500000e-01		2.500000e-01		-1.392857e+00
-2.500000e-01		5.000000e-01		-1.392857e+00
0.000000e+00		-5.000000e-01		-1.392857e+00
0.000000e+00		-2.500000e-01		-1.392857e+00
0.000000e+00		0.000000e+00		-1.392857e+00
0.000000e+00		2.500000e-01		-1.392857e+00
0.000000e+00		5.000000e-01		-1.392857e+00
2.500000e-01		-5.000000e-01		-1.392857e+00
2.500000e-01		-2.500000e-01		-1.392857e+00
2.500000e-01		0.000000e+00		-1.392857e+00
2.500000e-01		2.500000e-01		-1.392857e+00
2.500000e-01		5.000000e-01		-1.392857e+00
5.000000e-01		-5.000000e-01		-1.392857e+00
5.000000e-01		-2.500000e-01		-1.392857e+00
5.000000e-01		0.000000e+00		-1.392857e+00
5.000000e-01		2.500000e-01		-1.392857e+00
5.000000e-01		5.000000e-01		-1.392857e+00
-5.000000e-01		-5.000000e-01		-1.285714e+00
-5.000000e-01		-3.750000e-01		-1.285714e+00
-5.000000e-01		-2.500000e-01		-1.285714e+00
-5.000000e-01		-1.250000e-01		-1.285714e+00
-5.000000e-01		0.000000e+00		-1.285714e+00
-5.000000e-01		1.250000e-01		-1.285714e+00
-5.000000e-01		2.500000e-01		-1.285714e+00
-5.000000e-01		3.750000e-01		-1.285714e+00
-5.000000e-01		5.000000e-01		-1.285714e+00
-3.750000e-01		-5.000000e-01		-1.285714e+00
-3.750000e-01		-2.500000e-01		-1.285714e+00
-3.750000e-01		0.000000e+00		-1.285714e+00
-3.750000e-01		2.500000e-01		-1.285714e+00
-3.750000e-01		5.000000e-01		-1.285714e+00
-2.500000e-01		-5.000000e-01		-1.285714e+00
-2.500000e-01		-3.750000e-01		-1.285714e+00
-2.500000e-01		-2.500000e-01		-1.285714e+00
-2.500000e-01		-1.250000e-01		-1.285714e+00
-2.500000e-01		0.000000e+00		-1.285714e+00
-2.500000e-01		1.250000e-01		-1.285714e+00
-2.500000e-01		2.500000e-01		-1.285714e+00
-2.500000e-01		3.750000e-01		-1.285714e+00
-2.500000e-01		5.000000e-01		-1.285714e+00
-1.250000e-01		-5.000000e-01		-1.285714e+00
-1.250000e-01		-2.500000e-01		-1.285714e+00
-1.250000e-01		0.000000e+00		-1.285714e+00
-1.250000e-01		2.500000e-01		-1.285714e+00
-1.250000e-01		5.000000e-01		-1.285714e+00
0.000000e+00		-5.000000e-01		-1.285714e+00
0.000000e+00		-3.750000e-01		-1.285714e+00
0.000000e+00		-2.500000e-01		-1.285714e+00
0.000000e+00		-1.250000e-01		-1.285714e+00
0.000000e+00		0.000000e+00		-1.285714e+00
0.000000e+00		1.250000e-01		-1.285714e+00
0.000000e+00		2.500000e-01		-1.285714e+00
0.000000e+00		3.750000e-01		-1.285714e+00
0.000000e+00		5.000000e-01		-1.285714e+00
1.250000e-01		-5.000000e-01		-1.285714e+00
1.250000e-01		-2.500000e-01		-1.285714e+00
1.250000e-01		0.000000e+00		-1.285714e+00
1.250000e-01		2.500000e-01		-1.285714e+00
1.250000e-01		5.000000e-01		-1.285714e+00
2.500000e-01		-5.000000e-01		-1.285714e+00
2.500000e-01		-3.750000e-01		-1.285714e+00
2.500000e-01		-2.500000e-01		-1.285714e+00
2.500000e-01		-1.250000e-01		-1.285714e+00
2.500000e-01		0.000000e+00		-1.285714e+00
2.500000e-01		1.250000e-01		-1.285714e+00
2.500000e-01		2.500000e-01		-1.285714e+00
2.500000e-01		3.750000e-01		-1.285714e+00
2.500000e-01		5.000000e-01		-1.285714e+00
3.750000e-01		-5.000000e-01		-1.285714e+00
3.750000e-01		-2.500000e-01		-1.285714e+00
3.750000e-01		0.000000e+00		-1.285714e+00
3.750000e-01		2.500000e-01		-1.285714e+00
3.750000e-01		5.000000e-01		-1.285714e+00
5.000000e-01		-5.000000e-01		-1.285714e+00
5.000000e-01		-3.750000e-01		-1.285714e+00
5.000000e-01		-2.500000e-01		-1.285714e+00
5.000000e-01		-1.250000e-01		-1.285714e+00
5.000000e-01		0.000000e+00		-1.285714e+00
5.000000e-01		1.250000e-01		-1.285714e+00
5.000000e-01		2.500000e-01		-1.285714e+00
5.000000e-01		3.750000e-01		-1.285714e+00
5.000000e-01		5.000000e-01		-1.285714e+00
-5.000000e-01		-5.000000e-01		-1.178571e+00
-5.000000e-01		-2.500000e-01		-1.178571e+00
-5.000000e-01		0.000000e+00		-1.178571e+00
-5.000000e-01		2.500000e-01		-1.178571e+00
-5.000000e-01		5.000000e-01		-1.178571e+00
-2.500000e-01		-5.000000e-01		-1.178571e+00
-2.500000e-01		-2.500000e-01		-1.178571e+00
-2.500000e-01		0.000000e+00		-1.178571e+00
-2.500000e-01		2.500000e-01		-1.178571e+00
-2.500000e-01		5.000000e-01		-1.178571e+00
0.000000e+00		-5.000000e-01		-1.178571e+00
0.000000e+00		-2.500000e-01		-1.178571e+00
0.000000e+00		0.000000e+00		-1.178571e+00
0.000000e+00		2.500000e-01		-1.178571e+00
0.000000e+00		5.000000e-01		-1.178571e+00
2.500000e-01		-5.000000e-01		-1.178571e+00
2.500000e-01		-2.500000e-01		-1.178571e+00
2.500000e-01		0.000000e+00		-1.178571e+00
2.500000e-01		2.500000e-01		-1.178571e+00
2.500000e-01		5.000000e-01		-1.178571e+00
5.000000e-01		-5.000000e-01		-1.178571e+00
5.000000e-01		-2.500000e-01		-1.178571e+00
5.000000e-01		0.000000e+00		-1.178571e+00
5.000000e-01		2.500000e-01		-1.178571e+00
5.000000e-01		5.000000e-01		-1.178571e+00
-5.000000e-01		-5.000000e-01		-1.071429e+00
-5.000000e-01		-3.750000e-01		-1.071429e+00
-5.000000e-01		-2.500000e-01		-1.071429e+00
-5.000000e-01		-1.250000e-01		-1.071429e+00
-5.000000e-01		0.000000e+00		-1.071429e+00
-5.000000e-01		1.250000e-01		-1.071429e+00
-5.000000e-01		2.500000e-01		-1.071429e+00
-5.000000e-01		3.750000e-01		-1.071429e+00
-5.000000e-01		5.000000e-01		-1.071429e+00
-3.750000e-01		-5.000000e-01		-1.071429e+00
-3.750000e-01		-2.500000e-01		-1.071429e+00
-3.750000e-01		0.000000e+00		-1.071429e+00
-3.750000e-01		2.500000e-01		-1.071429e+00
-3.750000e-01		5.000000e-01		-1.071429e+00
-2.500000e-01		-5.000000e-01		-1.071429e+00
-2.500000e-01		-3.750000e-01		-1.071429e+00
-2.500000e-01		-2.500000e-01		-1.071429e+00
-2.500000e-01		-1.250000e-01		-1.071429e+00
-2.500000e-01		0.000000e+00		-1.071429e+00
-2.500000e-01		1.250000e-01		-1.071429e+00
-2.500000e-01		2.500000e-01		-1.071429e+00
-2.500000e-01		3.750000e-01		-1.071429e+00
-2.500000e-01		5.000000e-01		-1.071429e+00
-1.250000e-01		-5.000000e-01		-1.071429e+00
-1.250000e-01		-2.500000e-01		-1.071429e+00
-1.250000e-01		0.000000e+00		-1.071429e+00
-1.250000e-01		2.500000e-01		-1.071429e+00
-1.250000e-01		5.000000e-01		-1.071429e+00
0.000000e+00		-5.000000e-01		-1.071429e+00
0.000000e+00		-3.750000e-01		-1.071429e+00
0.000000e+00		-2.500000e-01		-1.071429e+00
0.000000e+00		-1.250000e-01		-1.071429e+00
0.000000e+00		0.000000e+00		-1.071429e+00
0.000000e+00		1.250000e-01		-1.071429e+00
0.000000e+00		2.500000e-01		-1.071429e+00
0.000000e+00		3.750000e-01		-1.071429e+00
0.000000e+00		5.000000e-01		-1.071429e+00
1.250000e-01		-5.000000e-01		-1.071429e+00
1.250000e-01		-2.500000e-01		-1.071429e+00
1.250000e-01		0.000000e+00		-1.071429e+00
1.250000e-01		2.500000e-01		-1.071429e+00
1.250000e-01		5.000000e-01		-1.071429e+00
2.500000e-01		-5.000000e-01		-1.071429e+00
2.500000e-01		-3.750000e-01		-1.071429e+00
2.500000e-01		-2.500000e-01		-1.071429e+00
2.500000e-01		-1.250000e-01		-1.071429e+00
2.500000e-01		0.000000e+00		-1.071429e+00
2.500000e-01		1.250000e-01		-1.071429e+00
2.500000e-01		2.500000e-01		-1.071429e+00
2.500000e-01		3.750000e-01		-1.071429e+00
2.500000e-01		5.000000e-01		-1.071429e+00
3.750000e-01		-5.000000e-01		-1.071429e+00
3.750000e-01		-2.500000e-01		-1.071429e+00
3.750000e-01		0.000000e+00		-1.071429e+00
3.750000e-01		2.500000e-01		-1.071429e+00
3.750000e-01		5.000000e-01		-1.071429e+00
5.000000e-01		-5.000000e-01		-1.071429e+00
5.000000e-01		-3.750000e-01		-1.071429e+00
5.000000e-01		-2.500000e-01		-1.071429e+00
5.000000e-01		-1.250000e-01		-1.071429e+00
5.000000e-01		0.000000e+00		-1.071429e+00
5.000000e-01		1.250000e-01		-1.071429e+00
5.000000e-01		2.500000e-01		-1.071429e+00
5.000000e-01		3.750000e-01		-1.071429e+00
5.000000e-01		5.000000e-01		-1.071429e+00
-5.000000e-01		-5.000000e-01		-9.642857e-01
-5.000000e-01		-2.500000e-01		-9.642857e-01
-5.000000e-01		0.000000e+00		-9.642857e-01
-5.000000e-01		2.500000e-01		-9.642857e-01
-5.000000e-01		5.000000e-01		-9.642857e-01
-2.500000e-01		-5.000000e-01		-9.642857e-01
-2.500000e-01		-2.500000e-01		-9.642857e-01
-2.500000e-01		0.000000e+00		-9.642857e-01
-2.500000e-01		2.500000e-01		-9.642857e-01
-2.500000e-01		5.000000e-01		-9.642857e-01
0.000000e+00		-5.000000e-01		-9.642857e-01
0.000000e+00		-2.500000e-01		-9.642857e-01
0.000000e+00		0.000000e+00		-9.642857e-01
0.000000e+00		2.500000e-01		-9.642857e-01
0.000000e+00		5.000000e-01		-9.642857e-01
2.500000e-01		-5.000000e-01		-9.642857e-01
2.500000e-01		-2.500000e-01		-9.642857e-01
2.500000e-01		0.000000e+00		-9.642857e-01
2.500000e-01		2.500000e-01		-9.642857e-01
2.500000e-01		5.000000e-01		-9.642857e-01
5.000000e-01		-5.000000e-01		-9.642857e-01
5.000000e-01		-2.500000e-01		-9.642857e-01
5.000000e-01		0.000000e+00		-9.642857e-01
5.000000e-01		2.500000e-01		-9.642857e-01
5.000000e-01		5.000000e-01		-9.642857e-01
-5.000000e-01		-5.000000e-01		-8.571429e-01
-5.000000e-01		-3.750000e-01		-8.571429e-01
-5.000000e-01		-2.500000e-01		-8.571429e-01
-5.000000e-01		-1.250000e-01		-8.571429e-01
-5.000000e-01		0.000000e+00		-8.571429e-01
-5.000000e-01		1.250000e-01		-8.571429e-01
-5.000000e-01		2.500000e-01		-8.571429e-01
-5.000000e-01		3.750000e-01		-8.571429e-01
-5.000000e-01		5.000000e-01		-8.571429e-01
-3.750000e-01		-5.000000e-01		-8.571429e-01
-3.750000e-01		-2.500000e-01		-8.571429e-01
-3.750000e-01		0.000000e+00		-8.571429e-01
-3.750000e-01		2.500000e-01		-8.571429e-01
-3.750000e-01		5.000000e-01		-8.571429e-01
-2.500000e-01		-5.000000e-01		-8.571429e-01
-2.500000e-01		-3.750000e-01		-8.571429e-01
-2.500000e-01		-2.500000e-01		-8.571429e-01
-2.500000e-01		-1.250000e-01		-8.571429e-01
-2.500000e-01		0.000000e+00		-8.571429e-01
-2.500000e-01		1.250000e-01		-8.571429e-01
-2.500000e-01		2.500000e-01		-8.571429e-01
-2.500000e-01		3.750000e-01		-8.571429e-01
-2.500000e-01		5.000000e-01		-8.571429e-01
-1.250000e-01		-5.000000e-01		-8.571429e-01
-1.250000e-01		-2.500000e-01		-8.571429e-01
-1.250000e-01		0.000000e+00		-8.571429e-01
-1.250000e-01		2.500000e-01		-8.571429e-01
-1.250000e-01		5.000000e-01		-8.571429e-01
0.000000e+00		-5.000000e-01		-8.571429e-01
0.000000e+00		-3.750000e-01		-8.571429e-01
0.000000e+00		-2.500000e-01		-8.571429e-01
0.000000e+00		-1.250000e-01		-8.571429e-01
0.000000e+00		0.000000e+00		-8.571429e-01
0.000000e+00		1.250000e-01		-8.571429e-01
0.000000e+00		2.500000e-01		-8.571429e-01
0.000000e+00		3.750000e-01		-8.571429e-01
0.000000e+00		5.000000e-01		-8.571429e-01
1.250000e-01		-5.000000e-01		-8.571429e-01
1.250000e-01		-2.500000e-01		-8.571429e-01
1.250000e-01		0.000000e+00		-8.571429e-01
1.250000e-01		2.500000e-01		-8.571429e-01
1.250000e-01		5.000000e-01		-8.571429e-01
2.500000e-01		-5.000000e-01		-8.571429e-01
2.500000e-01		-3.750000e-01		-8.571429e-01
2.500000e-01		-2.500000e-01		-8.571429e-01
2.500000e-01		-1.250000e-01		-8.571429e-01
2.500000e-01		0.000000e+00		-8.571429e-01
2.500000e-01		1.250000e-01		-8.571429e-01
2.500000e-01		2.500000e-01		-8.571429e-01
2.500000e-01		3.750000e-01		-8.571429e-01
2.500000e-01		5.000000e-01		-8.571429e-01
3.750000e-01		-5.000000e-01		-8.571429e-01
3.750000e-01		-2.500000e-01		-8.571429e-01
3.750000e-01		0.000000e+00		-8.571429e-01
3.750000e-01		2.500000e-01		-8.571429e-01
3.750000e-01		5.000000e-01		-8.571429e-01
5.000000e-01		-5.000000e-01		-8.571429e-01
5.000000e-01		-3.750000e-01		-8.571429e-01
5.000000e-01		-2.500000e-01		-8.571429e-01
5.000000e-01		-1.250000e-01		-8.571429e-01
5.000000e-01		0.000000e+00		-8.571429e-01
5.000000e-01		1.250000e-01		-8.571429e-01
5.000000e-01		2.500000e-01		-8.571429e-01
5.000000e-01		3.750000e-01		-8.571429e-01
5.000000e-01		5.000000e-01		-8.571429e-01
-5.000000e-01		-5.000000e-01		-7.500000e-01
-5.000000e-01		-2.500000e-01		-7.500000e-01
-5.000000e-01		0.000000e+00		-7.500000e-01
-5.000000e-01		2.500000e-01		-7.500000e-01
-5.000000e-01		5.000000e-01		-7.500000e-01
-2.500000e-01		-5.000000e-01		-7.500000e-01
-2.500000e-01		-2.500000e-01		-7.500000e-01
-2.500000e-01		0.000000e+00		-7.500000e-01
-2.500000e-01		2.500000e-01		-7.500000e-01
-2.500000e-01		5.000000e-01		-7.500000e-01
0.000000e+00		-5.000000e-01		-7.500000e-01
0.000000e+00		-2.500000e-01		-7.500000e-01
0.000000e+00		0.000000e+00		-7.500000e-01
0.000000e+00		2.500000e-01		-7.500000e-01
0.000000e+00		5.000000e-01		-7.500000e-01
2.500000e-01		-5.000000e-01		-7.500000e-01
2.500000e-01		-2.500000e-01		-7.500000e-01
2.500000e-01		0.000000e+00		-7.500000e-01
2.500000e-01		2.500000e-01		-7.500000e-01
2.500000e-01		5.000000e-01		-7.500000e-01
5.000000e-01		-5.000000e-01		-7.500000e-01
5.000000e-01		-2.500000e-01		-7.500000e-01
5.000000e-01		0.000000e+00		-7.500000e-01
5.000000e-01		2.500000e-01		-7.500000e-01
5.000000e-01		5.000000e-01		-7.500000e-01
-5.000000e-01		-5.000000e-01		-6.428571e-01
-5.000000e-01		-3.750000e-01		-6.428571e-01
-5.000000e-01		-2.500000e-01		-6.428571e-01
-5.000000e-01		-1.250000e-01		-6.428571e-01
-5.000000e-01		0.000000e+00		-6.428571e-01
-5.000000e-01		1.250000e-01		-6.428571e-01
-5.000000e-01		2.500000e-01		-6.428571e-01
-5.000000e-01		3.750000e-01		-6.428571e-01
-5.000000e-01		5.000000e-01		-6.428571e-01
-3.750000e-01		-5.000000e-01		-6.428571e-01
-3.750000e-01		-2.500000e-01		-6.428571e-01
-3.750000e-01		0.000000e+00		-6.428571e-01
-3.750000e-01		2.500000e-01		-6.428571e-01
-3.750000e-01		5.000000e-01		-6.428571e-01
-2.500000e-01		-5.000000e-01		-6.428571e-01
-2.500000e-01		-3.750000e-01		-6.428571e-01
-2.500000e-01		-2.500000e-01		-6.428571e-01
-2.500000e-01		-1.250000e-01		-6.428571e-01
-2.500000e-01		0.000000e+00		-6.428571e-01
-2.500000e-01		1.250000e-01		-6.428571e-01
-2.500000e-01		2.500000e-01		-6.428571e-01
-2.500000e-01		3.750000e-01		-6.428571e-01
-2.500000e-01		5.000000e-01		-6.428571e-01
-1.250000e-01		-5.000000e-01		-6.428571e-01
-1.250000e-01		-2.500000e-01		-6.428571e-01
-1.250000e-01		0.000000e+00		-6.428571e-01
-1.250000e-01		2.500000e-01		-6.428571e-01
-1.250000e-01		5.000000e-01		-6.428571e-01
0.000000e+00		-5.000000e-01		-6.428571e-01
0.000000e+00		-3.750000e-01		-6.428571e-01
0.000000e+00		-2.500000e-01		-6.428571e-01
0.000000e+00		-1.250000e-01		-6.428571e-01
0.000000e+00		0.000000e+00		-6.428571e-01
0.000000e+00		1.250000e-01		-6.428571e-01
0.000000e+00		2.500000e-01		-6.428571e-01
0.000000e+00		3.750000e-01		-6.428571e-01
0.000000e+00		5.000000e-01		-6.428571e-01
1.250000e-01		-5.000000e-01		-6.428571e-01
1.250000e-01		-2.500000e-01		-6.428571e-01
1.250000e-01		0.000000e+00		-6.428571e-01
1.250000e-01		2.500000e-01		-6.428571e-01
1.250000e-01		5.000000e-01		-6.428571e-01
2.500000e-01		-5.000000e-01		-6.428571e-01
2.500000e-01		-3.750000e-01		-6.428571e-01
2.500000e-01		-2.500000e-01		-6.428571e-01
2.500000e-01		-1.250000e-01		-6.428571e-01
2.500000e-01		0.000000e+00		-6.428571e-01
2.500000e-01		1.250000e-01		-6.428571e-01
2.500000e-01		2.500000e-01		-6.428571e-01
2.500000e-01		3.750000e-01		-6.428571e-01
2.500000e-01		5.000000e-01		-6.428571e-01
3.750000e-01		-5.000000e-01		-6.428571e-01
3.750000e-01		-2.500000e-01		-6.428571e-01
3.750000e-01		0.000000e+00		-6.428571e-01
3.750000e-01		2.500000e-01		-6.428571e-01
3.750000e-01		5.000000e-01		-6.428571e-01
5.000000e-01		-5.000000e-01		-6.428571e-01
5.000000e-01		-3.750000e-01		-6.428571e-01
5.000000e-01		-2.500000e-01		-6.428571e-01
5.000000e-01		-1.250000e-01		-6.428571e-01
5.000000e-01		0.000000e+00		-6.428571e-01
5.000000e-01		1.250000e-01		-6.428571e-01
5.000000e-01		2.500000e-01		-6.428571e-01
5.000000e-01		3.750000e-01		-6.428571e-01
5.000000e-01		5.000000e-01		-6.428571e-01
-5.000000e-01		-5.000000e-01		-5.357143e-01
-5.000000e-01		-2.500000e-01		-5.357143e-01
-5.000000e-01		0.000000e+00		-5.357143e-01
-5.000000e-01		2.500000e-01		-5.357143e-01
-5.000000e-01		5.000000e-01		-5.357143e-01
-2.500000e-01		-5.000000e-01		-5.357143e-01
-2.500000e-01		-2.500000e-01		-5.357143e-01
-2.500000e-01		0.000000e+00		-5.357143e-01
-2.500000e-01		2.500000e-01		-5.357143e-01
-2.500000e-01		5.000000e-01		-5.357143e-01
0.000000e+00		-5.000000e-01		-5.357143e-01
0.000000e+00		-2.500000e-01		-5.357143e-01
0.000000e+00		0.000000e+00		-5.357143e-01
0.000000e+00		2.500000e-01		-5.357143e-01
0.000000e+00		5.000000e-01		-5.357143e-01
2.500000e-01		-5.000000e-01		-5.357143e-01
2.500000e-01		-2.500000e-01		-5.357143e-01
2.500000e-01		0.000000e+00		-5.357143e-01
2.500000e-01		2.500000e-01		-5.357143e-01
2.500000e-01		5.000000e-01		-5.357143e-01
5.000000e-01		-5.000000e-01		-5.357143e-01
5.000000e-01		-2.500000e-01		-5.357143e-01
5.000000e-01		0.000000e+00		-5.357143e-01
5.000000e-01		2.500000e-01		-5.357143e-01
5.000000e-01		5.000000e-01		-5.357143e-01
-5.000000e-01		-5.000000e-01		-4.285714e-01
-5.000000e-01		-3.750000e-01		-4.285714e-01
-5.000000e-01		-2.500000e-01		-4.285714e-01
-5.000000e-01		-1.250000e-01		-4.285714e-01
-5.000000e-01		0.000000e+00		-4.285714e-01
-5.000000e-01		1.250000e-01		-4.285714e-01
-5.000000e-01		2.500000e-01		-4.285714e-01
-5.000000e-01		3.750000e-01		-4.285714e-01
-5.000000e-01		5.000000e-01		-4.285714e-01
-3.750000e-01		-5.000000e-01		-4.285714e-01
-3.750000e-01		-2.500000e-01		-4.285714e-01
-3.750000e-01		0.000000e+00		-4.285714e-01
-3.750000e-01		2.500000e-01		-4.285714e-01
-3.750000e-01		5.000000e-01		-4.285714e-01
-2.500000e-01		-5.000000e-01		-4.285714e-01
-2.500000e-01		-3.750000e-01		-4.285714e-01
-2.500000e-01		-2.500000e-01		-4.285714e-01
-2.500000e-01		-1.250000e-01		-4.285714e-01
-2.500000e-01		0.000000e+00		-4.285714e-01
-2.500000e-01		1.250000e-01		-4.285714e-01
-2.500000e-01		2.500000e-01		-4.285714e-01
-2.500000e-01		3.750000e-01		-4.285714e-01
-2.500000e-01		5.000000e-01		-4.285714e-01
-1.250000e-01		-5.000000e-01		-4.285714e-01
-1.250000e-01		-2.500000e-01		-4.285714e-01
-1.250000e-01		0.000000e+00		-4.285714e-01
-1.250000e-01		2.500000e-01		-4.285714e-01
-1.250000e-01		5.000000e-01		-4.285714e-01
0.000000e+00		-5.000000e-01		-4.285714e-01
0.000000e+00		-3.750000e-01		-4.285714e-01
0.000000e+00		-2.500000e-01		-4.285714e-01
0.000000e+00		-1.250000e-01		-4.285714e-01
0.000000e+00		0.000000e+00		-4.285714e-01
0.000000e+00		1.250000e-01		-4.285714e-01
0.000000e+00		2.500000e-01		-4.285714e-01
0.000000e+00		3.750000e-01		-4.285714e-01
0.000000e+00		5.000000e-01		-4.285714e-01
1.250000e-01		-5.000000e-01		-4.285714e-01
1.250000e-01		-2.500000e-01		-4.285714e-01
1.250000e-01		0.000000e+00		-4.285714e-01
1.250000e-01		2.500000e-01		-4.285714e-01
1.250000e-01		5.000000e-01		-4.285714e-01
2.500000e-01		-5.000000e-01		-4.285714e-01
2.500000e-01		-3.750000e-01		-4.285714e-01
2.500000e-01		-2.500000e-01		-4.285714e-01
2.500000e-01		-1.250000e-01		-4.285714e-01
2.500000e-01		0.000000e+00		-4.285714e-01
2.500000e-01		1.250000e-01		-4.285714e-01
2.500000e-01		2.500000e-01		-4.285714e-01
2.500000e-01		3.750000e-01		-4.285714e-01
2.500000e-01		5.000000e-01		-4.285714e-01
3.750000e-01		-5.000000e-01		-4.285714e-01
3.750000e-01		-2.500000e-01		-4.285714e-01
3.750000e-01		0.000000e+00		-4.285714e-01
3.750000e-01		2.500000e-01		-4.285714e-01
3.750000e-01		5.000000e-01		-4.285714e-01
5.000000e-01		-5.000000e-01		-4.285714e-01
5.000000e-01		-3.750000e-01		-4.285714e-01
5.000000e-01		-2.500000e-01		-4.285714e-01
5.000000e-01		-1.250000e-01		-4.285714e-01
5.000000e-01		0.000000e+00		-4.285714e-01
5.000000e-01		1.250000e-01		-4.285714e-01
5.000000e-01		2.500000e-01		-4.285714e-01
5.000000e-01		3.750000e-01		-4.285714e-01
5.000000e-01		5.000000e-01		-4.285714e-01
-5.000000e-01		-5.000000e-01		-3.214286e-01
-5.000000e-01		-2.500000e-01		-3.214286e-01
-5.000000e-01		0.000000e+00		-3.214286e-01
-5.000000e-01		2.500000e-01		-3.214286e-01
-5.000000e-01		5.000000e-01		-3.214286e-01
-2.500000e-01		-5.000000e-01		-3.214286e-01
-2.500000e-01		-2.500000e-01		-3.214286e-01
-2.500000e-01		0.000000e+00		-3.214286e-01
-2.500000e-01		2.500000e-01		-3.214286e-01
-2.500000e-01		5.000000e-01		-3.214286e-01
0.000000e+00		-5.000000e-01		-3.214286e-01
0.000000e+00		-2.500000e-01		-3.214286e-01
0.000000e+00		0.000000e+00		-3.214286e-01
0.000000e+00		2.500000e-01		-3.214286e-01
0.000000e+00		5.000000e-01		-3.214286e-01
2.500000e-01		-5.000000e-01		-3.214286e-01
2.500000e-01		-2.500000e-01		-3.214286e-01
2.500000e-01		0.000000e+00		-3.214286e-01
2.500000e-01		2.500000e-01		-3.214286e-01
2.500000e-01		5.000000e-01		-3.214286e-01
5.000000e-01		-5.000000e-01		-3.214286e-01
5.000000e-01		-2.500000e-01		-3.214286e-01
5.000000e-01		0.000000e+00		-3.214286e-01
5.000000e-01		2.500000e-01		-3.214286e-01
5.000000e-01		5.000000e-01		-3.214286e-01
-5.000000e-01		-5.000000e-01		-2.142857e-01
-5.000000e-01		-3.750000e-01		-2.142857e-01
-5.000000e-01		-2.500000e-01		-2.142857e-01
-5.000000e-01		-1.250000e-01		-2.142857e-01
-5.000000e-01		0.000000e+00		-2.142857e-01
-5.000000e-01		1.250000e-01		-2.142857e-01
-5.000000e-01		2.500000e-01		-2.142857e-01
-5.000000e-01		3.750000e-01		-2.142857e-01
-5.000000e-01		5.000000e-01		-2.142857e-01
-3.750000e-01		-5.000000e-01		-2.142857e-01
-3.750000e-01		-2.500000e-01		-2.142857e-01
-3.750000e-01		0.000000e+00		-2.142857e-01
-3.750000e-01		2.500000e-01		-2.142857e-01
-3.750000e-01		5.000000e-01		-2.142857e-01
-2.500000e-01		-5.000000e-01		-2.142857e-01
-2.500000e-01		-3.750000e-01		-2.142857e-01
-2.500000e-01		-2.500000e-01		-2.142857e-01
-2.500000e-01		-1.250000e-01		-2.142857e-01
-2.500000e-01		0.000000e+00		-2.142857e-01
-2.500000e-01		1.250000e-01		-2.142857e-01
-2.500000e-01		2.500000e-01		-2.142857e-01
-2.500000e-01		3.750000e-01		-2.142857e-01
-2.500000e-01		5.000000e-01		-2.142857e-01
-1.250000e-01		-5.000000e-01		-2.142857e-01
-1.250000e-01		-2.500000e-01		-2.142857e-01
-1.250000e-01		0.000000e+00		-2.142857e-01
-1.250000e-01		2.500000e-01		-2.142857e-01
-1.250000e-01		5.000000e-01		-2.142857e-01
0.000000e+00		-5.000000e-01		-2.142857e-01
0.000000e+00		-3.750000e-01		-2.142857e-01
0.000000e+00		-2.500000e-01		-2.142857e-01
0.000000e+00		-1.250000e-01		-2.142857e-01
0.000000e+00		0.000000e+00		-2.142857e-01
0.000000e+00		1.250000e-01		-2.142857e-01
0.000000e+00		2.500000e-01		-2.142857e-01
0.000000e+00		3.750000e-01		-2.142857e-01
0.000000e+00		5.000000e-01		-2.142857e-01
1.250000e-01		-5.000000e-01		-2.142857e-01
1.250000e-01		-2.500000e-01		-2.142857e-01
1.250000e-01		0.000000e+00		-2.142857e-01
1.250000e-01		2.500000e-01		-2.142857e-01
1.250000e-01		5.000000e-01		-2.142857e-01
2.500000e-01		-5.000000e-01		-2.142857e-01
2.500000e-01		-3.750000e-01		-2.142857e-01
2.500000e-01		-2.500000e-01		-2.142857e-01
2.500000e-01		-1.250000e-01		-2.142857e-01
2.500000e-01		0.000000e+00		-2.142857e-01
2.500000e-01		1.250000e-01		-2.142857e-01
2.500000e-01		2.500000e-01		-2.142857e-01
2.500000e-01		3.750000e-01		-2.142857e-01
2.500000e-01		5.000000e-01		-2.142857e-01
3.750000e-01		-5.000000e-01		-2.142857e-01
3.750000e-01		-2.500000e-01		-2.142857e-01
3.750000e-01		0.000000e+00		-2.142857e-01
3.750000e-01		2.500000e-01		-2.142857e-01
3.750000e-01		5.000000e-01		-2.142857e-01
5.000000e-01		-5.000000e-01		-2.142857e-01
5.000000e-01		-3.750000e-01		-2.142857e-01
5.000000e-01		-2.500000e-01		-2.142857e-01
5.000000e-01		-1.250000e-01		-2.142857e-01
5.000000e-01		0.000000e+00		-2.142857e-01
5.000000e-01		1.250000e-01		-2.142857e-01
5.000000e-01		2.500000e-01		-2.142857e-01
5.000000e-01		3.750000e-01		-2.142857e-01
5.000000e-01		5.000000e-01		-2.142857e-01
-5.000000e-01		-5.000000e-01		-1.071429e-01
-5.000000e-01		-2.500000e-01		-1.071429e-01
-5.000000e-01		0.000000e+00		-1.071429e-01
-5.000000e-01		2.500000e-01		-1.071429e-01
-5.000000e-01		5.000000e-01		-1.071429e-01
-2.500000e-01		-5.000000e-01		-1.071429e-01
-2.500000e-01		-2.500000e-01		-1.071429e-01
-2.500000e-01		0.000000e+00		-1.071429e-01
-2.500000e-01		2.500000e-01		-1.071429e-01
-2.500000e-01		5.000000e-01		-1.071429e-01
0.000000e+00		-5.000000e-01		-1.071429e-01
0.000000e+00		-2.500000e-01		-1.071429e-01
0.000000e+00		0.000000e+00		-1.071429e-01
0.000000e+00		2.500000e-01		-1.071429e-01
0.000000e+00		5.000000e-01		-1.071429e-01
2.500000e-01		-5.000000e-01		-1.071429e-01
2.500000e-01		-2.500000e-01		-1.071429e-01
2.500000e-01		0.000000e+00		-1.071429e-01
2.500000e-01		2.500000e-01		-1.071429e-01
2.500000e-01		5.000000e-01		-1.071429e-01
5.000000e-01		-5.000000e-01		-1.071429e-01
5.000000e-01		-2.500000e-01		-1.071429e-01
5.000000e-01		0.000000e+00		-1.071429e-01
5.000000e-01		2.500000e-01		-1.071429e-01
5.000000e-01		5.000000e-01		-1.071429e-01
-5.000000e-01		-5.000000e-01		0.000000e+00
-5.000000e-01		-3.750000e-01		0.000000e+00
-5.000000e-01		-2.500000e-01		0.000000e+00
-5.000000e-01		-1.250000e-01		0.000000e+00
-5.000000e-01		0.000000e+00		0.000000e+00
-5.000000e-01		1.250000e-01		0.000000e+00
-5.000000e-01		2.500000e-01		0.000000e+00
-5.000000e-01		3.750000e-01		0.000000e+00
-5.000000e-01		5.000000e-01		0.000000e+00
-3.750000e-01		-5.000000e-01		0.000000e+00
-3.750000e-01		-2.500000e-01		0.000000e+00
-3.750000e-01		0.000000e+00		0.000000e+00
-3.750000e-01		2.500000e-01		0.000000e+00
-3.750000e-01		5.000000e-01		0.000000e+00
-2.500000e-01		-5.000000e-01		0.000000e+00
-2.500000e-01		-3.750000e-01		0.000000e+00
-2.500000e-01		-2.500000e-01		0.000000e+00
-2.500000e-01		-1.250000e-01		0.000000e+00
-2.500000e-01		0.000000e+00		0.000000e+00
-2.500000e-01		1.250000e-01		0.000000e+00
-2.500000e-01		2.500000e-01		0.000000e+00
-2.500000e-01		3.750000e-01		0.000000e+00
-2.500000e-01		5.000000e-01		0.000000e+00
-1.250000e-01		-5.000000e-01		0.000000e+00
-1.250000e-01		-2.500000e-01		0.000000e+00
-1.250000e-01		0.000000e+00		0.000000e+00
-1.250000e-01		2.500000e-01		0.000000e+00
-1.250000e-01		5.000000e-01		0.000000e+00
0.000000e+00		-5.000000e-01		0.000000e+00
0.000000e+00		-3.750000e-01		0.000000e+00
0.000000e+00		-2.500000e-01		0.000000e+00
0.000000e+00		-1.250000e-01		0.000000e+00
0.000000e+00		0.000000e+00		0.000000e+00
0.000000e+00		1.250000e-01		0.000000e+00
0.000000e+00		2.500000e-01		0.000000e+00
0.000000e+00		3.750000e-01		0.000000e+00
0.000000e+00		5.000000e-01		0.000000e+00
1.250000e-01		-5.000000e-01		0.000000e+00
1.250000e-01		-2.500000e-01		0.000000e+00
1.250000e-01		0.000000e+00		0.000000e+00
1.250000e-01		2.500000e-01		0.000000e+00
1.250000e-01		5.000000e-01		0.000000e+00
2.500000e-01		-5.000000e-01		0.000000e+00
2.500000e-01		-3.750000e-01		0.000000e+00
2.500000e-01		-2.500000e-01		0.000000e+00
2.500000e-01		-1.250000e-01		0.000000e+00
2.500000e-01		0.000000e+00		0.000000e+00
2.500000e-01		1.250000e-01		0.000000e+00
2.500000e-01		2.500000e-01		0.000000e+00
2.500000e-01		3.750000e-01		0.000000e+00
2.500000e-01		5.000000e-01		0.000000e+00
3.750000e-01		-5.000000e-01		0.000000e+00
3.750000e-01		-2.500000e-01		0.000000e+00
3.750000e-01		0.000000e+00		0.000000e+00
3.750000e-01		2.500000e-01		0.000000e+00
3.750000e-01		5.000000e-01		0.000000e+00
5.000000e-01		-5.000000e-01		0.000000e+00
5.000000e-01		-3.750000e-01		0.000000e+00
5.000000e-01		-2.500000e-01		0.000000e+00
5.000000e-01		-1.250000e-01		0.000000e+00
5.000000e-01		0.000000e+00		0.000000e+00
5.000000e-01		1.250000e-01		0.000000e+00
5.000000e-01		2.500000e-01		0.000000e+00
5.000000e-01		3.750000e-01		0.000000e+00
5.000000e-01		5.000000e-01		0.000000e+00
-5.000000e-01		-5.000000e-01		1.071429e-01
-5.000000e-01		-2.500000e-01		1.071429e-01
-5.000000e-01		0.000000e+00		1.071429e-01
-5.000000e-01		2.500000e-01		1.071429e-01
-5.000000e-01		5.000000e-01		1.071429e-01
-2.500000e-01		-5.000000e-01		1.071429e-01
-2.500000e-01		-2.500000e-01		1.071429e-01
-2.500000e-01		0.000000e+00		1.071429e-01
-2.500000e-01		2.500000e-01		1.071429e-01
-2.500000e-01		5.000000e-01		1.071429e-01
0.000000e+00		-5.000000e-01		1.071429e-01
0.000000e+00		-2.500000e-01		1.071429e-01
0.000000e+00		0.000000e+00		1.071429e-01
0.000000e+00		2.500000e-01		1.071429e-01
0.000000e+00		5.000000e-01		1.071429e-01
2.500000e-01		-5.000000e-01		1.071429e-01
2.500000e-01		-2.500000e-01		1.071429e-01
2.500000e-01		0.000000e+00		1.071429e-01
2.500000e-01		2.500000e-01		1.071429e-01
2.500000e-01		5.000000e-01		1.071429e-01
5.000000e-01		-5.000000e-01		1.071429e-01
5.000000e-01		-2.500000e-01		1.071429e-01
5.000000e-01		0.000000e+00		1.071429e-01
5.000000e-01		2.500000e-01		1.071429e-01
5.000000e-01		5.000000e-01		1.071429e-01
-5.000000e-01		-5.000000e-01		2.142857e-01
-5.000000e-01		-3.750000e-01		2.142857e-01
-5.000000e-01		-2.500000e-01		2.142857e-01
-5.000000e-01		-1.250000e-01		2.142857e-01
-5.000000e-01		0.000000e+00		2.142857e-01
-5.000000e-01		1.250000e-01		2.142857e-01
-5.000000e-01		2.500000e-01		2.142857e-01
-5.000000e-01		3.750000e-01		2.142857e-01
-5.000000e-01		5.000000e-01		2.142857e-01
-3.750000e-01		-5.000000e-01		2.142857e-01
-3.750000e-01		-2.500000e-01		2.142857e-01
-3.750000e-01		0.000000e+00		2.142857e-01
-3.750000e-01		2.500000e-01		2.142857e-01
-3.750000e-01		5.000000e-01		2.142857e-01
-2.500000e-01		-5.000000e-01		2.142857e-01
-2.500000e-01		-3.750000e-01		2.142857e-01
-2.500000e-01		-2.500000e-01		2.142857e-01
-2.500000e-01		-1.250000e-01		2.142857e-01
-2.500000e-01		0.000000e+00		2.142857e-01
-2.500000e-01		1.250000e-01		2.142857e-01
-2.500000e-01		2.500000e-01		2.142857e-01
-2.500000e-01		3.750000e-01		2.142857e-01
-2.500000e-01		5.000000e-01		2.142857e-01
-1.250000e-01		-5.000000e-01		2.142857e-01
-1.250000e-01		-2.500000e-01		2.142857e-01
-1.250000e-01		0.000000e+00		2.142857e-01
-1.250000e-01		2.500000e-01		2.142857e-01
-1.250000e-01		5.000000e-01		2.142857e-01
0.000000e+00		-5.000000e-01		2.142857e-01
0.000000e+00		-3.750000e-01		2.142857e-01
0.000000e+00		-2.500000e-01		2.142857e-01
0.000000e+00		-1.250000e-01		2.142857e-01
0.000000e+00		0.000000e+00		2.142857e-01
0.000000e+00		1.250000e-01		2.142857e-01
0.000000e+00		2.500000e-01		2.142857e-01
0.000000e+00		3.750000e-01		2.142857e-01
0.000000e+00		5.000000e-01		2.142857e-01
1.250000e-01		-5.000000e-01		2.142857e-01
1.250000e-01		-2.500000e-01		2.142857e-01
1.250000e-01		0.000000e+00		2.142857e-01
1.250000e-01		2.500000e-01		2.142857e-01
1.250000e-01		5.000000e-01		2.142857e-01
2.500000e-01		-5.000000e-01		2.142857e-01
2.500000e-01		-3.750000e-01		2.142857e-01
2.500000e-01		-2.500000e-01		2.142857e-01
2.500000e-01		-1.250000e-01		2.142857e-01
2.500000e-01		0.000000e+00		2.142857e-01
2.500000e-01		1.250000e-01		2.142857e-01
2.500000e-01		2.500000e-01		2.142857e-01
2.500000e-01		3.750000e-01		2.142857e-01
2.500000e-01		5.000000e-01		2.142857e-01
3.750000e-01		-5.000000e-01		2.142857e-01
3.750000e-01		-2.500000e-01		2.142857e-01
3.750000e-01		0.000000e+00		2.142857e-01
3.750000e-01		2.500000e-01		2.142857e-01
3.750000e-01		5.000000e-01		2.142857e-01
5.000000e-01		-5.000000e-01		2.142857e-01
5.000000e-01		-3.750000e-01		2.142857e-01
5.000000e-01		-2.500000e-01		2.142857e-01
5.000000e-01		-1.250000e-01		2.142857e-01
5.000000e-01		0.000000e+00		2.142857e-01
5.000000e-01		1.250000e-01		2.142857e-01
5.000000e-01		2.500000e-01		2.142857e-01
5.000000e-01		3.750000e-01		2.142857e-01
5.000000e-01		5.000000e-01		2.142857e-01
-5.000000e-01		-5.000000e-01		3.214286e-01
-5.000000e-01		-2.500000e-01		3.214286e-01
-5.000000e-01		0.000000e+00		3.214286e-01
-5.000000e-01		2.500000e-01		3.214286e-01
-5.000000e-01		5.000000e-01		3.214286e-01
-2.500000e-01		-5.000000e-01		3.214286e-01
-2.500000e-01		-2.500000e-01		3.214286e-01
-2.500000e-01		0.000000e+00		3.214286e-01
-2.500000e-01		2.500000e-01		3.214286e-01
-2.500000e-01		5.000000e-01		3.214286e-01
0.000000e+00		-5.000000e-01		3.214286e-01
0.000000e+00		-2.500000e-01		3.214286e-01
0.000000e+00		0.000000e+00		3.214286e-01
0.000000e+00		2.500000e-01		3.214286e-01
0.000000e+00		5.000000e-01		3.214286e-01
2.500000e-01		-5.000000e-01		3.214286e-01
2.500000e-01		-2.500000e-01		3.214286e-01
2.500000e-01		0.000000e+00		3.214286e-01
2.500000e-01		2.500000e-01		3.214286e-01
2.500000e-01		5.000000e-01		3.214286e-01
5.000000e-01		-5.000000e-01		3.214286e-01
5.000000e-01		-2.500000e-01		3.214286e-01
5.000000e-01		0.000000e+00		3.214286e-01
5.000000e-01		2.500000e-01		3.214286e-01
5.000000e-01		5.000000e-01		3.214286e-01
-5.000000e-01		-5.000000e-01		4.285714e-01
-5.000000e-01		-3.750000e-01		4.285714e-01
-5.000000e-01		-2.500000e-01		4.285714e-01
-5.000000e-01		-1.250000e-01		4.285714e-01
-5.000000e-01		0.000000e+00		4.285714e-01
-5.000000e-01		1.250000e-01		4.285714e-01
-5.000000e-01		2.500000e-01		4.285714e-01
-5.000000e-01		3.750000e-01		4.285714e-01
-5.000000e-01		5.000000e-01		4.285714e-01
-3.750000e-01		-5.000000e-01		4.285714e-01
-3.750000e-01		-2.500000e-01		4.285714e-01
-3.750000e-01		0.000000e+00		4.285714e-01
-3.750000e-01		2.500000e-01		4.285714e-01
-3.750000e-01		5.000000e-01		4.285714e-01
-2.500000e-01		-5.000000e-01		4.285714e-01
-2.500000e-01		-3.750000e-01		4.285714e-01
-2.500000e-01		-2.500000e-01		4.285714e-01
-2.500000e-01		-1.250000e-01		4.285714e-01
-2.500000e-01		0.000000e+00		4.285714e-01
-2.500000e-01		1.250000e-01		4.285714e-01
-2.500000e-01		2.500000e-01		4.285714e-01
-2.500000e-01		3.750000e-01		4.285714e-01
-2.500000e-01		5.000000e-01		4.285714e-01
-1.250000e-01		-5.000000e-01		4.285714e-01
-1.250000e-01		-2.500000e-01		4.285714e-01
-1.250000e-01		0.000000e+00		4.285714e-01
-1.250000e-01		2.500000e-01		4.285714e-01
-1.250000e-01		5.000000e-01		4.285714e-01
0.000000e+00		-5.000000e-01		4.285714e-01
0.000000e+00		-3.750000e-01		4.285714e-01
0.000000e+00		-2.500000e-01		4.285714e-01
0.000000e+00		-1.250000e-01		4.285714e-01
0.000000e+00		0.000000e+00		4.285714e-01
0.000000e+00		1.250000e-01		4.285714e-01
0.000000e+00		2.500000e-01		4.285714e-01
0.000000e+00		3.750000e-01		4.285714e-01
0.000000e+00		5.000000e-01		4.285714e-01
1.250000e-01		-5.000000e-01		4.285714e-01
1.250000e-01		-2.500000e-01		4.285714e-01
1.250000e-01		0.000000e+00		4.285714e-01
1.250000e-01		2.500000e-01		4.285714e-01
1.250000e-01		5.000000e-01		4.285714e-01
2.500000e-01		-5.000000e-01		4.285714e-01
2.500000e-01		-3.750000e-01		4.285714e-01
2.500000e-01		-2.500000e-01		4.285714e-01
2.500000e-01		-1.250000e-01		4.285714e-01
2.500000e-01		0.000000e+00		4.285714e-01
2.500000e-01		1.250000e-01		4.285714e-01
2.500000e-01		2.500000e-01		4.285714e-01
2.500000e-01		3.750000e-01		4.285714e-01
2.500000e-01		5.000000e-01		4.285714e-01
3.750000e-01		-5.000000e-01		4.285714e-01
3.750000e-01		-2.500000e-01		4.285714e-01
3.750000e-01		0.000000e+00		4.285714e-01
3.750000e-01		2.500000e-01		4.285714e-01
3.750000e-01		5.000000e-01		4.285714e-01
5.000000e-01		-5.000000e-01		4.285714e-01
5.000000e-01		-3.750000e-01		4.285714e-01
5.000000e-01		-2.500000e-01		4.285714e-01
5.000000e-01		-1.250000e-01		4.285714e-01
5.000000e-01		0.000000e+00		4.285714e-01
5.000000e-01		1.250000e-01		4.285714e-01
5.000000e-01		2.500000e-01		4.285714e-01
5.000000e-01		3.750000e-01		4.285714e-01
5.000000e-01		5.000000e-01		4.285714e-01
-5.000000e-01		-5.000000e-01		5.357143e-01
-5.000000e-01		-2.500000e-01		5.357143e-01
-5.000000e-01		0.000000e+00		5.357143e-01
-5.000000e-01		2.500000e-01		5.357143e-01
-5.000000e-01		5.000000e-01		5.357143e-01
-2.500000e-01		-5.000000e-01		5.357143e-01
-2.500000e-01		-2.500000e-01		5.357143e-01
-2.500000e-01		0.000000e+00		5.357143e-01
-2.500000e-01		2.500000e-01		5.357143e-01
-2.500000e-01		5.000000e-01		5.357143e-01
0.000000e+00		-5.000000e-01		5.357143e-01
0.000000e+00		-2.500000e-01		5.357143e-01
0.000000e+00		0.000000e+00		5.357143e-01
0.000000e+00		2.500000e-01		5.357143e-01
0.000000e+00		5.000000e-01		5.357143e-01
2.500000e-01		-5.000000e-01		5.357143e-01
2.500000e-01		-2.500000e-01		5.357143e-01
2.500000e-01		0.000000e+00		5.357143e-01
2.500000e-01		2.500000e-01		5.357143e-01
2.500000e-01		5.000000e-01		5.357143e-01
5.000000e-01		-5.000000e-01		5.357143e-01
5.000000e-01		-2.500000e-01		5.357143e-01
5.000000e-01		0.000000e+00		5.357143e-01
5.000000e-01		2.500000e-01		5.357143e-01
5.000000e-01		5.000000e-01		5.357143e-01
-5.000000e-01		-5.000000e-01		6.428571e-01
-5.000000e-01		-3.750000e-01		6.428571e-01
-5.000000e-01		-2.500000e-01		6.428571e-01
-5.000000e-01		-1.250000e-01		6.428571e-01
-5.000000e-01		0.000000e+00		6.428571e-01
-5.000000e-01		1.250000e-01		6.428571e-01
-5.000000e-01		2.500000e-01		6.428571e-01
-5.000000e-01		3.750000e-01		6.428571e-01
-5.000000e-01		5.000000e-01		6.428571e-01
-3.750000e-01		-5.000000e-01		6.428571e-01
-3.750000e-01		-2.500000e-01		6.428571e-01
-3.750000e-01		0.000000e+00		6.428571e-01
-3.750000e-01		2.500000e-01		6.428571e-01
-3.750000e-01		5.000000e-01		6.428571e-01
-2.500000e-01		-5.000000e-01		6.428571e-01
-2.500000e-01		-3.750000e-01		6.428571e-01
-2.500000e-01		-2.500000e-01		6.428571e-01
-2.500000e-01		-1.250000e-01		6.428571e-01
-2.500000e-01		0.000000e+00		6.428571e-01
-2.500000e-01		1.250000e-01		6.428571e-01
-2.500000e-01		2.500000e-01		6.428571e-01
-2.500000e-01		3.750000e-01		6.428571e-01
-2.500000e-01		5.000000e-01		6.428571e-01
-1.250000e-01		-5.000000e-01		6.428571e-01
-1.250000e-01		-2.500000e-01		6.428571e-01
-1.250000e-01		0.000000e+00		6.428571e-01
-1.250000e-01		2.500000e-01		6.428571e-01
-1.250000e-01		5.000000e-01		6.428571e-01
0.000000e+00		-5.000000e-01		6.428571e-01
0.000000e+00		-3.750000e-01		6.428571e-01
0.000000e+00		-2.500000e-01		6.428571e-01
0.000000e+00		-1.250000e-01		6.428571e-01
0.000000e+00		0.000000e+00		6.428571e-01
0.000000e+00		1.250000e-01		6.428571e-01
0.000000e+00		2.500000e-01		6.428571e-01
0.000000e+00		3.750000e-01		6.428571e-01
0.000000e+00		5.000000e-01		6.428571e-01
1.250000e-01		-5.000000e-01		6.428571e-01
1.250000e-01		-2.500000e-01		6.428571e-01
1.250000e-01		0.000000e+00		6.428571e-01
1.250000e-01		2.500000e-01		6.428571e-01
1.250000e-01		5.000000e-01		6.428571e-01
2.500000e-01		-5.000000e-01		6.428571e-01
2.500000e-01		-3.750000e-01		6.428571e-01
2.500000e-01		-2.500000e-01		6.428571e-01
2.500000e-01		-1.250000e-01		6.428571e-01
2.500000e-01		0.000000e+00		6.428571e-01
2.500000e-01		1.250000e-01		6.428571e-01
2.500000e-01		2.500000e-01		6.428571e-01
2.500000e-01		3.750000e-01		6.428571e-01
2.500000e-01		5.000000e-01		6.428571e-01
3.750000e-01		-5.000000e-01		6.428571e-01
3.750000e-01		-2.500000e-01		6.428571e-01
3.750000e-01		0.000000e+00		6.428571e-01
3.750000e-01		2.500000e-01		6.428571e-01
3.750000e-01		5.000000e-01		6.428571e-01
5.000000e-01		-5.000000e-01		6.428571e-01
5.000000e-01		-3.750000e-01		6.428571e-01
5.000000e-01		-2.500000e-01		6.428571e-01
5.000000e-01		-1.250000e-01		6.428571e-01
5.000000e-01		0.000000e+00		6.428571e-01
5.000000e-01		1.250000e-01		6.428571e-01
5.000000e-01		2.500000e-01		6.428571e-01
5.000000e-01		3.750000e-01		6.428571e-01
5.000000e-01		5.000000e-01		6.428571e-01
-5.000000e-01		-5.000000e-01		7.500000e-01
-5.000000e-01		-2.500000e-01		7.500000e-01
-5.000000e-01		0.000000e+00		7.500000e-01
-5.000000e-01		2.500000e-01		7.500000e-01
-5.000000e-01		5.000000e-01		7.500000e-01
-2.500000e-01		-5.000000e-01		7.500000e-01
-2.500000e-01		-2.500000e-01		7.500000e-01
-2.500000e-01		0.000000e+00		7.500000e-01
-2.500000e-01		2.500000e-01		7.500000e-01
-2.500000e-01		5.000000e-01		7.500000e-01
0.000000e+00		-5.000000e-01		7.500000e-01
0.000000e+00		-2.500000e-01		7.500000e-01
0.000000e+00		0.000000e+00		7.500000e-01
0.000000e+00		2.500000e-01		7.500000e-01
0.000000e+00		5.000000e-01		7.500000e-01
2.500000e-01		-5.000000e-01		7.500000e-01
2.500000e-01		-2.500000e-01		7.500000e-01
2.500000e-01		0.000000e+00		7.500000e-01
2.500000e-01		2.500000e-01		7.500000e-01
2.500000e-01		5.000000e-01		7.500000e-01
5.000000e-01		-5.000000e-01		7.500000e-01
5.000000e-01		-2.500000e-01		7.500000e-01
5.000000e-01		0.000000e+00		7.500000e-01
5.000000e-01		2.500000e-01		7.500000e-01
5.000000e-01		5.000000e-01		7.500000e-01
-5.000000e-01		-5.000000e-01		8.571429e-01
-5.000000e-01		-3.750000e-01		8.571429e-01
-5.000000e-01		-2.500000e-01		8.571429e-01
-5.000000e-01		-1.250000e-01		8.571429e-01
-5.000000e-01		0.000000e+00		8.571429e-01
-5.000000e-01		1.250000e-01		8.571429e-01
-5.000000e-01		2.500000e-01		8.571429e-01
-5.000000e-01		3.750000e-01		8.571429e-01
-5.000000e-01		5.000000e-01		8.571429e-01
-3.750000e-01		-5.000000e-01		8.571429e-01
-3.750000e-01		-2.500000e-01		8.571429e-01
-3.750000e-01		0.000000e+00		8.571429e-01
-3.750000e-01		2.500000e-01		8.571429e-01
-3.750000e-01		5.000000e-01		8.571429e-01
-2.500000e-01		-5.000000e-01		8.571429e-01
-2.500000e-01		-3.750000e-01		8.571429e-01
-2.500000e-01		-2.500000e-01		8.571429e-01
-2.500000e-01		-1.250000e-01		8.571429e-01
-2.500000e-01		0.000000e+00		8.571429e-01
-2.500000e-01		1.250000e-01		8.571429e-01
-2.500000e-01		2.500000e-01		8.571429e-01
-2.500000e-01		3.750000e-01		8.571429e-01
-2.500000e-01		5.000000e-01		8.571429e-01
-1.250000e-01		-5.000000e-01		8.571429e-01
-1.250000e-01		-2.500000e-01		8.571429e-01
-1.250000e-01		0.000000e+00		8.571429e-01
-1.250000e-01		2.500000e-01		8.571429e-01
-1.250000e-01		5.000000e-01		8.571429e-01
0.000000e+00		-5.000000e-01		8.571429e-01
0.000000e+00		-3.750000e-01		8.571429e-01
0.000000e+00		-2.500000e-01		8.571429e-01
0.000000e+00		-1.250000e-01		8.571429e-01
0.000000e+00		0.000000e+00		8.571429e-01
0.000000e+00		1.250000e-01		8.571429e-01
0.000000e+00		2.500000e-01		8.571429e-01
0.000000e+00		3.750000e-01		8.571429e-01
0.000000e+00		5.000000e-01		8.571429e-01
1.250000e-01		-5.000000e-01		8.571429e-01
1.250000e-01		-2.500000e-01		8.571429e-01
1.250000e-01		0.000000e+00		8.571429e-01
1.250000e-01		2.500000e-01		8.571429e-01
1.250000e-01		5.000000e-01		8.571429e-01
2.500000e-01		-5.000000e-01		8.571429e-01
2.500000e-01		-3.750000e-01		8.571429e-01
2.500000e-01		-2.500000e-01		8.571429e-01
2.500000e-01		-1.250000e-01		8.571429e-01
2.500000e-01		0.000000e+00		8.571429e-01
2.500000e-01		1.250000e-01		8.571429e-01
2.500000e-01		2.500000e-01		8.571429e-01
2.500000e-01		3.750000e-01		8.571429e-01
2.500000e-01		5.000000e-01		8.571429e-01
3.750000e-01		-5.000000e-01		8.571429e-01
3.750000e-01		-2.500000e-01		8.571429e-01
3.750000e-01		0.000000e+00		8.571429e-01
3.750000e-01		2.500000e-01		8.571429e-01
3.750000e-01		5.000000e-01		8.571429e-01
5.000000e-01		-5.000000e-01		8.571429e-01
5.000000e-01		-3.750000e-01		8.571429e-01
5.000000e-01		-2.500000e-01		8.571429e-01
5.000000e-01		-1.250000e-01		8.571429e-01
5.000000e-01		0.000000e+00		8.571429e-01
5.000000e-01		1.250000e-01		8.571429e-01
5.000000e-01		2.500000e-01		8.571429e-01
5.000000e-01		3.750000e-01		8.571429e-01
5.000000e-01		5.000000e-01		8.571429e-01
-5.000000e-01		-5.000000e-01		9.642857e-01
-5.000000e-01		-2.500000e-01		9.642857e-01
-5.000000e-01		0.000000e+00		9.642857e-01
-5.000000e-01		2.500000e-01		9.642857e-01
-5.000000e-01		5.000000e-01		9.642857e-01
-2.500000e-01		-5.000000e-01		9.642857e-01
-2.500000e-01		-2.500000e-01		9.642857e-01
-2.500000e-01		0.000000e+00		9.642857e-01
-2.500000e-01		2.500000e-01		9.642857e-01
-2.500000e-01		5.000000e-01		9.642857e-01
0.000000e+00		-5.000000e-01		9.642857e-01
0.000000e+00		-2.500000e-01		9.642857e-01
0.000000e+00		0.000000e+00		9.642857e-01
0.000000e+00		2.500000e-01		9.642857e-01
0.000000e+00		5.000000e-01		9.642857e-01
2.500000e-01		-5.000000e-01		9.642857e-01
2.500000e-01		-2.500000e-01		9.642857e-01
2.500000e-01		0.000000e+00		9.642857e-01
2.500000e-01		2.500000e-01		9.642857e-01
2.500000e-01		5.000000e-01		9.642857e-01
5.000000e-01		-5.000000e-01		9.642857e-01
5.000000e-01		-2.500000e-01		9.642857e-01
5.000000e-01		0.000000e+00		9.642857e-01
5.000000e-01		2.500000e-01		9.642857e-01
5.000000e-01		5.000000e-01		9.642857e-01
-5.000000e-01		-5.000000e-01		1.071429e+00
-5.000000e-01		-3.750000e-01		1.071429e+00
-5.000000e-01		-2.500000e-01		1.071429e+00
-5.000000e-01		-1.250000e-01		1.071429e+00
-5.000000e-01		0.000000e+00		1.071429e+00
-5.000000e-01		1.250000e-01		1.071429e+00
-5.000000e-01		2.500000e-01		1.071429e+00
-5.000000e-01		3.750000e-01		1.071429e+00
-5.000000e-01		5.000000e-01		1.071429e+00
-3.750000e-01		-5.000000e-01		1.071429e+00
-3.750000e-01		-2.500000e-01		1.071429e+00
-3.750000e-01		0.000000e+00		1.071429e+00
-3.750000e-01		2.500000e-01		1.071429e+00
-3.750000e-01		5.000000e-01		1.071429e+00
-2.500000e-01		-5.000000e-01		1.071429e+00
-2.500000e-01		-3.750000e-01		1.071429e+00
-2.500000e-01		-2.500000e-01		1.071429e+00
-2.500000e-01		-1.250000e-01		1.071429e+00
-2.500000e-01		0.000000e+00		1.071429e+00
-2.500000e-01		1.250000e-01		1.071429e+00
-2.500000e-01		2.500000e-01		1.071429e+00
-2.500000e-01		3.750000e-01		1.071429e+00
-2.500000e-01		5.000000e-01		1.071429e+00
-1.250000e-01		-5.000000e-01		1.071429e+00
-1.250000e-01		-2.500000e-01		1.071429e+00
-1.250000e-01		0.000000e+00		1.071429e+00
-1.250000e-01		2.500000e-01		1.071429e+00
-1.250000e-01		5.000000e-01		1.071429e+00
0.000000e+00		-5.000000e-01		1.071429e+00
0.000000e+00		-3.750000e-01		1.071429e+00
0.000000e+00		-2.500000e-01		1.071429e+00
0.000000e+00		-1.250000e-01		1.071429e+00
0.000000e+00		0.000000e+00		1.071429e+00
0.000000e+00		1.250000e-01		1.071429e+00
0.000000e+00		2.500000e-01		1.071429e+00
0.000000e+00		3.750000e-01		1.071429e+00
0.000000e+00		5.000000e-01		1.071429e+00
1.250000e-01		-5.000000e-01		1.071429e+00
1.250000e-01		-2.500000e-01		1.071429e+00
1.250000e-01		0.000000e+00		1.071429e+00
1.250000e-01		2.500000e-01		1.071429e+00
1.250000e-01		5.000000e-01		1.071429e+00
2.500000e-01		-5.000000e-01		1.071429e+00
2.500000e-01		-3.750000e-01		1.071429e+00
2.500000e-01		-2.500000e-01		1.071429e+00
2.500000e-01		-1.250000e-01		1.071429e+00
2.500000e-01		0.000000e+00		1.071429e+00
2.500000e-01		1.250000e-01		1.071429e+00
2.500000e-01		2.500000e-01		1.071429e+00
2.500000e-01		3.750000e-01		1.071429e+00
2.500000e-01		5.000000e-01		1.071429e+00
3.750000e-01		-5.000000e-01		1.071429e+00
3.750000e-01		-2.500000e-01		1.071429e+00
3.750000e-01		0.000000e+00		1.071429e+00
3.750000e-01		2.500000e-01		1.071429e+00
3.750000e-01		5.000000e-01		1.071429e+00
5.000000e-01		-5.000000e-01		1.071429e+00
5.000000e-01		-3.750000e-01		1.071429e+00
5.000000e-01		-2.500000e-01		1.071429e+00
5.000000e-01		-1.250000e-01		1.071429e+00
5.000000e-01		0.000000e+00		1.071429e+00
5.000000e-01		1.250000e-01		1.071429e+00
5.000000e-01		2.500000e-01		1.071429e+00
5.000000e-01		3.750000e-01		1.071429e+00
5.000000e-01		5.000000e-01		1.071429e+00
-5.000000e-01		-5.000000e-01		1.178571e+00
-5.000000e-01		-2.500000e-01		1.178571e+00
-5.000000e-01		0.000000e+00		1.178571e+00
-5.000000e-01		2.500000e-01		1.178571e+00
-5.000000e-01		5.000000e-01		1.178571e+00
-2.500000e-01		-5.000000e-01		1.178571e+00
-2.500000e-01		-2.500000e-01		1.178571e+00
-2.500000e-01		0.000000e+00		1.178571e+00
-2.500000e-01		2.500000e-01		1.178571e+00
-2.500000e-01		5.000000e-01		1.178571e+00
0.000000e+00		-5.000000e-01		1.178571e+00
0.000000e+00		-2.500000e-01		1.178571e+00
0.000000e+00		0.000000e+00		1.178571e+00
0.000000e+00		2.500000e-01		1.178571e+00
0.000000e+00		5.000000e-01		1.178571e+00
2.500000e-01		-5.000000e-01		1.178571e+00
2.500000e-01		-2.500000e-01		1.178571e+00
2.500000e-01		0.000000e+00		1.178571e+00
2.500000e-01		2.500000e-01		1.178571e+00
2.500000e-01		5.000000e-01		1.178571e+00
5.000000e-01		-5.000000e-01		1.178571e+00
5.000000e-01		-2.500000e-01		1.178571e+00
5.000000e-01		0.000000e+00		1.178571e+00
5.000000e-01		2.500000e-01		1.178571e+00
5.000000e-01		5.000000e-01		1.178571e+00
-5.000000e-01		-5.000000e-01		1.285714e+00
-5.000000e-01		-3.750000e-01		1.285714e+00
-5.000000e-01		-2.500000e-01		1.285714e+00
-5.000000e-01		-1.250000e-01		1.285714e+00
-5.000000e-01		0.000000e+00		1.285714e+00
-5.000000e-01		1.250000e-01		1.285714e+00
-5.000000e-01		2.500000e-01		1.285714e+00
-5.000000e-01		3.750000e-01		1.285714e+00
-5.000000e-01		5.000000e-01		1.285714e+00
-3.750000e-01		-5.000000e-01		1.285714e+00
-3.750000e-01		-2.500000e-01		1.285714e+00
-3.750000e-01		0.000000e+00		1.285714e+00
-3.750000e-01		2.500000e-01		1.285714e+00
-3.750000e-01		5.000000e-01		1.285714e+00
-2.500000e-01		-5.000000e-01		1.285714e+00
-2.500000e-01		-3.750000e-01		1.285714e+00
-2.500000e-01		-2.500000e-01		1.285714e+00
-2.500000e-01		-1.250000e-01		1.285714e+00
-2.500000e-01		0.000000e+00		1.285714e+00
-2.500000e-01		1.250000e-01		1.285714e+00
-2.500000e-01		2.500000e-01		1.285714e+00
-2.500000e-01		3.750000e-01		1.285714e+00
-2.500000e-01		5.000000e-01		1.285714e+00
-1.250000e-01		-5.000000e-01		1.285714e+00
-1.250000e-01		-2.500000e-01		1.285714e+00
-1.250000e-01		0.000000e+00		1.285714e+00
-1.250000e-01		2.500000e-01		1.285714e+00
-1.250000e-01		5.000000e-01		1.285714e+00
0.000000e+00		-5.000000e-01		1.285714e+00
0.000000e+00		-3.750000e-01		1.285714e+00
0.000000e+00		-2.500000e-01		1.285714e+00
0.000000e+00		-1.250000e-01		1.285714e+00
0.000000e+00		0.000000e+00		1.285714e+00
0.000000e+00		1.250000e-01		1.285714e+00
0.000000e+00		2.500000e-01		1.285714e+00
0.000000e+00		3.750000e-01		1.285714e+00
0.000000e+00		5.000000e-01		1.285714e+00
1.250000e-01		-5.000000e-01		1.285714e+00
1.250000e-01		-2.500000e-01		1.285714e+00
1.250000e-01		0.000000e+00		1.285714e+00
1.250000e-01		2.500000e-01		1.285714e+00
1.250000e-01		5.000000e-01		1.285714e+00
2.500000e-01		-5.000000e-01		1.285714e+00
2.500000e-01		-3.750000e-01		1.285714e+00
2.500000e-01		-2.500000e-01		1.285714e+00
2.500000e-01		-1.250000e-01		1.285714e+00
2.500000e-01		0.000000e+00		1.285714e+00
2.500000e-01		1.250000e-01		1.285714e+00
2.500000e-01		2.500000e-01		1.285714e+00
2.500000e-01		3.750000e-01		1.285714e+00
2.500000e-01		5.000000e-01		1.285714e+00
3.750000e-01		-5.000000e-01		1.285714e+00
3.750000e-01		-2.500000e-01		1.285714e+00
3.750000e-01		0.000000e+00		1.285714e+00
3.750000e-01		2.500000e-01		1.285714e+00
3.750000e-01		5.000000e-01		1.285714e+00
5.000000e-01		-5.000000e-01		1.285714e+00
5.000000e-01		-3.750000e-01		1.285714e+00
5.000000e-01		-2.500000e-01		1.285714e+00
5.000000e-01		-1.250000e-01		1.285714e+00
5.000000e-01		0.000000e+00		1.285714e+00
5.000000e-01		1.250000e-01		1.285714e+00
5.000000e-01		2.500000e-01		1.285714e+00
5.000000e-01		3.750000e-01		1.285714e+00
5.000000e-01		5.000000e-01		1.285714e+00
-5.000000e-01		-5.000000e-01		1.392857e+00
-5.000000e-01		-2.500000e-01		1.392857e+00
-5.000000e-01		0.000000e+00		1.392857e+00
-5.000000e-01		2.500000e-01		1.392857e+00
-5.000000e-01		5.000000e-01		1.392857e+00
-2.500000e-01		-5.000000e-01		1.392857e+00
-2.500000e-01		-2.500000e-01		1.392857e+00
-2.500000e-01		0.000000e+00		1.392857e+00
-2.500000e-01		2.500000e-01		1.392857e+00
-2.500000e-01		5.000000e-01		1.392857e+00
0.000000e+00		-5.000000e-01		1.392857e+00
0.000000e+00		-2.500000e-01		1.392857e+00
0.000000e+00		0.000000e+00		1.392857e+00
0.000000e+00		2.500000e-01		1.392857e+00
0.000000e+00		5.000000e-01		1.392857e+00
2.500000e-01		-5.000000e-01		1.392857e+00
2.500000e-01		-2.500000e-01		1.392857e+00
2.500000e-01		0.000000e+00		1.392857e+00
2.500000e-01		2.500000e-01		1.392857e+00
2.500000e-01		5.000000e-01		1.392857e+00
5.000000e-01		-5.000000e-01		1.392857e+00
5.000000e-01		-2.500000e-01		1.392857e+00
5.000000e-01		0.000000e+00		1.392857e+00
5.000000e-01		2.500000e-01		1.392857e+00
5.000000e-01		5.000000e-01		1.392857e+00
-5.000000e-01		-5.000000e-01		1.500000e+00
-5.000000e-01		-3.750000e-01		1.500000e+00
-5.000000e-01		-2.500000e-01		1.500000e+00
-5.000000e-01		-1.250000e-01		1.500000e+00
-5.000000e-01		0.000000e+00		1.500000e+00
-5.000000e-01		1.250000e-01		1.500000e+00
-5.000000e-01		2.500000e-01		1.500000e+00
-5.000000e-01		3.750000e-01		1.500000e+00
-5.000000e-01		5.000000e-01		1.500000e+00
-3.750000e-01		-5.000000e-01		1.500000e+00
-3.750000e-01		-2.500000e-01		1.500000e+00
-3.750000e-01		0.000000e+00		1.500000e+00
-3.750000e-01		2.500000e-01		1.500000e+00
-3.750000e-01		5.000000e-01		1.500000e+00
-2.500000e-01		-5.000000e-01		1.500000e+00
-2.500000e-01		-3.750000e-01		1.500000e+00
-2.500000e-01		-2.500000e-01		1.500000e+00
-2.500000e-01		-1.250000e-01		1.500000e+00
-2.500000e-01		0.000000e+00		1.500000e+00
-2.500000e-01		1.250000e-01		1.500000e+00
-2.500000e-01		2.500000e-01		1.500000e+00
-2.500000e-01		3.750000e-01		1.500000e+00
-2.500000e-01		5.000000e-01		1.500000e+00
-1.250000e-01		-5.000000e-01		1.500000e+00
-1.250000e-01		-2.500000e-01		1.500000e+00
-1.250000e-01		0.000000e+00		1.500000e+00
-1.250000e-01		2.500000e-01		1.500000e+00
-1.250000e-01		5.000000e-01		1.500000e+00
0.000000e+00		-5.000000e-01		1.500000e+00
0.000000e+00		-3.750000e-01		1.500000e+00
0.000000e+00		-2.500000e-01		1.500000e+00
0.000000e+00		-1.250000e-01		1.500000e+00
0.000000e+00		0.000000e+00		1.500000e+00
0.000000e+00		1.250000e-01		1.500000e+00
0.000000e+00		2.500000e-01		1.500000e+00
0.000000e+00		3.750000e-01		1.500000e+00
0.000000e+00		5.000000e-01		1.500000e+00
1.250000e-01		-5.000000e-01		1.500000e+00
1.250000e-01		-2.500000e-01		1.500000e+00
1.250000e-01		0.000000e+00		1.500000e+00
1.250000e-01		2.500000e-01		1.500000e+00
1.250000e-01		5.000000e-01		1.500000e+00
2.500000e-01		-5.000000e-01		1.500000e+00
2.500000e-01		-3.750000e-01		1.500000e+00
2.500000e-01		-2.500000e-01		1.500000e+00
2.500000e-01		-1.250000e-01		1.500000e+00
2.500000e-01		0.000000e+00		1.500000e+00
2.500000e-01		1.250000e-01		1.500000e+00
2.500000e-01		2.500000e-01		1.500000e+00
2.500000e-01		3.750000e-01		1.500000e+00
2.500000e-01		5.000000e-01		1.500000e+00
3.750000e-01		-5.000000e-01		1.500000e+00
3.750000e-01		-2.500000e-01		1.500000e+00
3.750000e-01		0.000000e+00		1.500000e+00
3.750000e-01		2.500000e-01		1.500000e+00
3.750000e-01		5.000000e-01		1.500000e+00
5.000000e-01		-5.000000e-01		1.500000e+00
5.000000e-01		-3.750000e-01		1.500000e+00
5.000000e-01		-2.500000e-01		1.500000e+00
5.000000e-01		-1.250000e-01		1.500000e+00
5.000000e-01		0.000000e+00		1.500000e+00
5.000000e-01		1.250000e-01		1.500000e+00
5.000000e-01		2.500000e-01		1.500000e+00
5.000000e-01		3.750000e-01		1.500000e+00
5.000000e-01		5.000000e-01		1.500000e+00
CELLS 224 4704
20		0		14		16		2		90		104		106		92		9		15		10		1		99		105		100		91		65		70		71		66		
20		2		16		18		4		92		106		108		94		10		17		11		3		100		107		101		93		66		71		72		67		
20		4		18		20		6		94		108		110		96		11		19		12		5		101		109		102		95		67		72		73		68		
20		6		20		22		8		96		110		112		98		12		21		13		7		102		111		103		97		68		73		74		69		
20		14		28		30		16		104		118		120		106		23		29		24		15		113		119		114		105		70		75		76		71		
20		16		30		32		18		106		120		122		108		24		31		25		17		114		121		115		107		71		76		77		72		
20		18		32		34		20		108		122		124		110		25		33		26		19		115		123		116		109		72		77		78		73		
20		20		34		36		22		110		124		126		112		26		35		27		21		116		125		117		111		73		78		79		74		
20		28		42		44		30		118		132		134		120		37		43		38		29		127		133		128		119		75		80		81		76		
20		30		44		46		32		120		134		136		122		38		45		39		31		128		135		129		121		76		81		82		77		
20		32		46		48		34		122		136		138		124		39		47		40		33		129		137		130		123		77		82		83		78		
20		34		48		50		36		124		138		140		126		40		49		41		35		130		139		131		125		78		83		84		79		
20		42		56		58		44		132		146		148		134		51		57		52		43		141		147		142		133		80		85		86		81		
20		44		58		60		46		134		148		150		136		52		59		53		45		142		149		143		135		81		86		87		82		
20		46		60		62		48		136		150		152		138		53		61		54		47		143		151		144		137		82		87		88		83		
20		48		62		64		50		138		152		154		140		54		63		55		49		144		153		145		139		83		88		89		84		
20		90		104		106		92		180		194		196		182		99		105		100		91		189		195		190		181		155		160		161		156		
20		92		106		108		94		182		196		198		184		100		107		101		93		190		197		191		183		156		161		162		157		
20		94		108		110		96		184		198		200		186		101		109		102		95		191		199		192		185		157		162		163		158		
20		96		110		112		98		186		200		202		188		102		111		103		97		192		201		193		187		158		163		164		159		
20		104		118		120		106		194		208		210		196		113		119		114		105		203		209		204		195		160		165		166		161		
20		106		120		122		108		196		210		212		198		114		121		115		107		204		211		205		197		161		166		167		162		
20		108		122		124		110		198		212		214		200		115		123		116		109		205		213		206		199		162		167		168		163		
20		110		124		126		112		200		214		216		202		116		125		117		111		206		215		207		201		163		168		169		164		
20		118		132		134		120		208		222		224		210		127		133		128		119		217		223		218		209		165		170		171		166		
20		120		134		136		122		210		224		226		212		128		135		129		121		218		225		219		211		166		171		172		167		
20		122		136		138		124		212		226		228		214		129		137		130		123		219		227		220		213		167		172		173		168		
20		124		138		140		126		214		228		230		216		130		139		131		125		220		229		221		215		168		173		174		169		
20		132		146		148		134		222		236		238		224		141		147		142		133		231		237		232		223		170		175		176		171		
20		134		148		150		136		224		238		240		226		142		149		143		135		232		239		233		225		171		176		177		172		
20		136		150		152		138		226		240		242		228		143		151		144		137		233		241		234		227		172		177		178		173		
20		138		152		154		140		228		242		244		230		144		153		145		139		234		243		235		229		173		178		179		174		
20		180		194		196		182		270		284		286		272		189		195		190		181		279		285		280		271		245		250		251		246		
20		182		196		198		184		272		286		288		274		190		197		191		183		280		287		281		273		246		251		252		247		
20		184		198		200		186		274		288		290		276		191		199		192		185		281		289		282		275		247		252		253		248		
20		186		200		202		188		276		290		292		278		192		201		193		187		282		291		283		277		248		253		254		249		
20		194		208		210		196		284		298		300		286		203		209		204		195		293		299		294		285		250		255		256		251		
20		196		210		212		198		286		300		302		288		204		211		205		197		294		301		295		287		251		256		257		252		
20		198		212		214		200		288		302		304		290		205		213		206		199		295		303		296		289		252		257		258		253		
20		200		214		216		202		290		304		306		292		206		215		207		201		296		305		297		291		253		258		259		254		
20		208		222		224		210		298		312		314		300		217		223		218		209		307		313		308		299		255		260		261		256		
20		210		224		226		212		300		314		316		302		218		225		219		211		308		315		309		301		256		261		262		257		
20		212		226		228		214		302		316		318		304		219		227		220		213		309		317		310		303		257		262		263		258		
20		214		228		230		216		304		318		320		306		220		229		221		215		310		319		311		305		258		263		264		259		
20		222		236		238		224		312		326		328		314		231		237		232		223		321		327		322		313		260		265		266		261		
20		224		238		240		226		314		328		330		316		232		239		233		225		322		329		323		315		261		266		267		262		
20		226		240		242		228		316		330		332		318		233		241		234		227		323		331		324		317		262		267		268		263		
20		228		242		244		230		318		332		334		320		234		243		235		229		324		333		325		319		263		268		269		264		
20		270		284		286		272		360		374		376		362		279		285		280		271		369		375		370		361		335		340		341		336		
20		272		286		288		274		362		376		378		364		280		287		281		273		370		377		371		363		336		341		342		337		
20		274		288		290		276		364		378		380		366		281		289		282		275		371		379		372		365		337		342		343		338		
20		276		290		292		278		366		380		382		368		282		291		283		277		372		381		373		367		338		343		344		339		
20		284		298		300		286		374		388		390		376		293		299		294		285		383		389		384		375		340		345		346		341		
20		286		300		302		288		376		390		392		378		294		301		295		287		384		391		385		377		341		346		347		342		
20		288		302		304		290		378		392		394		380		295		303		296		289		385		393		386		379		342		347		348		343		
20		290		304		306		292		380		394		396		382		296		305		297		291		386		395		387		381		343		348		349		344		
20		298		312		314		300		388		402		404		390		307		313		308		299		397		403		398		389		345		350		351		346		
20		300		314		316		302		390		404		406		392		308		315		309		301		398		405		399		391		346		351		352		347		
20		302		316		318		304		392		406		408		394		309		317		310		303		399		407		400		393		347		352		353		348		
20		304		318		320		306		394		408		410		396		310		319		311		305		400		409		401		395		348		353		354		349		
20		312		326		328		314		402		416		418		404		321		327		322		313		411		417		412		403		350		355		356		351		
20		314		328		330		316		404		418		420		406		322		329		323		315		412		419		413		405		351		356		357		352		
20		316		330		332		318		406		420		422		408		323		331		324		317		413		421		414		407		352		357		358		353		
20		318		332		334		320		408		422		424		410		324		333		325		319		414		423		415		409		353		358		359		354		
20		360		374		376		362		450		464		466		452		369		375		370		361		459		465		460		451		425		430		431		426		
20		362		376		378		364		452		466		468		454		370		377		371		363		460		467		461		453		426		431		432		427		
20		364		378		380		366		454		468		470		456		371		379		372		365		461		469		462		455		427		432		433		428		
20		366		380		382		368		456		470		472		458		372		381		373		367		462		471		463		457		428		433		434		429		
20		374		388		390		376		464		478		480		466		383		389		384		375		473		479		474		465		430		435		436		431		
20		376		390		392		378		466		480		482		468		384		391		385		377		474		481		475		467		431		436		437		432		
20		378		392		394		380		468		482		484		470		385		393		386		379		475		483		476		469		432		437		438		433		
20		380		394		396		382		470		484		486		472		386		395		387		381		476		485		477		471		433		438		439		434		
20		388		402		404		390		478		492		494		480		397		403		398		389		487		493		488		479		435		440		441		436		
20		390		404		406		392		480		494		496		482		398		405		399		391		488		495		489		481		436		441		442		437		
20		392		406		408		394		482		496		498		484		399		407		400		393		489		497		490		483		437		442		443		438		
20		394		408		410		396		484		498		500		486		400		409		401		395		490		499		491		485		438		443		444		439		
20		402		416		418		404		492		506		508		494		411		417		412		403		501		507		502		493		440		445		446		441		
20		404		418		420		406		494		508		510		496		412		419		413		405		502		509		503		495		441		446		447		442		
20		406		420		422		408		496		510		512		498		413		421		414		407		503		511		504		497		442		447		448		443		
20		408		422		424		410		498		512		514		500		414		423		415		409		504		513		505		499		443		448		449		444		
20		450		464		466		452		540		554		556		542		459		465		460		451		549		555		550		541		515		520		521		516		
20		452		466		468		454		542		556		558		544		460		467		461		453		550		557		551		543		516		521		522		517		
20		454		468		470		456		544		558		560		546		461		469		462		455		551		559		552		545		517		522		523		518		
20		456		470		472		458		546		560		562		548		462		471		463		457		552		561		553		547		518		523		524		519		
20		464		478		480		466		554		568		570		556		473		479		474		465		563		569		564		555		520		525		526		521		
20		466		480		482		468		556		570		572		558		474		481		475		467		564		571		565		557		521		526		527		522		
20		468		482		484		470		558		572		574		560		475		483		476		469		565		573		566		559		522		527		528		523		
20		470		484		486		472		560		574		576		562		476		485		477		471		566		575		567		561		523		528		529		524		
20		478		492		494		480		568		582		584		570		487		493		488		479		577		583		578		569		525		530		531		526		
20		480		494		496		482		570		584		586		572		488		495		489		481		578		585		579		571		526		531		532		527		
20		482		496		498		484		572		586		588		574		489		497		490		483		579		587		580		573		527		532		533		528		
20		484		498		500		486		574		588		590		576		490		499		491		485		580		589		581		575		528		533		534		529		
20		492		506		508		494		582		596		598		584		501		507		502		493		591		597		592		583		530		535		536		531		
20		494		508		510		496		584		598		600		586		502		509		503		495		592		599		593		585		531		536		537		532		
20		496		510		512		498		586		600		602		588		503		511		504		497		593		601		594		587		532		537		538		533		
20		498		512		514		500		588		602		604		590		504		513		505		499		594		603		595		589		533		538		539		534		
20		540		554		556		542		630		644		646		632		549		555		550		541		639		645		640		631		605		610		611		606		
20		542		556		558		544		632		646		648		634		550		557		551		543		640		647		641		633		606		611		612		607		
20		544		558		560		546		634		648		650		636		551		559		552		545		641		649		642		635		607		612		613		608		
20		546		560		562		548		636		650		652		638		552		561		553		547		642		651		643		637		608		613		614		609		
20		554		568		570		556		644		658		660		646		563		569		564		555		653		659		654		645		610		615		616		611		
20		556		570		572		558		646		660		662		648		564		571		565		557		654		661		655		647		611		616		617		612		
20		558		572		574		560		648		662		664		650		565		573		566		559		655		663		656		649		612		617		618		613		
20		560		574		576		562		650		664		666		652		566		575		567		561		656		665		657		651		613		618		619		614		
20		568		582		584		570		658		672		674		660		577		583		578		569		667		673		668		659		615		620		621		616		
20		570		584		586		572		660		674		676		662		578		585		579		571		668		675		669		661		616		621		622		617		
20		572		586		588		574		662		676		678		664		579		587		580		573		669		677		670		663		617		622		623		618		
20		574		588		590		576		664		678		680		666		580		589		581		575		670		679		671		665		618		623		624		619		
20		582		596		598		584		672		686		688		674		591		597		592		583		681		687		682		673		620		625		626		621		
20		584		598		600		586		674		688		690		676		592		599		593		585		682		689		683		675		621		626		627		622		
20		586		600		602		588		676		690		692		678		593		601		594		587		683		691		684		677		622		627		628		623		
20		588		602		604		590		678		692		694		680		594		603		595		589		684		693		685		679		623		628		629		624		
20		630		644		646		632		720		734		736		722		639		645		640		631		729		735		730		721		695		700		701		696		
20		632		646		648		634		722		736		738		724		640		647		641		633		730		737		731		723		696		701		702		697		
20		634		648		650		636		724		738		740		726		641		649		642		635		731		739		732		725		697		702		703		698		
20		636		650		652		638		726		740		742		728		642		651		643		637		732		741		733		727		698		703		704		699		
20		644		658		660		646		734		748		750		736		653		659		654		645		743		749		744		735		700		705		706		701		
20		646		660		662		648		736		750		752		738		654		661		655		647		744		751		745		737		701		706		707		702		
20		648		662		664		650		738		752		754		740		655		663		656		649		745		753		746		739		702		707		708		703		
20		650		664		666		652		740		754		756		742		656		665		657		651		746		755		747		741		703		708		709		704		
20		658		672		674		660		748		762		764		750		667		673		668		659		757		763		758		749		705		710		711		706		
20		660		674		676		662		750		764		766		752		668		675		669		661		758		765		759		751		706		711		712		707		
20		662		676		678		664		752		766		768		754		669		677		670		663		759		767		760		753		707		712		713		708		
20		664		678		680		666		754		768		770		756		670		679		671		665		760		769		761		755		708		713		714		709		
20		672		686		688		674		762		776		778		764		681		687		682		673		771		777		772		763		710		715		716		711		
20		674		688		690		676		764		778		780		766		682		689		683		675		772		779		773		765		711		716		717		712		
20		676		690		692		678		766		780		782		768		683		691		684		677		773		781		774		767		712		717		718		713		
20		678		692		694		680		768		782		784		770		684		693		685		679		774		783		775		769		713		718		719		714		
20		720		734		736		722		810		824		826		812		729		735		730		721		819		825		820		811		785		790		791		786		
20		722		736		738		724		812		826		828		814		730		737		731		723		820		827		821		813		786		791		792		787		
20		724		738		740		726		814		828		830		816		731		739		732		725		821		829		822		815		787		792		793		788		
20		726		740		742		728		816		830		832		818		732		741		733		727		822		831		823		817		788		793		794		789		
20		734		748		750		736		824		838		840		826		743		749		744		735		833		839		834		825		790		795		796		791		
20		736		750		752		738		826		840		842		828		744		751		745		737		834		841		835		827		791		796		797		792		
20		738		752		754		740		828		842		844		830		745		753		746		739		835		843		836		829		792		797		798		793		
20		740		754		756		742		830		844		846		832		746		755		747		741		836		845		837		831		793		798		799		794		
20		748		762		764		750		838		852		854		840		757		763		758		749		847		853		848		839		795		800		801		796		
20		750		764		766		752		840		854		856		842		758		765		759		751		848		855		849		841		796		801		802		797		
20		752		766		768		754		842		856		858		844		759		767		760		753		849		857		850		843		797		802		803		798		
20		754		768		770		756		844		858		860		846		760		769		761		755		850		859		851		845		798		803		804		799		
20		762		776		778		764		852		866		868		854		771		777		772		763		861		867		862		853		800		805		806		801		
20		764		778		780		766		854		868		870		856		772		779		773		765		862		869		863		855		801		806		807		802		
20		766		780		782		768		856		870		872		858		773		781		774		767		863		871		864		857		802		807		808		803		
20		768		782		784		770		858		872		874		860		774		783		775		769		864		873		865		859		803		808		809		804		
20		810		824		826		812		900		914		916		902		819		825		820		811		909		915		910		901		875		880		881		876		
20		812		826		828		814		902		916		918		904		820		827		821		813		910		917		911		903		876		881		882		877		
20		814		828		830		816		904		918		920		906		821		829		822		815		911		919		912		905		877		882		883		878		
20		816		830		832		818		906		920		922		908		822		831		823		817		912		921		913		907		878		883		884		879		
20		824		838		840		826		914		928		930		916		833		839		834		825		923		929		924		915		880		885		886		881		
20		826		840		842		828		916		930		932		918		834		841		835		827		924		931		925		917		881		886		887		882		
20		828		842		844		830		918		932		934		920		835		843		836		829		925		933		926		919		882		887		888		883		
20		830		844		846		832		920		934		936		922		836		845		837		831		926		935		927		921		883		888		889		884		
20		838		852		854		840		928		942		944		930		847		853		848		839		937		943		938		929		885		890		891		886		
20		840		854		856		842		930		944		946		932		848		855		849		841		938		945		939		931		886		891		892		887		
20		842		856		858		844		932		946		948		934		849		857		850		843		939		947		940		933		887		892		893		888		
20		844		858		860		846		934		948		950		936		850		859		851		845		940		949		941		935		888		893		894		889		
20		852		866		868		854		942		956		958		944		861		867		862		853		951		957		952		943		890		895		896		891		
20		854		868		870		856		944		958		960		946		862		869		863		855		952		959		953		945		891		896		897		892		
20		856		870		872		858		946		960		962		948		863		871		864		857		953		961		954		947		892		897		898		893		
20		858		872		874		860		948		962		964		950		864		873		865		859		954		963		955		949		893		898		899		894		
20		900		914		916		902		990		1004		1006		992		909		915		910		901		999		1005		1000		991		965		970		971		966		
20		902		916		918		904		992		1006		1008		994		910		917		911		903		1000		1007		1001		993		966		971		972		967		
20		904		918		920		906		994		1008		1010		996		911		919		912		905		1001		1009		1002		995		967		972		973		968		
20		906		920		922		908		996		1010		1012		998		912		921		913		907		1002		1011		1003		997		968		973		974		969		
20		914		928		930		916		1004		1018		1020		1006		923		929		924		915		1013		1019		1014		1005		970		975		976		971		
20		916		930		932		918		1006		1020		1022		1008		924		931		925		917		1014		1021		1015		1007		971		976		977		972		
20		918		932		934		920		1008		1022		1024		1010		925		933		926		919		1015		1023		1016		1009		972		977		978		973		
20		920		934		936		922		1010		1024		1026		1012		926		935		927		921		1016		1025		1017		1011		973		978		979		974		
20		928		942		944		930		1018		1032		1034		1020		937		943		938		929		1027		1033		1028		1019		975		980		981		976		
20		930		944		946		932		1020		1034		1036		1022		938		945		939		931		1028		1035		1029		1021		976		981		982		977		
20		932		946		948		934		1022		1036		1038		1024		939		947		940		933		1029		1037		1030		1023		977		982		983		978		
20		934		948		950		936		1024		1038		1040		1026		940		949		941		935		1030		1039		1031		1025		978		983		984		979		
20		942		956		958		944		1032		1046		1048		1034		951		957		952		943		1041		1047		1042		1033		980		985		986		981		
20		944		958		960		946		1034		1048		1050		1036		952		959		953		945		1042		1049		1043		1035		981		986		987		982		
20		946		960		962		948		1036		1050		1052		1038		953		961		954		947		1043		1051		1044		1037		982		987		988		983		
20		948		962		964		950		1038		1052		1054		1040		954		963		955		949		1044		1053		1045		1039		983		988		989		984		
20		990		1004		1006		992		1080		1094		1096		1082		999		1005		1000		991		1089		1095		1090		1081		1055		1060		1061		1056		
20		992		1006		1008		994		1082		1096		1098		1084		1000		1007		1001		993		1090		1097		1091		1083		1056		1061		1062		1057		
20		994		1008		1010		996		1084		1098		1100		1086		1001		1009		1002		995		1091		1099		1092		1085		1057		1062		1063		1058		
20		996		1010		1012		998		1086		1100		1102		1088		1002		1011		1003		997		1092		1101		1093		1087		1058		1063		1064		1059		
20		1004		1018		1020		1006		1094		1108		1110		1096		1013		1019		1014		1005		1103		1109		1104		1095		1060		1065		1066		1061		
20		1006		1020		1022		1008		1096		1110		1112		1098		1014		1021		1015		1007		1104		1111		1105		1097		1061		1066		1067		1062		
20		1008		1022		1024		1010		1098		1112		1114		1100		1015		1023		1016		1009		1105		1113		1106		1099		1062		1067		1068		1063		
20		1010		1024		1026		1012		1100		1114		1116		1102		1016		1025		1017		1011		1106		1115		1107		1101		1063		1068		1069		1064		
20		1018		1032		1034		1020		1108		1122		1124		1110		1027		1033		1028		1019		1117		1123		1118		1109		1065		1070		1071		1066		
20		1020		1034		1036		1022		1110		1124		1126		1112		1028		1035		1029		1021		1118		1125		1119		1111		1066		1071		1072		1067		
20		1022		1036		1038		1024		1112		1126		1128		1114		1029		1037		1030		1023		1119		1127		1120		1113		1067		1072		1073		1068		
20		1024		1038		1040		1026		1114		1128		1130		1116		1030		1039		1031		1025		1120		1129		1121		1115		1068		1073		1074		1069		
20		1032		1046		1048		1034		1122		1136		1138		1124		1041		1047		1042		1033		1131		1137		1132		1123		1070		1075		1076		1071		
20		1034		1048		1050		1036		1124		1138		1140		1126		1042		1049		1043		1035		1132		1139		1133		1125		1071		1076		1077		1072		
20		1036		1050		1052		1038		1126		1140		1142		1128		1043		1051		1044		1037		1133		1141		1134		1127		1072		1077		1078		1073		
20		1038		1052		1054		1040		1128		1142		1144		1130		1044		1053		1045		1039		1134		1143		1135		1129		1073		1078		1079		1074		
20		1080		1094		1096		1082		1170		1184		1186		1172		1089		1095		1090		1081		1179		1185		1180		1171		1145		1150		1151		1146		
20		1082		1096		1098		1084		1172		1186		1188		1174		1090		1097		1091		1083		1180		1187		1181		1173		1146		1151		1152		1147		
20		1084		1098		1100		1086		1174		1188		1190		1176		1091		1099		1092		1085		1181		1189		1182		1175		1147		1152		1153		1148		
20		1086		1100		1102		1088		1176		1190		1192		1178		1092		1101		1093		1087		1182		1191		1183		1177		1148		1153		1154		1149		
20		1094		1108		1110		1096		1184		1198		1200		1186		1103		1109		1104		1095		1193		1199		1194		1185		1150		1155		1156		1151		
20		1096		1110		1112		1098		1186		1200		1202		1188		1104		1111		1105		1097		1194		1201		1195		1187		1151		1156		1157		1152		
20		1098		1112		1114		1100		1188		1202		1204		1190		1105		1113		1106		1099		1195		1203		1196		1189		1152		1157		1158		1153		
20		1100		1114		1116		1102		1190		1204		1206		1192		1106		1115		1107		1101		1196		1205		1197		1191		1153		1158		1159		1154		
20		1108		1122		1124		1110		1198		1212		1214		1200		1117		1123		1118		1109		1207		1213		1208		1199		1155		1160		1161		1156		
20		1110		1124		1126		1112		1200		1214		1216		1202		1118		1125		1119		1111		1208		1215		1209		1201		1156		1161		1162		1157		
20		1112		1126		1128		1114		1202		1216		1218		1204		1119		1127		1120		1113		1209		1217		1210		1203		1157		1162		1163		1158		
20		1114		1128		1130		1116		1204		1218		1220		1206		1120		1129		1121		1115		1210		1219		1211		1205		1158		1163		1164		1159		
20		1122		1136		1138		1124		1212		1226		1228		1214		1131		1137		1132		1123		1221		1227		1222		1213		1160		1165		1166		1161		
20		1124		1138		1140		1126		1214		1228		1230		1216		1132		1139		1133		1125		1222		1229		1223		1215		1161		1166		1167		1162		
20		1126		1140		1142		1128		1216		1230		1232		1218		1133		1141		1134		1127		1223		1231		1224		1217		1162		1167		1168		1163		
20		1128		1142		1144		1130		1218		1232		1234		1220		1134		1143		1135		1129		1224		1233		1225		1219		1163		1168		1169		1164		
20		1170		1184		1186		1172		1260		1274		1276		1262		1179		1185		1180		1171		1269		1275		1270		1261		1235		1240		1241		1236		
20		1172		1186		1188		1174		1262		1276		1278		1264		1180		1187		1181		1173		1270		1277		1271		1263		1236		1241		1242		1237		
20		1174		1188		1190		1176		1264		1278		1280		1266		1181		1189		1182		1175		1271		1279		1272		1265		1237		1242		1243		1238		
20		1176		1190		1192		1178		1266		1280		1282		1268		1182		1191		1183		1177		1272		1281		1273		1267		1238		1243		1244		1239		
20		1184		1198		1200		1186		1274		1288		1290		1276		1193		1199		1194		1185		1283		1289		1284		1275		1240		1245		1246		1241		
20		1186		1200		1202		1188		1276		1290		1292		1278		1194		1201		1195		1187		1284		1291		1285		1277		1241		1246		1247		1242		
20		1188		1202		1204		1190		1278		1292		1294		1280		1195		1203		1196		1189		1285		1293		1286		1279		1242		1247		1248		1243		
20		1190		1204		1206		1192		1280		1294		1296		1282		1196		1205		1197		1191		1286		1295		1287		1281		1243		1248		1249		1244		
20		1198		1212		1214		1200		1288		1302		1304		1290		1207		1213		1208		1199		1297		1303		1298		1289		1245		1250		1251		1246		
20		1200		1214		1216		1202		1290		1304		1306		1292		1208		1215		1209		1201		1298		1305		1299		1291		1246		1251		1252		1247		
20		1202		1216		1218		1204		1292		1306		1308		1294		1209		1217		1210		1203		1299		1307		1300		1293		1247		1252		1253		1248		
20		1204		1218		1220		1206		1294		1308		1310		1296		1210		1219		1211		1205		1300		1309		1301		1295		1248		1253		1254		1249		
20		1212		1226		1228		1214		1302		1316		1318		1304		1221		1227		1222		1213		1311		1317		1312		1303		1250		1255		1256		1251		
20		1214		1228		1230		1216		1304		1318		1320		1306		1222		1229		1223		1215		1312		1319		1313		1305		1251		1256		1257		1252		
20		1216		1230		1232		1218		1306		1320		1322		1308		1223		1231		1224		1217		1313		1321		1314		1307		1252		1257		1258		1253		
20		1218		1232		1234		1220		1308		1322		1324		1310		1224		1233		1225		1219		1314		1323		1315		1309		1253		1258		1259		1254		
CELL_TYPES 224
25
25
25
25
25
25
25
25
25
25
25
25
25
25
25
25
25
25
25
25
25
25
25
25
25
25
25
25
25
25
25
25
25
25
25
25
25
25
25
25
25
25
25
25
25
25
25
25
25
25
25
25
25
25
25
25
25
25
25
25
25
25
25
25
25
25
25
25
25
25
25
25
25
25
25
25
25
25
25
25
25
25
25
25
25
25
25
25
25
25
25
25
25
25
25
25
25
25
25
25
25
25
25
25
25
25
25
25
25
25
25
25
25
25
25
25
25
25
25
25
25
25
25
25
25
25
25
25
25
25
25
25
25
25
25
25
25
25
25
25
25
25
25
25
25
25
25
25
25
25
25
25
25
25
25
25
25
25
25
25
25
25
25
25
25
25
25
25
25
25
25
25
25
25
25
25
25
25
25
25
25
25
25
25
25
25
25
25
25
25
25
25
25
25
25
25
25
25
25
25
25
25
25
25
25
25
25
25
25
25
25
25
25
25
25
25
25
25
25
25
25
25
25
25
POINT_DATA 1325
SCALARS node_id double 1
LOOKUP_TABLE default
0.000000
1.000000
2.000000
3.000000
4.000000
5.000000
6.000000
7.000000
8.000000
9.000000
10.000000
11.000000
12.000000
13.000000
14.000000
15.000000
16.000000
17.000000
18.000000
19.000000
20.000000
21.000000
22.000000
23.000000
24.000000
25.000000
26.000000
27.000000
28.000000
29.000000
30.000000
31.000000
32.000000
33.000000
34.000000
35.000000
36.000000
37.000000
38.000000
39.000000
40.000000
41.000000
42.000000
43.000000
44.000000
45.000000
46.000000
47.000000
48.000000
49.000000
50.000000
51.000000
52.000000
53.000000
54.000000
55.000000
56.000000
57.000000
58.000000
59.000000
60.000000
61.000000
62.000000
63.000000
64.000000
65.000000
66.000000
67.000000
68.000000
69.000000
70.000000
71.000000
72.000000
73.000000
74.000000
75.000000
76.000000
77.000000
78.000000
79.000000
80.000000
81.000000
82.000000
83.000000
84.000000
85.000000
86.000000
87.000000
88.000000
89.000000
90.000000
91.000000
92.000000
93.000000
94.000000
95.000000
96.000000
97.000000
98.000000
99.000000
100.000000
101.000000
102.000000
103.000000
104.000000
105.000000
106.000000
107.000000
108.000000
109.000000
110.000000
111.000000
112.000000
113.000000
114.000000
115.000000
116.000000
117.000000
118.000000
119.000000
120.000000
121.000000
122.000000
123.000000
124.000000
125.000000
126.000000
127.000000
128.000000
129.000000
130.000000
131.000000
132.000000
133.000000
134.000000
135.000000
136.000000
137.000000
138.000000
139.000000
140.000000
141.000000
142.000000
143.000000
144.000000
145.000000
146.000000
147.000000
148.000000
149.000000
150.000000
151.000000
152.000000
153.000000
154.000000
155.000000
156.000000
157.000000
158.000000
159.000000
160.000000
161.000000
162.000000
163.000000
164.000000
165.000000
166.000000
167.000000
168.000000
169.000000
170.000000
171.000000
172.000000
173.000000
174.000000
175.000000
176.000000
177.000000
178.000000
179.000000
180.000000
181.000000
182.000000
183.000000
184.000000
185.000000
186.000000
187.000000
188.000000
189.000000
190.000000
191.000000
192.000000
193.000000
194.000000
195.000000
196.000000
197.000000
198.000000
199.000000
200.000000
201.000000
202.000000
203.000000
204.000000
205.000000
206.000000
207.000000
208.000000
209.000000
210.000000
211.000000
212.000000
213.000000
214.000000
215.000000
216.000000
217.000000
218.000000
219.000000
220.000000
221.000000
222.000000
223.000000
224.000000
225.000000
226.000000
227.000000
228.000000
229.000000
230.000000
231.000000
232.000000
233.000000
234.000000
235.000000
236.000000
237.000000
238.000000
239.000000
240.000000
241.000000
242.000000
243.000000
244.000000
245.000000
246.000000
247.000000
248.000000
249.000000
250.000000
251.000000
252.000000
253.000000
254.000000
255.000000
256.000000
257.000000
258.000000
259.000000
260.000000
261.000000
262.000000
263.000000
264.000000
265.000000
266.000000
267.000000
268.000000
269.000000
270.000000
271.000000
272.000000
273.000000
274.000000
275.000000
276.000000
277.000000
278.000000
279.000000
280.000000
281.000000
282.000000
283.000000
284.000000
285.000000
286.000000
287.000000
288.000000
289.000000
290.000000
291.000000
292.000000
293.000000
294.000000
295.000000
296.000000
297.000000
298.000000
299.000000
300.000000
301.000000
302.000000
303.000000
304.000000
305.000000
306.000000
307.000000
308.000000
309.000000
310.000000
311.000000
312.000000
313.000000
314.000000
315.000000
316.000000
317.000000
318.000000
319.000000
320.000000
321.000000
322.000000
323.000000
324.000000
325.000000
326.000000
327.000000
328.000000
329.000000
330.000000
331.000000
332.000000
333.000000
334.000000
335.000000
336.000000
337.000000
338.000000
339.000000
340.000000
341.000000
342.000000
343.000000
344.000000
345.000000
346.000000
347.000000
348.000000
349.000000
350.000000
351.000000
352.000000
353.000000
354.000000
355.000000
356.000000
357.000000
358.000000
359.000000
360.000000
361.000000
362.000000
363.000000
364.000000
365.000000
366.000000
367.000000
368.000000
369.000000
370.000000
371.000000
372.000000
373.000000
374.000000
375.000000
376.000000
377.000000
378.000000
379.000000
380.000000
381.000000
382.000000
383.000000
384.000000
385.000000
386.000000
387.000000
388.000000
389.000000
390.000000
391.000000
392.000000
393.000000
394.000000
395.000000
396.000000
397.000000
398.000000
399.000000
400.000000
401.000000
402.000000
403.000000
404.000000
405.000000
406.000000
407.000000
408.000000
409.000000
410.000000
411.000000
412.000000
413.000000
414.000000
415.000000
416.000000
417.000000
418.000000
419.000000
420.000000
421.000000
422.000000
423.000000
424.000000
425.000000
426.000000
427.000000
428.000000
429.000000
430.000000
431.000000
432.000000
433.000000
434.000000
435.000000
436.000000
437.000000
438.000000
439.000000
440.000000
441.000000
442.000000
443.000000
444.000000
445.000000
446.000000
447.000000
448.000000
449.000000
450.000000
451.000000
452.000000
453.000000
454.000000
455.000000
456.000000
457.000000
458.000000
459.000000
460.000000
461.000000
462.000000
463.000000
464.000000
465.000000
466.000000
467.000000
468.000000
469.000000
470.000000
471.000000
472.000000
473.000000
474.000000
475.000000
476.000000
477.000000
478.000000
479.000000
480.000000
481.000000
482.000000
483.000000
484.000000
485.000000
486.000000
487.000000
488.000000
489.000000
490.000000
491.000000
492.000000
493.000000
494.000000
495.000000
496.000000
497.000000
498.000000
499.000000
500.000000
501.000000
502.000000
503.000000
504.000000
505.000000
506.000000
507.000000
508.000000
509.000000
510.000000
511.000000
512.000000
513.000000
514.000000
515.000000
516.000000
517.000000
518.000000
519.000000
520.000000
521.000000
522.000000
523.000000
524.000000
525.000000
526.000000
527.000000
528.000000
529.000000
530.000000
531.000000
532.000000
533.000000
534.000000
535.000000
536.000000
537.000000
538.000000
539.000000
540.000000
541.000000
542.000000
543.000000
544.000000
545.000000
546.000000
547.000000
548.000000
549.000000
550.000000
551.000000
552.000000
553.000000
554.000000
555.000000
556.000000
557.000000
558.000000
559.000000
560.000000
561.000000
562.000000
563.000000
564.000000
565.000000
566.000000
567.000000
568.000000
569.000000
570.000000
571.000000
572.000000
573.000000
574.000000
575.000000
576.000000
577.000000
578.000000
579.000000
580.000000
581.000000
582.000000
583.000000
584.000000
585.000000
586.000000
587.000000
588.000000
589.000000
590.000000
591.000000
592.000000
593.000000
594.000000
595.000000
596.000000
597.000000
598.000000
599.000000
600.000000
601.000000
602.000000
603.000000
604.000000
605.000000
606.000000
607.000000
608.000000
609.000000
610.000000
611.000000
612.000000
613.000000
614.000000
615.000000
616.000000
617.000000
618.000000
619.000000
620.000000
621.000000
622.000000
623.000000
624.000000
625.000000
626.000000
627.000000
628.000000
629.000000
630.000000
631.000000
632.000000
633.000000
634.000000
635.000000
636.000000
637.000000
638.000000
639.000000
640.000000
641.000000
642.000000
643.000000
644.000000
645.000000
646.000000
647.000000
648.000000
649.000000
650.000000
651.000000
652.000000
653.000000
654.000000
655.000000
656.000000
657.000000
658.000000
659.000000
660.000000
661.000000
662.000000
663.000000
664.000000
665.000000
666.000000
667.000000
668.000000
669.000000
670.000000
671.000000
672.000000
673.000000
674.000000
675.000000
676.000000
677.000000
678.000000
679.000000
680.000000
681.000000
682.000000
683.000000
684.000000
685.000000
686.000000
687.000000
688.000000
689.000000
690.000000
691.000000
692.000000
693.000000
694.000000
695.000000
696.000000
697.000000
698.000000
699.000000
700.000000
701.000000
702.000000
703.000000
704.000000
705.000000
706.000000
707.000000
708.000000
709.000000
710.000000
711.000000
712.000000
713.000000
714.000000
715.000000
716.000000
717.000000
718.000000
719.000000
720.000000
721.000000
722.000000
723.000000
724.000000
725.000000
726.000000
727.000000
728.000000
729.000000
730.000000
731.000000
732.000000
733.000000
734.000000
735.000000
736.000000
737.000000
738.000000
739.000000
740.000000
741.000000
742.000000
743.000000
744.000000
745.000000
746.000000
747.000000
748.000000
749.000000
750.000000
751.000000
752.000000
753.000000
754.000000
755.000000
756.000000
757.000000
758.000000
759.000000
760.000000
761.000000
762.000000
763.000000
764.000000
765.000000
766.000000
767.000000
768.000000
769.000000
770.000000
771.000000
772.000000
773.000000
774.000000
775.000000
776.000000
777.000000
778.000000
779.000000
780.000000
781.000000
782.000000
783.000000
784.000000
785.000000
786.000000
787.000000
788.000000
789.000000
790.000000
791.000000
792.000000
793.000000
794.000000
795.000000
796.000000
797.000000
798.000000
799.000000
800.000000
801.000000
802.000000
803.000000
804.000000
805.000000
806.000000
807.000000
808.000000
809.000000
810.000000
811.000000
812.000000
813.000000
814.000000
815.000000
816.000000
817.000000
818.000000
819.000000
820.000000
821.000000
822.000000
823.000000
824.000000
825.000000
826.000000
827.000000
828.000000
829.000000
830.000000
831.000000
832.000000
833.000000
834.000000
835.000000
836.000000
837.000000
838.000000
839.000000
840.000000
841.000000
842.000000
843.000000
844.000000
845.000000
846.000000
847.000000
848.000000
849.000000
850.000000
851.000000
852.000000
853.000000
854.000000
855.000000
856.000000
857.000000
858.000000
859.000000
860.000000
861.000000
862.000000
863.000000
864.000000
865.000000
866.000000
867.000000
868.000000
869.000000
870.000000
871.000000
872.000000
873.000000
874.000000
875.000000
876.000000
877.000000
878.000000
879.000000
880.000000
881.000000
882.000000
883.000000
884.000000
885.000000
886.000000
887.000000
888.000000
889.000000
890.000000
891.000000
892.000000
893.000000
894.000000
895.000000
896.000000
897.000000
898.000000
899.000000
900.000000
901.000000
902.000000
903.000000
904.000000
905.000000
906.000000
907.000000
908.000000
909.000000
910.000000
911.000000
912.000000
913.000000
914.000000
915.000000
916.000000
917.000000
918.000000
919.000000
920.000000
921.000000
922.000000
923.000000
924.000000
925.000000
926.000000
927.000000
928.000000
929.000000
930.000000
931.000000
932.000000
933.000000
934.000000
935.000000
936.000000
937.000000
938.000000
939.000000
940.000000
941.000000
942.000000
943.000000
944.000000
945.000000
946.000000
947.000000
948.000000
949.000000
950.000000
951.000000
952.000000
953.000000
954.000000
955.000000
956.000000
957.000000
958.000000
959.000000
960.000000
961.000000
962.000000
963.000000
964.000000
965.000000
966.000000
967.000000
968.000000
969.000000
970.000000
971.000000
972.000000
973.000000
974.000000
975.000000
976.000000
977.000000
978.000000
979.000000
980.000000
981.000000
982.000000
983.000000
984.000000
985.000000
986.000000
987.000000
988.000000
989.000000
990.000000
991.000000
992.000000
993.000000
994.000000
995.000000
996.000000
997.000000
998.000000
999.000000
1000.000000
1001.000000
1002.000000
1003.000000
1004.000000
1005.000000
1006.000000
1007.000000
1008.000000
1009.000000
1010.000000
1011.000000
1012.000000
1013.000000
1014.000000
1015.000000
1016.000000
1017.000000
1018.000000
1019.000000
1020.000000
1021.000000
1022.000000
1023.000000
1024.000000
1025.000000
1026.000000
1027.000000
1028.000000
1029.000000
1030.000000
1031.000000
1032.000000
1033.000000
1034.000000
1035.000000
1036.000000
1037.000000
1038.000000
1039.000000
1040.000000
1041.000000
1042.000000
1043.000000
1044.000000
1045.000000
1046.000000
1047.000000
1048.000000
1049.000000
1050.000000
1051.000000
1052.000000
1053.000000
1054.000000
1055.000000
1056.000000
1057.000000
1058.000000
1059.000000
1060.000000
1061.000000
1062.000000
1063.000000
1064.000000
1065.000000
1066.000000
1067.000000
1068.000000
1069.000000
1070.000000
1071.000000
1072.000000
1073.000000
1074.000000
1075.000000
1076.000000
1077.000000
1078.000000
1079.000000
1080.000000
1081.000000
1082.000000
1083.000000
1084.000000
1085.000000
1086.000000
1087.000000
1088.000000
1089.000000
1090.000000
1091.000000
1092.000000
1093.000000
1094.000000
1095.000000
1096.000000
1097.000000
1098.000000
1099.000000
1100.000000
1101.000000
1102.000000
1103.000000
1104.000000
1105.000000
1106.000000
1107.000000
1108.000000
1109.000000
1110.000000
1111.000000
1112.000000
1113.000000
1114.000000
1115.000000
1116.000000
1117.000000
1118.000000
1119.000000
1120.000000
1121.000000
1122.000000
1123.000000
1124.000000
1125.000000
1126.000000
1127.000000
1128.000000
1129.000000
1130.000000
1131.000000
1132.000000
1133.000000
1134.000000
1135.000000
1136.000000
1137.000000
1138.000000
1139.000000
1140.000000
1141.000000
1142.000000
1143.000000
1144.000000
1145.000000
1146.000000
1147.000000
1148.000000
1149.000000
1150.000000
1151.000000
1152.000000
1153.000000
1154.000000
1155.000000
1156.000000
1157.000000
1158.000000
1159.000000
1160.000000
1161.000000
1162.000000
1163.000000
1164.000000
1165.000000
1166.000000
1167.000000
1168.000000
1169.000000
1170.000000
1171.000000
1172.000000
1173.000000
1174.000000
1175.000000
1176.000000
1177.000000
1178.000000
1179.000000
1180.000000
1181.000000
1182.000000
1183.000000
1184.000000
1185.000000
1186.000000
1187.000000
1188.000000
1189.000000
1190.000000
1191.000000
1192.000000
1193.000000
1194.000000
1195.000000
1196.000000
1197.000000
1198.000000
1199.000000
1200.000000
1201.000000
1202.000000
1203.000000
1204.000000
1205.000000
1206.000000
1207.000000
1208.000000
1209.000000
1210.000000
1211.000000
1212.000000
1213.000000
1214.000000
1215.000000
1216.000000
1217.000000
1218.000000
1219.000000
1220.000000
1221.000000
1222.000000
1223.000000
1224.000000
1225.000000
1226.000000
1227.000000
1228.000000
1229.000000
1230.000000
1231.000000
1232.000000
1233.000000
1234.000000
1235.000000
1236.000000
1237.000000
1238.000000
1239.000000
1240.000000
1241.000000
1242.000000
1243.000000
1244.000000
1245.000000
1246.000000
1247.000000
1248.000000
1249.000000
1250.000000
1251.000000
1252.000000
1253.000000
1254.000000
1255.000000
1256.000000
1257.000000
1258.000000
1259.000000
1260.000000
1261.000000
1262.000000
1263.000000
1264.000000
1265.000000
1266.000000
1267.000000
1268.000000
1269.000000
1270.000000
1271.000000
1272.000000
1273.000000
1274.000000
1275.000000
1276.000000
1277.000000
1278.000000
1279.000000
1280.000000
1281.000000
1282.000000
1283.000000
1284.000000
1285.000000
1286.000000
1287.000000
1288.000000
1289.000000
1290.000000
1291.000000
1292.000000
1293.000000
1294.000000
1295.000000
1296.000000
1297.000000
1298.000000
1299.000000
1300.000000
1301.000000
1302.000000
1303.000000
1304.000000
1305.000000
1306.000000
1307.000000
1308.000000
1309.000000
1310.000000
1311.000000
1312.000000
1313.000000
1314.000000
1315.000000
1316.000000
1317.000000
1318.000000
1319.000000
1320.000000
1321.000000
1322.000000
1323.000000
1324.000000
VECTORS displacement double
0.000000e+00		0.000000e+00		0.000000e+00
0.000000e+00		0.000000e+00		0.000000e+00
0.000000e+00		0.000000e+00		0.000000e+00
0.000000e+00		0.000000e+00		0.000000e+00
0.000000e+00		0.000000e+00		0.000000e+00
0.000000e+00		0.000000e+00		0.000000e+00
0.000000e+00		0.000000e+00		0.000000e+00
0.000000e+00		0.000000e+00		0.000000e+00
0.000000e+00		0.000000e+00		0.000000e+00
0.000000e+00		0.000000e+00		0.000000e+00
0.000000e+00		0.000000e+00		0.000000e+00
0.000000e+00		0.000000e+00		0.000000e+00
0.000000e+00		0.000000e+00		0.000000e+00
0.000000e+00		0.000000e+00		0.000000e+00
0.000000e+00		0.000000e+00		0.000000e+00
0.000000e+00		0.000000e+00		0.000000e+00
0.000000e+00		0.000000e+00		0.000000e+00
0.000000e+00		0.000000e+00		0.000000e+00
0.000000e+00		0.000000e+00		0.000000e+00
0.000000e+00		0.000000e+00		0.000000e+00
0.000000e+00		0.000000e+00		0.000000e+00
0.000000e+00		0.000000e+00		0.000000e+00
0.000000e+00		0.000000e+00		0.000000e+00
0.000000e+00		0.000000e+00		0.000000e+00
0.000000e+00		0.000000e+00		0.000000e+00
0.000000e+00		0.000000e+00		0.000000e+00
0.000000e+00		0.000000e+00		0.000000e+00
0.000000e+00		0.000000e+00		0.000000e+00
0.000000e+00		0.000000e+00		0.000000e+00
0.000000e+00		0.000000e+00		0.000000e+00
0.000000e+00		0.000000e+00		0.000000e+00
0.000000e+00		0.000000e+00		0.000000e+00
0.000000e+00		0.000000e+00		0.000000e+00
0.000000e+00		0.000000e+00		0.000000e+00
0.000000e+00		0.000000e+00		0.000000e+00
0.000000e+00		0.000000e+00		0.000000e+00
0.000000e+00		0.000000e+00		0.000000e+00
0.000000e+00		0.000000e+00		0.000000e+00
0.000000e+00		0.000000e+00		0.000000e+00
0.000000e+00		0.000000e+00		0.000000e+00
0.000000e+00		0.000000e+00		0.000000e+00
0.000000e+00		0.000000e+00		0.000000e+00
0.000000e+00		0.000000e+00		0.000000e+00
0.000000e+00		0.000000e+00		0.000000e+00
0.000000e+00		0.000000e+00		0.000000e+00
0.000000e+00		0.000000e+00		0.000000e+00
0.000000e+00		0.000000e+00		0.000000e+00
0.000000e+00		0.000000e+00		0.000000e+00
0.000000e+00		0.000000e+00		0.000000e+00
0.000000e+00		0.000000e+00		0.000000e+00
0.000000e+00		0.000000e+00		0.000000e+00
0.000000e+00		0.000000e+00		0.000000e+00
0.000000e+00		0.000000e+00		0.000000e+00
0.000000e+00		0.000000e+00		0.000000e+00
0.000000e+00		0.000000e+00		0.000000e+00
0.000000e+00		0.000000e+00		0.000000e+00
0.000000e+00		0.000000e+00		0.000000e+00
0.000000e+00		0.000000e+00		0.000000e+00
0.000000e+00		0.000000e+00		0.000000e+00
0.000000e+00		0.000000e+00		0.000000e+00
0.000000e+00		0.000000e+00		0.000000e+00
0.000000e+00		0.000000e+00		0.000000e+00
0.000000e+00		0.000000e+00		0.000000e+00
0.000000e+00		0.000000e+00		0.000000e+00
0.000000e+00		0.000000e+00		0.000000e+00
6.788702e-03		7.941817e-03		1.613756e-02
8.863038e-03		2.119759e-03		1.403871e-02
9.364479e-03		1.213895e-16		1.453489e-02
8.863038e-03		-2.119759e-03		1.403871e-02
6.788702e-03		-7.941817e-03		1.613756e-02
1.307387e-03		4.035971e-03		6.630638e-03
3.242682e-03		1.071257e-03		4.903464e-03
3.482666e-03		7.103639e-17		4.980789e-03
3.242682e-03		-1.071257e-03		4.903464e-03
1.307387e-03		-4.035971e-03		6.630638e-03
7.399807e-04		1.228769e-16		1.949223e-16
2.698665e-03		4.328416e-17		1.013933e-16
2.944235e-03		1.946032e-17		7.060984e-17
2.698665e-03		4.291009e-18		4.379816e-17
7.399807e-04		-7.010353e-18		2.175447e-17
1.307387e-03		-4.035971e-03		-6.630638e-03
3.242682e-03		-1.071257e-03		-4.903464e-03
3.482666e-03		-3.438608e-17		-4.980789e-03
3.242682e-03		1.071257e-03		-4.903464e-03
1.307387e-03		4.035971e-03		-6.630638e-03
6.788702e-03		-7.941817e-03		-1.613756e-02
8.863038e-03		-2.119759e-03		-1.403871e-02
9.364479e-03		-9.427695e-17		-1.453489e-02
8.863038e-03		2.119759e-03		-1.403871e-02
6.788702e-03		7.941817e-03		-1.613756e-02
1.381005e-02		1.176176e-02		3.043504e-02
1.638118e-02		7.306919e-03		2.843941e-02
1.797949e-02		4.432541e-03		2.846257e-02
1.873057e-02		1.925000e-03		2.825904e-02
1.896354e-02		2.389892e-16		2.826950e-02
1.873057e-02		-1.925000e-03		2.825904e-02
1.797949e-02		-4.432541e-03		2.846257e-02
1.638118e-02		-7.306919e-03		2.843941e-02
1.381005e-02		-1.176176e-02		3.043504e-02
9.553518e-03		9.005271e-03		2.109239e-02
1.287356e-02		3.342467e-03		1.856472e-02
1.368123e-02		2.083462e-16		1.811611e-02
1.287356e-02		-3.342467e-03		1.856472e-02
9.553518e-03		-9.005271e-03		2.109239e-02
7.462096e-03		6.313274e-03		1.341626e-02
9.593190e-03		3.886514e-03		1.201501e-02
1.053092e-02		2.299480e-03		1.167507e-02
1.106651e-02		9.737628e-04		1.137150e-02
1.123497e-02		1.571184e-16		1.131832e-02
1.106651e-02		-9.737628e-04		1.137150e-02
1.053092e-02		-2.299480e-03		1.167507e-02
9.593190e-03		-3.886514e-03		1.201501e-02
7.462096e-03		-6.313274e-03		1.341626e-02
5.962103e-03		3.225746e-03		6.368744e-03
9.029366e-03		1.173291e-03		5.456279e-03
9.625715e-03		1.137684e-16		5.258059e-03
9.029366e-03		-1.173291e-03		5.456279e-03
5.962103e-03		-3.225746e-03		6.368744e-03
5.443483e-03		2.208428e-16		3.607390e-16
7.716866e-03		1.562726e-16		2.660112e-16
8.556189e-03		1.184084e-16		2.308978e-16
9.007958e-03		8.160526e-17		1.762703e-16
9.134724e-03		5.915212e-17		1.470466e-16
9.007958e-03		3.887388e-17		1.101144e-16
8.556189e-03		2.539143e-17		9.331854e-17
7.716866e-03		1.226475e-17		6.049832e-17
5.443483e-03		4.265425e-18		4.402651e-17
5.962103e-03		-3.225746e-03		-6.368744e-03
9.029366e-03		-1.173291e-03		-5.456279e-03
9.625715e-03		6.866689e-18		-5.258059e-03
9.029366e-03		1.173291e-03		-5.456279e-03
5.962103e-03		3.225746e-03		-6.368744e-03
7.462096e-03		-6.313274e-03		-1.341626e-02
9.593190e-03		-3.886514e-03		-1.201501e-02
1.053092e-02		-2.299480e-03		-1.167507e-02
1.106651e-02		-9.737628e-04		-1.137150e-02
1.123497e-02		-4.351067e-17		-1.131832e-02
1.106651e-02		9.737628e-04		-1.137150e-02
1.053092e-02		2.299480e-03		-1.167507e-02
9.593190e-03		3.886514e-03		-1.201501e-02
7.462096e-03		6.313274e-03		-1.341626e-02
9.553518e-03		-9.005271e-03		-2.109239e-02
1.287356e-02		-3.342467e-03		-1.856472e-02
1.368123e-02		-9.885637e-17		-1.811611e-02
1.287356e-02		3.342467e-03		-1.856472e-02
9.553518e-03		9.005271e-03		-2.109239e-02
1.381005e-02		-1.176176e-02		-3.043504e-02
1.638118e-02		-7.306919e-03		-2.843941e-02
1.797949e-02		-4.432541e-03		-2.846257e-02
1.873057e-02		-1.925000e-03		-2.825904e-02
1.896354e-02		-1.509400e-16		-2.826950e-02
1.873057e-02		1.925000e-03		-2.825904e-02
1.797949e-02		4.432541e-03		-2.846257e-02
1.638118e-02		7.306919e-03		-2.843941e-02
1.381005e-02		1.176176e-02		-3.043504e-02
2.301097e-02		1.340673e-02		4.214988e-02
2.791687e-02		5.564202e-03		4.074766e-02
2.928782e-02		4.065603e-16		4.054067e-02
2.791687e-02		-5.564202e-03		4.074766e-02
2.301097e-02		-1.340673e-02		4.214988e-02
1.654674e-02		7.058226e-03		1.907918e-02
2.033764e-02		2.901301e-03		1.794947e-02
2.122561e-02		2.726301e-16		1.760972e-02
2.033764e-02		-2.901301e-03		1.794947e-02
1.654674e-02		-7.058226e-03		1.907918e-02
1.428370e-02		3.028049e-16		5.034258e-16
1.813072e-02		1.924482e-16		3.481902e-16
1.886970e-02		1.166996e-16		2.344674e-16
1.813072e-02		6.458013e-17		1.402005e-16
1.428370e-02		3.530430e-17		6.864732e-17
1.654674e-02		-7.058226e-03		-1.907918e-02
2.033764e-02		-2.901301e-03		-1.794947e-02
2.122561e-02		-4.922182e-17		-1.760972e-02
2.033764e-02		2.901301e-03		-1.794947e-02
1.654674e-02		7.058226e-03		-1.907918e-02
2.301097e-02		-1.340673e-02		-4.214988e-02
2.791687e-02		-5.564202e-03		-4.074766e-02
2.928782e-02		-1.997020e-16		-4.054067e-02
2.791687e-02		5.564202e-03		-4.074766e-02
2.301097e-02		1.340673e-02		-4.214988e-02
3.456962e-02		1.356567e-02		5.249696e-02
3.751275e-02		9.888116e-03		5.244180e-02
3.952066e-02		6.093691e-03		5.202683e-02
4.066786e-02		2.947387e-03		5.190226e-02
4.102652e-02		5.940049e-16		5.182539e-02
4.066786e-02		-2.947387e-03		5.190226e-02
3.952066e-02		-6.093691e-03		5.202683e-02
3.751275e-02		-9.888116e-03		5.244180e-02
3.456962e-02		-1.356567e-02		5.249696e-02
3.129473e-02		1.026418e-02		3.792485e-02
3.576938e-02		4.625748e-03		3.756391e-02
3.704053e-02		4.924465e-16		3.731745e-02
3.576938e-02		-4.625748e-03		3.756391e-02
3.129473e-02		-1.026418e-02		3.792485e-02
2.857693e-02		6.957186e-03		2.433786e-02
3.120687e-02		5.133796e-03		2.436265e-02
3.277292e-02		3.163262e-03		2.403130e-02
3.357889e-02		1.520458e-03		2.388826e-02
3.381986e-02		4.078353e-16		2.382501e-02
3.357889e-02		-1.520458e-03		2.388826e-02
3.277292e-02		-3.163262e-03		2.403130e-02
3.120687e-02		-5.133796e-03		2.436265e-02
2.857693e-02		-6.957186e-03		2.433786e-02
2.691866e-02		3.561912e-03		1.195000e-02
3.109963e-02		1.616640e-03		1.178547e-02
3.202095e-02		2.986567e-16		1.166162e-02
3.109963e-02		-1.616640e-03		1.178547e-02
2.691866e-02		-3.561912e-03		1.195000e-02
2.633022e-02		3.704346e-16		6.275164e-16
2.909263e-02		3.222794e-16		5.341295e-16
3.055214e-02		2.745405e-16		4.643538e-16
3.125341e-02		2.442779e-16		3.865193e-16
3.146087e-02		1.904254e-16		3.265663e-16
3.125341e-02		1.494448e-16		2.773517e-16
3.055214e-02		1.233263e-16		2.025665e-16
2.909263e-02		1.057608e-16		1.543458e-16
2.633022e-02		8.293094e-17		9.649432e-17
2.691866e-02		-3.561912e-03		-1.195000e-02
3.109963e-02		-1.616640e-03		-1.178547e-02
3.202095e-02		7.696485e-17		-1.166162e-02
3.109963e-02		1.616640e-03		-1.178547e-02
2.691866e-02		3.561912e-03		-1.195000e-02
2.857693e-02		-6.957186e-03		-2.433786e-02
3.120687e-02		-5.133796e-03		-2.436265e-02
3.277292e-02		-3.163262e-03		-2.403130e-02
3.357889e-02		-1.520458e-03		-2.388826e-02
3.381986e-02		-2.952984e-17		-2.382501e-02
3.357889e-02		1.520458e-03		-2.388826e-02
3.277292e-02		3.163262e-03		-2.403130e-02
3.120687e-02		5.133796e-03		-2.436265e-02
2.857693e-02		6.957186e-03		-2.433786e-02
3.129473e-02		-1.026418e-02		-3.792485e-02
3.576938e-02		-4.625748e-03		-3.756391e-02
3.704053e-02		-1.375495e-16		-3.731745e-02
3.576938e-02		4.625748e-03		-3.756391e-02
3.129473e-02		1.026418e-02		-3.792485e-02
3.456962e-02		-1.356567e-02		-5.249696e-02
3.751275e-02		-9.888116e-03		-5.244180e-02
3.952066e-02		-6.093691e-03		-5.202683e-02
4.066786e-02		-2.947387e-03		-5.190226e-02
4.102652e-02		-2.438268e-16		-5.182539e-02
4.066786e-02		2.947387e-03		-5.190226e-02
3.952066e-02		6.093691e-03		-5.202683e-02
3.751275e-02		9.888116e-03		-5.244180e-02
3.456962e-02		1.356567e-02		-5.249696e-02
4.879868e-02		1.316013e-02		6.250830e-02
5.358125e-02		6.218987e-03		6.282701e-02
5.508666e-02		7.845336e-16		6.261440e-02
5.358125e-02		-6.218987e-03		6.282701e-02
4.879868e-02		-1.316013e-02		6.250830e-02
4.331518e-02		6.647615e-03		2.952454e-02
4.762374e-02		3.218800e-03		2.979702e-02
4.877501e-02		5.489543e-16		2.967856e-02
4.762374e-02		-3.218800e-03		2.979702e-02
4.331518e-02		-6.647615e-03		2.952454e-02
4.123040e-02		4.616453e-16		7.665989e-16
4.551719e-02		3.740965e-16		5.596059e-16
4.655143e-02		2.838331e-16		4.302772e-16
4.551719e-02		1.966323e-16		2.782155e-16
4.123040e-02		1.504040e-16		1.241454e-16
4.331518e-02		-6.647615e-03		-2.952454e-02
4.762374e-02		-3.218800e-03		-2.979702e-02
4.877501e-02		2.013311e-17		-2.967856e-02
4.762374e-02		3.218800e-03		-2.979702e-02
4.331518e-02		6.647615e-03		-2.952454e-02
4.879868e-02		-1.316013e-02		-6.250830e-02
5.358125e-02		-6.218987e-03		-6.282701e-02
5.508666e-02		-2.516351e-16		-6.261440e-02
5.358125e-02		6.218987e-03		-6.282701e-02
4.879868e-02		1.316013e-02		-6.250830e-02
6.531328e-02		1.229128e-02		7.178798e-02
6.796952e-02		9.066762e-03		7.249577e-02
6.979431e-02		5.935035e-03		7.261116e-02
7.085957e-02		2.924133e-03		7.255448e-02
7.121572e-02		9.725285e-16		7.252270e-02
7.085957e-02		-2.924133e-03		7.255448e-02
6.979431e-02		-5.935035e-03		7.261116e-02
6.796952e-02		-9.066762e-03		7.249577e-02
6.531328e-02		-1.229128e-02		7.178798e-02
6.245776e-02		9.226520e-03		5.230982e-02
6.673378e-02		4.511068e-03		5.318536e-02
6.801731e-02		8.380181e-16		5.318244e-02
6.673378e-02		-4.511068e-03		5.318536e-02
6.245776e-02		-9.226520e-03		5.230982e-02
6.039692e-02		6.176641e-03		3.419119e-02
6.293293e-02		4.620182e-03		3.465252e-02
6.455372e-02		3.052531e-03		3.482424e-02
6.545420e-02		1.506222e-03		3.484421e-02
6.573122e-02		7.036171e-16		3.483977e-02
6.545420e-02		-1.506222e-03		3.484421e-02
6.455372e-02		-3.052531e-03		3.482424e-02
6.293293e-02		-4.620182e-03		3.465252e-02
6.039692e-02		-6.176641e-03		3.419119e-02
5.906369e-02		3.107510e-03		1.686724e-02
6.318900e-02		1.546153e-03		1.720004e-02
6.429577e-02		5.536421e-16		1.720752e-02
6.318900e-02		-1.546153e-03		1.720004e-02
5.906369e-02		-3.107510e-03		1.686724e-02
5.860765e-02		5.703589e-16		8.827943e-16
6.116581e-02		5.318539e-16		7.627368e-16
6.274288e-02		4.851551e-16		6.596990e-16
6.358075e-02		4.379881e-16		5.868770e-16
6.383189e-02		3.803099e-16		5.315759e-16
6.358075e-02		3.365785e-16		4.247097e-16
6.274288e-02		2.925229e-16		3.357807e-16
6.116581e-02		2.543964e-16		2.454102e-16
5.860765e-02		2.355719e-16		1.605795e-16
5.906369e-02		-3.107510e-03		-1.686724e-02
6.318900e-02		-1.546153e-03		-1.720004e-02
6.429577e-02		2.244321e-16		-1.720752e-02
6.318900e-02		1.546153e-03		-1.720004e-02
5.906369e-02		3.107510e-03		-1.686724e-02
6.039692e-02		-6.176641e-03		-3.419119e-02
6.293293e-02		-4.620182e-03		-3.465252e-02
6.455372e-02		-3.052531e-03		-3.482424e-02
6.545420e-02		-1.506222e-03		-3.484421e-02
6.573122e-02		5.666069e-17		-3.483977e-02
6.545420e-02		1.506222e-03		-3.484421e-02
6.455372e-02		3.052531e-03		-3.482424e-02
6.293293e-02		4.620182e-03		-3.465252e-02
6.039692e-02		6.176641e-03		-3.419119e-02
6.245776e-02		-9.226520e-03		-5.230982e-02
6.673378e-02		-4.511068e-03		-5.318536e-02
6.801731e-02		-8.614003e-17		-5.318244e-02
6.673378e-02		4.511068e-03		-5.318536e-02
6.245776e-02		9.226520e-03		-5.230982e-02
6.531328e-02		-1.229128e-02		-7.178798e-02
6.796952e-02		-9.066762e-03		-7.249577e-02
6.979431e-02		-5.935035e-03		-7.261116e-02
7.085957e-02		-2.924133e-03		-7.255448e-02
7.121572e-02		-2.463912e-16		-7.252270e-02
7.085957e-02		2.924133e-03		-7.255448e-02
6.979431e-02		5.935035e-03		-7.261116e-02
6.796952e-02		9.066762e-03		-7.249577e-02
6.531328e-02		1.229128e-02		-7.178798e-02
8.386945e-02		1.106697e-02		8.015807e-02
8.792978e-02		5.411616e-03		8.127185e-02
8.921792e-02		1.212118e-15		8.129506e-02
8.792978e-02		-5.411616e-03		8.127185e-02
8.386945e-02		-1.106697e-02		8.015807e-02
7.956811e-02		5.549454e-03		3.830833e-02
8.341466e-02		2.768004e-03		3.917300e-02
8.455366e-02		8.571992e-16		3.929739e-02
8.341466e-02		-2.768004e-03		3.917300e-02
7.956811e-02		-5.549454e-03		3.830833e-02
7.804975e-02		6.548866e-16		9.504748e-16
8.188167e-02		5.929211e-16		7.728376e-16
8.296612e-02		4.928525e-16		6.080909e-16
8.188167e-02		3.835238e-16		4.206620e-16
7.804975e-02		3.386964e-16		1.844108e-16
7.956811e-02		-5.549454e-03		-3.830833e-02
8.341466e-02		-2.768004e-03		-3.917300e-02
8.455366e-02		1.288153e-16		-3.929739e-02
8.341466e-02		2.768004e-03		-3.917300e-02
7.956811e-02		5.549454e-03		-3.830833e-02
8.386945e-02		-1.106697e-02		-8.015807e-02
8.792978e-02		-5.411616e-03		-8.127185e-02
8.921792e-02		-2.644515e-16		-8.129506e-02
8.792978e-02		5.411616e-03		-8.127185e-02
8.386945e-02		1.106697e-02		-8.015807e-02
1.042679e-01		9.658421e-03		8.750500e-02
1.063655e-01		7.199986e-03		8.850941e-02
1.078208e-01		4.748416e-03		8.880675e-02
1.086745e-01		2.363904e-03		8.891085e-02
1.089550e-01		1.415408e-15		8.889667e-02
1.086745e-01		-2.363904e-03		8.891085e-02
1.078208e-01		-4.748416e-03		8.880675e-02
1.063655e-01		-7.199986e-03		8.850941e-02
1.042679e-01		-9.658421e-03		8.750500e-02
1.021158e-01		7.250596e-03		6.393586e-02
1.055845e-01		3.597015e-03		6.532488e-02
1.066664e-01		1.214501e-15		6.552616e-02
1.055845e-01		-3.597015e-03		6.532488e-02
1.021158e-01		-7.250596e-03		6.393586e-02
1.005690e-01		4.841473e-03		4.190699e-02
1.026126e-01		3.640426e-03		4.256761e-02
1.039901e-01		2.419709e-03		4.291718e-02
1.047779e-01		1.209695e-03		4.307974e-02
1.050304e-01		1.018204e-15		4.310551e-02
1.047779e-01		-1.209695e-03		4.307974e-02
1.039901e-01		-2.419709e-03		4.291718e-02
1.026126e-01		-3.640426e-03		4.256761e-02
1.005690e-01		-4.841473e-03		4.190699e-02
9.962728e-02		2.428114e-03		2.074329e-02
1.030370e-01		1.218263e-03		2.127553e-02
1.040522e-01		7.948946e-16		2.138813e-02
1.030370e-01		-1.218263e-03		2.127553e-02
9.962728e-02		-2.428114e-03		2.074329e-02
9.929767e-02		7.398009e-16		1.005633e-15
1.013483e-01		7.447891e-16		9.240226e-16
1.027076e-01		6.946698e-16		8.787154e-16
1.034735e-01		6.329261e-16		7.821496e-16
1.037153e-01		5.963778e-16		7.035393e-16
1.034735e-01		5.485058e-16		6.200050e-16
1.027076e-01		4.977161e-16		5.213763e-16
1.013483e-01		4.789572e-16		3.668152e-16
9.929767e-02		4.727160e-16		1.955201e-16
9.962728e-02		-2.428114e-03		-2.074329e-02
1.030370e-01		-1.218263e-03		-2.127553e-02
1.040522e-01		3.902536e-16		-2.138813e-02
1.030370e-01		1.218263e-03		-2.127553e-02
9.962728e-02		2.428114e-03		-2.074329e-02
1.005690e-01		-4.841473e-03		-4.190699e-02
1.026126e-01		-3.640426e-03		-4.256761e-02
1.039901e-01		-2.419709e-03		-4.291718e-02
1.047779e-01		-1.209695e-03		-4.307974e-02
1.050304e-01		1.889285e-16		-4.310551e-02
1.047779e-01		1.209695e-03		-4.307974e-02
1.039901e-01		2.419709e-03		-4.291718e-02
1.026126e-01		3.640426e-03		-4.256761e-02
1.005690e-01		4.841473e-03		-4.190699e-02
1.021158e-01		-7.250596e-03		-6.393586e-02
1.055845e-01		-3.597015e-03		-6.532488e-02
1.066664e-01		-2.783313e-17		-6.552616e-02
1.055845e-01		3.597015e-03		-6.532488e-02
1.021158e-01		7.250596e-03		-6.393586e-02
1.042679e-01		-9.658421e-03		-8.750500e-02
1.063655e-01		-7.199986e-03		-8.850941e-02
1.078208e-01		-4.748416e-03		-8.880675e-02
1.086745e-01		-2.363904e-03		-8.891085e-02
1.089550e-01		-2.767727e-16		-8.889667e-02
1.086745e-01		2.363904e-03		-8.891085e-02
1.078208e-01		4.748416e-03		-8.880675e-02
1.063655e-01		7.199986e-03		-8.850941e-02
1.042679e-01		9.658421e-03		-8.750500e-02
1.262257e-01		8.147375e-03		9.374964e-02
1.292293e-01		4.022931e-03		9.518244e-02
1.301962e-01		1.689554e-15		9.531835e-02
1.292293e-01		-4.022931e-03		9.518244e-02
1.262257e-01		-8.147375e-03		9.374964e-02
1.231284e-01		4.083874e-03		4.498743e-02
1.260568e-01		2.042960e-03		4.609568e-02
1.269678e-01		1.178833e-15		4.633128e-02
1.260568e-01		-2.042960e-03		4.609568e-02
1.231284e-01		-4.083874e-03		4.498743e-02
1.220857e-01		8.414463e-16		1.055414e-15
1.250086e-01		7.749707e-16		9.732156e-16
1.259025e-01		6.986808e-16		8.315284e-16
1.250086e-01		6.413669e-16		6.197271e-16
1.220857e-01		6.263813e-16		2.800771e-16
1.231284e-01		-4.083874e-03		-4.498743e-02
1.260568e-01		-2.042960e-03		-4.609568e-02
1.269678e-01		2.477752e-16		-4.633128e-02
1.260568e-01		2.042960e-03		-4.609568e-02
1.231284e-01		4.083874e-03		-4.498743e-02
1.262257e-01		-8.147375e-03		-9.374964e-02
1.292293e-01		-4.022931e-03		-9.518244e-02
1.301962e-01		-2.586110e-16		-9.531835e-02
1.292293e-01		4.022931e-03		-9.518244e-02
1.262257e-01		8.147375e-03		-9.374964e-02
1.494643e-01		6.566448e-03		9.890262e-02
1.508884e-01		4.905532e-03		1.000298e-01
1.518885e-01		3.250815e-03		1.004092e-01
1.524784e-01		1.619935e-03		1.005592e-01
1.526736e-01		1.899553e-15		1.005697e-01
1.524784e-01		-1.619935e-03		1.005592e-01
1.518885e-01		-3.250815e-03		1.004092e-01
1.508884e-01		-4.905532e-03		1.000298e-01
1.494643e-01		-6.566448e-03		9.890262e-02
1.480129e-01		4.931035e-03		7.241121e-02
1.504095e-01		2.455423e-03		7.400837e-02
1.511751e-01		1.603652e-15		7.429462e-02
1.504095e-01		-2.455423e-03		7.400837e-02
1.480129e-01		-4.931035e-03		7.241121e-02
1.469785e-01		3.293252e-03		4.752716e-02
1.483881e-01		2.472990e-03		4.826876e-02
1.493604e-01		1.647045e-03		4.869261e-02
1.499282e-01		8.228503e-04		4.890356e-02
1.501121e-01		1.327379e-15		4.895275e-02
1.499282e-01		-8.228503e-04		4.890356e-02
1.493604e-01		-1.647045e-03		4.869261e-02
1.483881e-01		-2.472990e-03		4.826876e-02
1.469785e-01		-3.293252e-03		4.752716e-02
1.463550e-01		1.649535e-03		2.354048e-02
1.487342e-01		8.272486e-04		2.415515e-02
1.494778e-01		1.059013e-15		2.430770e-02
1.487342e-01		-8.272486e-04		2.415515e-02
1.463550e-01		-1.649535e-03		2.354048e-02
1.461473e-01		8.956774e-16		1.028926e-15
1.475611e-01		8.440081e-16		1.024904e-15
1.485279e-01		8.255750e-16		1.038120e-15
1.490886e-01		8.213318e-16		9.297960e-16
1.492696e-01		7.901490e-16		8.930159e-16
1.490886e-01		7.837370e-16		8.058016e-16
1.485279e-01		7.813069e-16		7.114179e-16
1.475611e-01		7.694688e-16		5.165029e-16
1.461473e-01		7.359351e-16		3.486710e-16
1.463550e-01		-1.649535e-03		-2.354048e-02
1.487342e-01		-8.272486e-04		-2.415515e-02
1.494778e-01		5.411145e-16		-2.430770e-02
1.487342e-01		8.272486e-04		-2.415515e-02
1.463550e-01		1.649535e-03		-2.354048e-02
1.469785e-01		-3.293252e-03		-4.752716e-02
1.483881e-01		-2.472990e-03		-4.826876e-02
1.493604e-01		-1.647045e-03		-4.869261e-02
1.499282e-01		-8.228503e-04		-4.890356e-02
1.501121e-01		2.830147e-16		-4.895275e-02
1.499282e-01		8.228503e-04		-4.890356e-02
1.493604e-01		1.647045e-03		-4.869261e-02
1.483881e-01		2.472990e-03		-4.826876e-02
1.469785e-01		3.293252e-03		-4.752716e-02
1.480129e-01		-4.931035e-03		-7.241121e-02
1.504095e-01		-2.455423e-03		-7.400837e-02
1.511751e-01		6.857364e-17		-7.429462e-02
1.504095e-01		2.455423e-03		-7.400837e-02
1.480129e-01		4.931035e-03		-7.241121e-02
1.494643e-01		-6.566448e-03		-9.890262e-02
1.508884e-01		-4.905532e-03		-1.000298e-01
1.518885e-01		-3.250815e-03		-1.004092e-01
1.524784e-01		-1.619935e-03		-1.005592e-01
1.526736e-01		-2.427907e-16		-1.005697e-01
1.524784e-01		1.619935e-03		-1.005592e-01
1.518885e-01		3.250815e-03		-1.004092e-01
1.508884e-01		4.905532e-03		-1.000298e-01
1.494643e-01		6.566448e-03		-9.890262e-02
1.737157e-01		4.946280e-03		1.029125e-01
1.755460e-01		2.453835e-03		1.044600e-01
1.761421e-01		2.126157e-15		1.046340e-01
1.755460e-01		-2.453835e-03		1.044600e-01
1.737157e-01		-4.946280e-03		1.029125e-01
1.718463e-01		2.480779e-03		4.951639e-02
1.736540e-01		1.240705e-03		5.071541e-02
1.742313e-01		1.476148e-15		5.099054e-02
1.736540e-01		-1.240705e-03		5.071541e-02
1.718463e-01		-2.480779e-03		4.951639e-02
1.712224e-01		8.687027e-16		1.003683e-15
1.730307e-01		8.733797e-16		9.833321e-16
1.736027e-01		8.967958e-16		9.218013e-16
1.730307e-01		9.328279e-16		8.196877e-16
1.712224e-01		8.841756e-16		4.739030e-16
1.718463e-01		-2.480779e-03		-4.951639e-02
1.736540e-01		-1.240705e-03		-5.071541e-02
1.742313e-01		3.586855e-16		-5.099054e-02
1.736540e-01		1.240705e-03		-5.071541e-02
1.718463e-01		2.480779e-03		-4.951639e-02
1.737157e-01		-4.946280e-03		-1.029125e-01
1.755460e-01		-2.453835e-03		-1.044600e-01
1.761421e-01		-1.899663e-16		-1.046340e-01
1.755460e-01		2.453835e-03		-1.044600e-01
1.737157e-01		4.946280e-03		-1.029125e-01
1.987253e-01		3.305732e-03		1.057942e-01
1.994428e-01		2.473016e-03		1.069578e-01
1.999495e-01		1.641828e-03		1.073622e-01
2.002501e-01		8.189362e-04		1.075283e-01
2.003494e-01		2.329996e-15		1.075418e-01
2.002501e-01		-8.189362e-04		1.075283e-01
1.999495e-01		-1.641828e-03		1.073622e-01
1.994428e-01		-2.473016e-03		1.069578e-01
1.987253e-01		-3.305732e-03		1.057942e-01
1.979970e-01		2.482943e-03		7.755338e-02
1.992135e-01		1.237861e-03		7.921726e-02
1.996074e-01		1.929890e-15		7.952985e-02
1.992135e-01		-1.237861e-03		7.921726e-02
1.979970e-01		-2.482943e-03		7.755338e-02
1.974768e-01		1.658270e-03		5.094211e-02
1.981909e-01		1.244680e-03		5.171001e-02
1.986897e-01		8.291942e-04		5.215849e-02
1.989832e-01		4.143978e-04		5.238659e-02
1.990793e-01		1.630604e-15		5.244080e-02
1.989832e-01		-4.143978e-04		5.238659e-02
1.986897e-01		-8.291942e-04		5.215849e-02
1.981909e-01		-1.244680e-03		5.171001e-02
1.974768e-01		-1.658270e-03		5.094211e-02
1.971646e-01		8.306635e-04		2.524326e-02
1.983778e-01		4.159871e-04		2.588491e-02
1.987651e-01		1.299283e-15		2.605016e-02
1.983778e-01		-4.159871e-04		2.588491e-02
1.971646e-01		-8.306635e-04		2.524326e-02
1.970599e-01		8.314062e-16		9.339135e-16
1.977766e-01		8.254037e-16		9.966735e-16
1.982739e-01		8.982216e-16		9.266431e-16
1.985655e-01		9.322231e-16		9.725178e-16
1.986606e-01		9.804829e-16		9.382199e-16
1.985655e-01		1.008630e-15		8.911327e-16
1.982739e-01		1.052698e-15		9.068989e-16
1.977766e-01		1.102987e-15		7.798267e-16
1.970599e-01		1.065257e-15		6.041494e-16
1.971646e-01		-8.306635e-04		-2.524326e-02
1.983778e-01		-4.159871e-04		-2.588491e-02
1.987651e-01		6.849082e-16		-2.605016e-02
1.983778e-01		4.159871e-04		-2.588491e-02
1.971646e-01		8.306635e-04		-2.524326e-02
1.974768e-01		-1.658270e-03		-5.094211e-02
1.981909e-01		-1.244680e-03		-5.171001e-02
1.986897e-01		-8.291942e-04		-5.215849e-02
1.989832e-01		-4.143978e-04		-5.238659e-02
1.990793e-01		4.352784e-16		-5.244080e-02
1.989832e-01		4.143978e-04		-5.238659e-02
1.986897e-01		8.291942e-04		-5.215849e-02
1.981909e-01		1.244680e-03		-5.171001e-02
1.974768e-01		1.658270e-03		-5.094211e-02
1.979970e-01		-2.482943e-03		-7.755338e-02
1.992135e-01		-1.237861e-03		-7.921726e-02
1.996074e-01		1.100416e-16		-7.952985e-02
1.992135e-01		1.237861e-03		-7.921726e-02
1.979970e-01		2.482943e-03		-7.755338e-02
1.987253e-01		-3.305732e-03		-1.057942e-01
1.994428e-01		-2.473016e-03		-1.069578e-01
1.999495e-01		-1.641828e-03		-1.073622e-01
2.002501e-01		-8.189362e-04		-1.075283e-01
2.003494e-01		-1.860768e-16		-1.075418e-01
2.002501e-01		8.189362e-04		-1.075283e-01
1.999495e-01		1.641828e-03		-1.073622e-01
1.994428e-01		2.473016e-03		-1.069578e-01
1.987253e-01		3.305732e-03		-1.057942e-01
2.242371e-01		1.655190e-03		1.075139e-01
2.248508e-01		8.225946e-04		1.090930e-01
2.250518e-01		2.483412e-15		1.092761e-01
2.248508e-01		-8.225946e-04		1.090930e-01
2.242371e-01		-1.655190e-03		1.075139e-01
2.236121e-01		8.302229e-04		5.180150e-02
2.242212e-01		4.150904e-04		5.302709e-02
2.244177e-01		1.726626e-15		5.331382e-02
2.242212e-01		-4.150904e-04		5.302709e-02
2.236121e-01		-8.302229e-04		5.180150e-02
2.234033e-01		7.666053e-16		8.415001e-16
2.240130e-01		8.865693e-16		9.294418e-16
2.242085e-01		1.043169e-15		8.912431e-16
2.240130e-01		1.152463e-15		8.966671e-16
2.234033e-01		1.203647e-15		8.207797e-16
2.236121e-01		-8.302229e-04		-5.180150e-02
2.242212e-01		-4.150904e-04		-5.302709e-02
2.244177e-01		3.966764e-16		-5.331382e-02
2.242212e-01		4.150904e-04		-5.302709e-02
2.236121e-01		8.302229e-04		-5.180150e-02
2.242371e-01		-1.655190e-03		-1.075139e-01
2.248508e-01		-8.225946e-04		-1.090930e-01
2.250518e-01		-2.693827e-16		-1.092761e-01
2.248508e-01		8.225946e-04		-1.090930e-01
2.242371e-01		1.655190e-03		-1.075139e-01
2.500000e-01		1.877349e-15		1.080963e-01
2.500000e-01		2.196057e-15		1.092681e-01
2.500000e-01		2.448413e-15		1.096782e-01
2.500000e-01		2.549378e-15		1.098470e-01
2.500000e-01		2.517217e-15		1.098617e-01
2.500000e-01		2.629817e-15		1.098470e-01
2.500000e-01		2.841020e-15		1.096782e-01
2.500000e-01		3.103585e-15		1.092681e-01
2.500000e-01		3.319758e-15		1.080963e-01
2.500000e-01		1.657609e-15		7.927460e-02
2.500000e-01		1.870723e-15		8.095362e-02
2.500000e-01		2.125965e-15		8.127236e-02
2.500000e-01		2.407995e-15		8.095362e-02
2.500000e-01		2.630108e-15		7.927460e-02
2.500000e-01		1.204036e-15		5.208669e-02
2.500000e-01		1.321588e-15		5.286044e-02
2.500000e-01		1.521745e-15		5.331463e-02
2.500000e-01		1.626044e-15		5.354646e-02
2.500000e-01		1.743611e-15		5.360224e-02
2.500000e-01		1.930452e-15		5.354646e-02
2.500000e-01		2.028985e-15		5.331463e-02
2.500000e-01		2.112271e-15		5.286044e-02
2.500000e-01		2.188321e-15		5.208669e-02
2.500000e-01		9.144918e-16		2.581477e-02
2.500000e-01		1.149554e-15		2.646269e-02
2.500000e-01		1.399998e-15		2.663089e-02
2.500000e-01		1.632780e-15		2.646269e-02
2.500000e-01		1.693476e-15		2.581477e-02
2.500000e-01		6.690137e-16		7.914569e-16
2.500000e-01		7.848912e-16		8.814478e-16
2.500000e-01		8.586997e-16		9.032200e-16
2.500000e-01		9.321933e-16		9.309966e-16
2.500000e-01		1.079522e-15		8.845564e-16
2.500000e-01		1.143915e-15		9.868681e-16
2.500000e-01		1.196978e-15		1.011700e-15
2.500000e-01		1.277931e-15		9.918334e-16
2.500000e-01		1.264105e-15		1.026936e-15
2.500000e-01		5.093773e-16		-2.581477e-02
2.500000e-01		5.760089e-16		-2.646269e-02
2.500000e-01		6.570386e-16		-2.663089e-02
2.500000e-01		7.795326e-16		-2.646269e-02
2.500000e-01		8.427437e-16		-2.581477e-02
2.500000e-01		3.180811e-16		-5.208669e-02
2.500000e-01		3.127277e-16		-5.286044e-02
2.500000e-01		2.984820e-16		-5.331463e-02
2.500000e-01		3.599684e-16		-5.354646e-02
2.500000e-01		3.473610e-16		-5.360224e-02
2.500000e-01		4.071189e-16		-5.354646e-02
2.500000e-01		3.654663e-16		-5.331463e-02
2.500000e-01		3.695733e-16		-5.286044e-02
2.500000e-01		4.055960e-16		-5.208669e-02
2.500000e-01		1.269992e-16		-7.927460e-02
2.500000e-01		-1.911167e-17		-8.095362e-02
2.500000e-01		6.317060e-17		-8.127236e-02
2.500000e-01		-5.258791e-17		-8.095362e-02
2.500000e-01		-3.118200e-16		-7.927460e-02
2.500000e-01		-2.632125e-16		-1.080963e-01
2.500000e-01		-2.467632e-16		-1.092681e-01
2.500000e-01		-2.246359e-16		-1.096782e-01
2.500000e-01		-2.730537e-16		-1.098470e-01
2.500000e-01		-3.460330e-16		-1.098617e-01
2.500000e-01		-3.788828e-16		-1.098470e-01
2.500000e-01		-4.506636e-16		-1.096782e-01
2.500000e-01		-5.109873e-16		-1.092681e-01
2.500000e-01		-5.517702e-16		-1.080963e-01
2.757629e-01		-1.655190e-03		1.075139e-01
2.751492e-01		-8.225946e-04		1.090930e-01
2.749482e-01		2.596169e-15		1.092761e-01
2.751492e-01		8.225946e-04		1.090930e-01
2.757629e-01		1.655190e-03		1.075139e-01
2.763879e-01		-8.302229e-04		5.180150e-02
2.757788e-01		-4.150904e-04		5.302709e-02
2.755823e-01		1.783528e-15		5.331382e-02
2.757788e-01		4.150904e-04		5.302709e-02
2.763879e-01		8.302229e-04		5.180150e-02
2.765967e-01		6.607133e-16		8.425440e-16
2.759870e-01		8.537008e-16		8.844194e-16
2.757915e-01		1.051329e-15		1.040390e-15
2.759870e-01		1.221877e-15		1.192871e-15
2.765967e-01		1.296831e-15		1.219666e-15
2.763879e-01		8.302229e-04		-5.180150e-02
2.757788e-01		4.150904e-04		-5.302709e-02
2.755823e-01		3.185378e-16		-5.331382e-02
2.757788e-01		-4.150904e-04		-5.302709e-02
2.763879e-01		-8.302229e-04		-5.180150e-02
2.757629e-01		1.655190e-03		-1.075139e-01
2.751492e-01		8.225946e-04		-1.090930e-01
2.749482e-01		-3.383717e-16		-1.092761e-01
2.751492e-01		-8.225946e-04		-1.090930e-01
2.757629e-01		-1.655190e-03		-1.075139e-01
3.012747e-01		-3.305732e-03		1.057942e-01
3.005572e-01		-2.473016e-03		1.069578e-01
3.000505e-01		-1.641828e-03		1.073622e-01
2.997499e-01		-8.189362e-04		1.075283e-01
2.996506e-01		2.571448e-15		1.075418e-01
2.997499e-01		8.189362e-04		1.075283e-01
3.000505e-01		1.641828e-03		1.073622e-01
3.005572e-01		2.473016e-03		1.069578e-01
3.012747e-01		3.305732e-03		1.057942e-01
3.020030e-01		-2.482943e-03		7.755338e-02
3.007865e-01		-1.237861e-03		7.921726e-02
3.003926e-01		2.155785e-15		7.952985e-02
3.007865e-01		1.237861e-03		7.921726e-02
3.020030e-01		2.482943e-03		7.755338e-02
3.025232e-01		-1.658270e-03		5.094211e-02
3.018091e-01		-1.244680e-03		5.171001e-02
3.013103e-01		-8.291942e-04		5.215849e-02
3.010168e-01		-4.143978e-04		5.238659e-02
3.009207e-01		1.781105e-15		5.244080e-02
3.010168e-01		4.143978e-04		5.238659e-02
3.013103e-01		8.291942e-04		5.215849e-02
3.018091e-01		1.244680e-03		5.171001e-02
3.025232e-01		1.658270e-03		5.094211e-02
3.028354e-01		-8.306635e-04		2.524326e-02
3.016222e-01		-4.159871e-04		2.588491e-02
3.012349e-01		1.367198e-15		2.605016e-02
3.016222e-01		4.159871e-04		2.588491e-02
3.028354e-01		8.306635e-04		2.524326e-02
3.029401e-01		6.372076e-16		8.118346e-16
3.022234e-01		7.176297e-16		8.654702e-16
3.017261e-01		8.275909e-16		9.575801e-16
3.014345e-01		9.448304e-16		9.585367e-16
3.013394e-01		9.889017e-16		1.152922e-15
3.014345e-01		1.037965e-15		1.164335e-15
3.017261e-01		1.178162e-15		1.275340e-15
3.022234e-01		1.301125e-15		1.353708e-15
3.029401e-01		1.313205e-15		1.433021e-15
3.028354e-01		8.306635e-04		-2.524326e-02
3.016222e-01		4.159871e-04		-2.588491e-02
3.012349e-01		6.264541e-16		-2.605016e-02
3.016222e-01		-4.159871e-04		-2.588491e-02
3.028354e-01		-8.306635e-04		-2.524326e-02
3.025232e-01		1.658270e-03		-5.094211e-02
3.018091e-01		1.244680e-03		-5.171001e-02
3.013103e-01		8.291942e-04		-5.215849e-02
3.010168e-01		4.143978e-04		-5.238659e-02
3.009207e-01		2.715179e-16		-5.244080e-02
3.010168e-01		-4.143978e-04		-5.238659e-02
3.013103e-01		-8.291942e-04		-5.215849e-02
3.018091e-01		-1.244680e-03		-5.171001e-02
3.025232e-01		-1.658270e-03		-5.094211e-02
3.020030e-01		2.482943e-03		-7.755338e-02
3.007865e-01		1.237861e-03		-7.921726e-02
3.003926e-01		-2.982476e-17		-7.952985e-02
3.007865e-01		-1.237861e-03		-7.921726e-02
3.020030e-01		-2.482943e-03		-7.755338e-02
3.012747e-01		3.305732e-03		-1.057942e-01
3.005572e-01		2.473016e-03		-1.069578e-01
3.000505e-01		1.641828e-03		-1.073622e-01
2.997499e-01		8.189362e-04		-1.075283e-01
2.996506e-01		-3.288008e-16		-1.075418e-01
2.997499e-01		-8.189362e-04		-1.075283e-01
3.000505e-01		-1.641828e-03		-1.073622e-01
3.005572e-01		-2.473016e-03		-1.069578e-01
3.012747e-01		-3.305732e-03		-1.057942e-01
3.262843e-01		-4.946280e-03		1.029125e-01
3.244540e-01		-2.453835e-03		1.044600e-01
3.238579e-01		2.466891e-15		1.046340e-01
3.244540e-01		2.453835e-03		1.044600e-01
3.262843e-01		4.946280e-03		1.029125e-01
3.281537e-01		-2.480779e-03		4.951639e-02
3.263460e-01		-1.240705e-03		5.071541e-02
3.257687e-01		1.722137e-15		5.099054e-02
3.263460e-01		1.240705e-03		5.071541e-02
3.281537e-01		2.480779e-03		4.951639e-02
3.287776e-01		6.752120e-16		7.237665e-16
3.269693e-01		8.177206e-16		9.499830e-16
3.263973e-01		9.657092e-16		1.199557e-15
3.269693e-01		1.139408e-15		1.347941e-15
3.287776e-01		1.262782e-15		1.631963e-15
3.281537e-01		2.480779e-03		-4.951639e-02
3.263460e-01		1.240705e-03		-5.071541e-02
3.257687e-01		2.126518e-16		-5.099054e-02
3.263460e-01		-1.240705e-03		-5.071541e-02
3.281537e-01		-2.480779e-03		-4.951639e-02
3.262843e-01		4.946280e-03		-1.029125e-01
3.244540e-01		2.453835e-03		-1.044600e-01
3.238579e-01		-4.211113e-16		-1.046340e-01
3.244540e-01		-2.453835e-03		-1.044600e-01
3.262843e-01		-4.946280e-03		-1.029125e-01
3.505357e-01		-6.566448e-03		9.890262e-02
3.491116e-01		-4.905532e-03		1.000298e-01
3.481115e-01		-3.250815e-03		1.004092e-01
3.475216e-01		-1.619935e-03		1.005592e-01
3.473264e-01		2.281480e-15		1.005697e-01
3.475216e-01		1.619935e-03		1.005592e-01
3.481115e-01		3.250815e-03		1.004092e-01
3.491116e-01		4.905532e-03		1.000298e-01
3.505357e-01		6.566448e-03		9.890262e-02
3.519871e-01		-4.931035e-03		7.241121e-02
3.495905e-01		-2.455423e-03		7.400837e-02
3.488249e-01		1.899610e-15		7.429462e-02
3.495905e-01		2.455423e-03		7.400837e-02
3.519871e-01		4.931035e-03		7.241121e-02
3.530215e-01		-3.293252e-03		4.752716e-02
3.516119e-01		-2.472990e-03		4.826876e-02
3.506396e-01		-1.647045e-03		4.869261e-02
3.500718e-01		-8.228503e-04		4.890356e-02
3.498879e-01		1.615271e-15		4.895275e-02
3.500718e-01		8.228503e-04		4.890356e-02
3.506396e-01		1.647045e-03		4.869261e-02
3.516119e-01		2.472990e-03		4.826876e-02
3.530215e-01		3.293252e-03		4.752716e-02
3.536450e-01		-1.649535e-03		2.354048e-02
3.512658e-01		-8.272486e-04		2.415515e-02
3.505222e-01		1.243913e-15		2.430770e-02
3.512658e-01		8.272486e-04		2.415515e-02
3.536450e-01		1.649535e-03		2.354048e-02
3.538527e-01		7.179207e-16		5.728667e-16
3.524389e-01		7.196532e-16		7.997357e-16
3.514721e-01		7.348290e-16		9.202655e-16
3.509114e-01		8.098955e-16		1.090624e-15
3.507304e-01		9.307609e-16		1.208057e-15
3.509114e-01		9.664130e-16		1.334340e-15
3.514721e-01		1.060502e-15		1.437408e-15
3.524389e-01		1.133269e-15		1.580707e-15
3.538527e-01		1.112160e-15		1.780983e-15
3.536450e-01		1.649535e-03		-2.354048e-02
3.512658e-01		8.272486e-04		-2.415515e-02
3.505222e-01		5.002265e-16		-2.430770e-02
3.512658e-01		-8.272486e-04		-2.415515e-02
3.536450e-01		-1.649535e-03		-2.354048e-02
3.530215e-01		3.293252e-03		-4.752716e-02
3.516119e-01		2.472990e-03		-4.826876e-02
3.506396e-01		1.647045e-03		-4.869261e-02
3.500718e-01		8.228503e-04		-4.890356e-02
3.498879e-01		1.808220e-16		-4.895275e-02
3.500718e-01		-8.228503e-04		-4.890356e-02
3.506396e-01		-1.647045e-03		-4.869261e-02
3.516119e-01		-2.472990e-03		-4.826876e-02
3.530215e-01		-3.293252e-03		-4.752716e-02
3.519871e-01		4.931035e-03		-7.241121e-02
3.495905e-01		2.455423e-03		-7.400837e-02
3.488249e-01		-1.689151e-16		-7.429462e-02
3.495905e-01		-2.455423e-03		-7.400837e-02
3.519871e-01		-4.931035e-03		-7.241121e-02
3.505357e-01		6.566448e-03		-9.890262e-02
3.491116e-01		4.905532e-03		-1.000298e-01
3.481115e-01		3.250815e-03		-1.004092e-01
3.475216e-01		1.619935e-03		-1.005592e-01
3.473264e-01		-4.937895e-16		-1.005697e-01
3.475216e-01		-1.619935e-03		-1.005592e-01
3.481115e-01		-3.250815e-03		-1.004092e-01
3.491116e-01		-4.905532e-03		-1.000298e-01
3.505357e-01		-6.566448e-03		-9.890262e-02
3.737743e-01		-8.147375e-03		9.374964e-02
3.707707e-01		-4.022931e-03		9.518244e-02
3.698038e-01		2.051503e-15		9.531835e-02
3.707707e-01		4.022931e-03		9.518244e-02
3.737743e-01		8.147375e-03		9.374964e-02
3.768716e-01		-4.083874e-03		4.498743e-02
3.739432e-01		-2.042960e-03		4.609568e-02
3.730322e-01		1.457736e-15		4.633128e-02
3.739432e-01		2.042960e-03		4.609568e-02
3.768716e-01		4.083874e-03		4.498743e-02
3.779143e-01		5.633972e-16		7.057605e-16
3.749914e-01		6.680287e-16		8.139958e-16
3.740975e-01		7.697118e-16		1.196654e-15
3.749914e-01		9.504969e-16		1.476074e-15
3.779143e-01		9.954325e-16		1.728232e-15
3.768716e-01		4.083874e-03		-4.498743e-02
3.739432e-01		2.042960e-03		-4.609568e-02
3.730322e-01		6.685470e-17		-4.633128e-02
3.739432e-01		-2.042960e-03		-4.609568e-02
3.768716e-01		-4.083874e-03		-4.498743e-02
3.737743e-01		8.147375e-03		-9.374964e-02
3.707707e-01		4.022931e-03		-9.518244e-02
3.698038e-01		-6.033602e-16		-9.531835e-02
3.707707e-01		-4.022931e-03		-9.518244e-02
3.737743e-01		-8.147375e-03		-9.374964e-02
3.957321e-01		-9.658421e-03		8.750500e-02
3.936345e-01		-7.199986e-03		8.850941e-02
3.921792e-01		-4.748416e-03		8.880675e-02
3.913255e-01		-2.363904e-03		8.891085e-02
3.910450e-01		1.782268e-15		8.889667e-02
3.913255e-01		2.363904e-03		8.891085e-02
3.921792e-01		4.748416e-03		8.880675e-02
3.936345e-01		7.199986e-03		8.850941e-02
3.957321e-01		9.658421e-03		8.750500e-02
3.978842e-01		-7.250596e-03		6.393586e-02
3.944155e-01		-3.597015e-03		6.532488e-02
3.933336e-01		1.473816e-15		6.552616e-02
3.944155e-01		3.597015e-03		6.532488e-02
3.978842e-01		7.250596e-03		6.393586e-02
3.994310e-01		-4.841473e-03		4.190699e-02
3.973874e-01		-3.640426e-03		4.256761e-02
3.960099e-01		-2.419709e-03		4.291718e-02
3.952221e-01		-1.209695e-03		4.307974e-02
3.949696e-01		1.179692e-15		4.310551e-02
3.952221e-01		1.209695e-03		4.307974e-02
3.960099e-01		2.419709e-03		4.291718e-02
3.973874e-01		3.640426e-03		4.256761e-02
3.994310e-01		4.841473e-03		4.190699e-02
4.003727e-01		-2.428114e-03		2.074329e-02
3.969630e-01		-1.218263e-03		2.127553e-02
3.959478e-01		9.561900e-16		2.138813e-02
3.969630e-01		1.218263e-03		2.127553e-02
4.003727e-01		2.428114e-03		2.074329e-02
4.007023e-01		4.312928e-16		6.728566e-16
3.986517e-01		4.533453e-16		6.699817e-16
3.972924e-01		5.564169e-16		7.270958e-16
3.965265e-01		5.905230e-16		8.605561e-16
3.962847e-01		6.035249e-16		1.124694e-15
3.965265e-01		7.085788e-16		1.223330e-15
3.972924e-01		7.684395e-16		1.407900e-15
3.986517e-01		8.526537e-16		1.490878e-15
4.007023e-01		8.396410e-16		1.578534e-15
4.003727e-01		2.428114e-03		-2.074329e-02
3.969630e-01		1.218263e-03		-2.127553e-02
3.959478e-01		2.719195e-16		-2.138813e-02
3.969630e-01		-1.218263e-03		-2.127553e-02
4.003727e-01		-2.428114e-03		-2.074329e-02
3.994310e-01		4.841473e-03		-4.190699e-02
3.973874e-01		3.640426e-03		-4.256761e-02
3.960099e-01		2.419709e-03		-4.291718e-02
3.952221e-01		1.209695e-03		-4.307974e-02
3.949696e-01		-6.585664e-17		-4.310551e-02
3.952221e-01		-1.209695e-03		-4.307974e-02
3.960099e-01		-2.419709e-03		-4.291718e-02
3.973874e-01		-3.640426e-03		-4.256761e-02
3.994310e-01		-4.841473e-03		-4.190699e-02
3.978842e-01		7.250596e-03		-6.393586e-02
3.944155e-01		3.597015e-03		-6.532488e-02
3.933336e-01		-3.306570e-16		-6.552616e-02
3.944155e-01		-3.597015e-03		-6.532488e-02
3.978842e-01		-7.250596e-03		-6.393586e-02
3.957321e-01		9.658421e-03		-8.750500e-02
3.936345e-01		7.199986e-03		-8.850941e-02
3.921792e-01		4.748416e-03		-8.880675e-02
3.913255e-01		2.363904e-03		-8.891085e-02
3.910450e-01		-6.916610e-16		-8.889667e-02
3.913255e-01		-2.363904e-03		-8.891085e-02
3.921792e-01		-4.748416e-03		-8.880675e-02
3.936345e-01		-7.199986e-03		-8.850941e-02
3.957321e-01		-9.658421e-03		-8.750500e-02
4.161305e-01		-1.106697e-02		8.015807e-02
4.120702e-01		-5.411616e-03		8.127185e-02
4.107821e-01		1.512103e-15		8.129506e-02
4.120702e-01		5.411616e-03		8.127185e-02
4.161305e-01		1.106697e-02		8.015807e-02
4.204319e-01		-5.549454e-03		3.830833e-02
4.165853e-01		-2.768004e-03		3.917300e-02
4.154463e-01		1.056097e-15		3.929739e-02
4.165853e-01		2.768004e-03		3.917300e-02
4.204319e-01		5.549454e-03		3.830833e-02
4.219502e-01		4.392860e-16		4.742163e-16
4.181183e-01		4.677496e-16		5.648184e-16
4.170339e-01		5.456482e-16		9.407453e-16
4.181183e-01		6.501742e-16		1.213604e-15
4.219502e-01		6.299550e-16		1.403181e-15
4.204319e-01		5.549454e-03		-3.830833e-02
4.165853e-01		2.768004e-03		-3.917300e-02
4.154463e-01		-4.330366e-17		-3.929739e-02
4.165853e-01		-2.768004e-03		-3.917300e-02
4.204319e-01		-5.549454e-03		-3.830833e-02
4.161305e-01		1.106697e-02		-8.015807e-02
4.120702e-01		5.411616e-03		-8.127185e-02
4.107821e-01		-6.438506e-16		-8.129506e-02
4.120702e-01		-5.411616e-03		-8.127185e-02
4.161305e-01		-1.106697e-02		-8.015807e-02
4.346867e-01		-1.229128e-02		7.178798e-02
4.320305e-01		-9.066762e-03		7.249577e-02
4.302057e-01		-5.935035e-03		7.261116e-02
4.291404e-01		-2.924133e-03		7.255448e-02
4.287843e-01		1.217596e-15		7.252270e-02
4.291404e-01		2.924133e-03		7.255448e-02
4.302057e-01		5.935035e-03		7.261116e-02
4.320305e-01		9.066762e-03		7.249577e-02
4.346867e-01		1.229128e-02		7.178798e-02
4.375422e-01		-9.226520e-03		5.230982e-02
4.332662e-01		-4.511068e-03		5.318536e-02
4.319827e-01		1.141670e-15		5.318244e-02
4.332662e-01		4.511068e-03		5.318536e-02
4.375422e-01		9.226520e-03		5.230982e-02
4.396031e-01		-6.176641e-03		3.419119e-02
4.370671e-01		-4.620182e-03		3.465252e-02
4.354463e-01		-3.052531e-03		3.482424e-02
4.345458e-01		-1.506222e-03		3.484421e-02
4.342688e-01		9.156300e-16		3.483977e-02
4.345458e-01		1.506222e-03		3.484421e-02
4.354463e-01		3.052531e-03		3.482424e-02
4.370671e-01		4.620182e-03		3.465252e-02
4.396031e-01		6.176641e-03		3.419119e-02
4.409363e-01		-3.107510e-03		1.686724e-02
4.368110e-01		-1.546153e-03		1.720004e-02
4.357042e-01		6.704394e-16		1.720752e-02
4.368110e-01		1.546153e-03		1.720004e-02
4.409363e-01		3.107510e-03		1.686724e-02
4.413923e-01		4.229491e-16		2.929631e-16
4.388342e-01		3.751297e-16		3.527647e-16
4.372571e-01		3.585138e-16		4.497220e-16
4.364193e-01		3.497974e-16		6.716916e-16
4.361681e-01		4.943134e-16		7.108624e-16
4.364193e-01		5.554876e-16		9.404949e-16
4.372571e-01		5.295176e-16		1.093489e-15
4.388342e-01		4.721041e-16		1.152833e-15
4.413923e-01		4.188512e-16		1.335983e-15
4.409363e-01		3.107510e-03		-1.686724e-02
4.368110e-01		1.546153e-03		-1.720004e-02
4.357042e-01		1.869328e-16		-1.720752e-02
4.368110e-01		-1.546153e-03		-1.720004e-02
4.409363e-01		-3.107510e-03		-1.686724e-02
4.396031e-01		6.176641e-03		-3.419119e-02
4.370671e-01		4.620182e-03		-3.465252e-02
4.354463e-01		3.052531e-03		-3.482424e-02
4.345458e-01		1.506222e-03		-3.484421e-02
4.342688e-01		-1.424196e-16		-3.483977e-02
4.345458e-01		-1.506222e-03		-3.484421e-02
4.354463e-01		-3.052531e-03		-3.482424e-02
4.370671e-01		-4.620182e-03		-3.465252e-02
4.396031e-01		-6.176641e-03		-3.419119e-02
4.375422e-01		9.226520e-03		-5.230982e-02
4.332662e-01		4.511068e-03		-5.318536e-02
4.319827e-01		-3.119352e-16		-5.318244e-02
4.332662e-01		-4.511068e-03		-5.318536e-02
4.375422e-01		-9.226520e-03		-5.230982e-02
4.346867e-01		1.229128e-02		-7.178798e-02
4.320305e-01		9.066762e-03		-7.249577e-02
4.302057e-01		5.935035e-03		-7.261116e-02
4.291404e-01		2.924133e-03		-7.255448e-02
4.287843e-01		-5.205997e-16		-7.252270e-02
4.291404e-01		-2.924133e-03		-7.255448e-02
4.302057e-01		-5.935035e-03		-7.261116e-02
4.320305e-01		-9.066762e-03		-7.249577e-02
4.346867e-01		-1.229128e-02		-7.178798e-02
4.512013e-01		-1.316013e-02		6.250830e-02
4.464187e-01		-6.218987e-03		6.282701e-02
4.449133e-01		1.052554e-15		6.261440e-02
4.464187e-01		6.218987e-03		6.282701e-02
4.512013e-01		1.316013e-02		6.250830e-02
4.566848e-01		-6.647615e-03		2.952454e-02
4.523763e-01		-3.218800e-03		2.979702e-02
4.512250e-01		7.406482e-16		2.967856e-02
4.523763e-01		3.218800e-03		2.979702e-02
4.566848e-01		6.647615e-03		2.952454e-02
4.587696e-01		3.129726e-16		2.409739e-16
4.544828e-01		2.505575e-16		4.310376e-16
4.534486e-01		3.772224e-16		7.054780e-16
4.544828e-01		4.175657e-16		1.031062e-15
4.587696e-01		3.640454e-16		1.112503e-15
4.566848e-01		6.647615e-03		-2.952454e-02
4.523763e-01		3.218800e-03		-2.979702e-02
4.512250e-01		-1.863377e-16		-2.967856e-02
4.523763e-01		-3.218800e-03		-2.979702e-02
4.566848e-01		-6.647615e-03		-2.952454e-02
4.512013e-01		1.316013e-02		-6.250830e-02
4.464187e-01		6.218987e-03		-6.282701e-02
4.449133e-01		-5.544612e-16		-6.261440e-02
4.464187e-01		-6.218987e-03		-6.282701e-02
4.512013e-01		-1.316013e-02		-6.250830e-02
4.654304e-01		-1.356567e-02		5.249696e-02
4.624872e-01		-9.888116e-03		5.244180e-02
4.604793e-01		-6.093691e-03		5.202683e-02
4.593321e-01		-2.947387e-03		5.190226e-02
4.589735e-01		8.026561e-16		5.182539e-02
4.593321e-01		2.947387e-03		5.190226e-02
4.604793e-01		6.093691e-03		5.202683e-02
4.624872e-01		9.888116e-03		5.244180e-02
4.654304e-01		1.356567e-02		5.249696e-02
4.687053e-01		-1.026418e-02		3.792485e-02
4.642306e-01		-4.625748e-03		3.756391e-02
4.629595e-01		7.242431e-16		3.731745e-02
4.642306e-01		4.625748e-03		3.756391e-02
4.687053e-01		1.026418e-02		3.792485e-02
4.714231e-01		-6.957186e-03		2.433786e-02
4.687931e-01		-5.133796e-03		2.436265e-02
4.672271e-01		-3.163262e-03		2.403130e-02
4.664211e-01		-1.520458e-03		2.388826e-02
4.661801e-01		6.138743e-16		2.382501e-02
4.664211e-01		1.520458e-03		2.388826e-02
4.672271e-01		3.163262e-03		2.403130e-02
4.687931e-01		5.133796e-03		2.436265e-02
4.714231e-01		6.957186e-03		2.433786e-02
4.730813e-01		-3.561912e-03		1.195000e-02
4.689004e-01		-1.616640e-03		1.178547e-02
4.679790e-01		4.623966e-16		1.166162e-02
4.689004e-01		1.616640e-03		1.178547e-02
4.730813e-01		3.561912e-03		1.195000e-02
4.736698e-01		1.625329e-16		2.921999e-16
4.709074e-01		2.508791e-16		4.044673e-16
4.694479e-01		2.059296e-16		4.395174e-16
4.687466e-01		1.614886e-16		5.010325e-16
4.685391e-01		2.735532e-16		6.707336e-16
4.687466e-01		3.039469e-16		7.430185e-16
4.694479e-01		3.640929e-16		8.446955e-16
4.709074e-01		4.456428e-16		9.126583e-16
4.736698e-01		4.897746e-16		8.961683e-16
4.730813e-01		3.561912e-03		-1.195000e-02
4.689004e-01		1.616640e-03		-1.178547e-02
4.679790e-01		-2.645268e-17		-1.166162e-02
4.689004e-01		-1.616640e-03		-1.178547e-02
4.730813e-01		-3.561912e-03		-1.195000e-02
4.714231e-01		6.957186e-03		-2.433786e-02
4.687931e-01		5.133796e-03		-2.436265e-02
4.672271e-01		3.163262e-03		-2.403130e-02
4.664211e-01		1.520458e-03		-2.388826e-02
4.661801e-01		-2.243738e-16		-2.382501e-02
4.664211e-01		-1.520458e-03		-2.388826e-02
4.672271e-01		-3.163262e-03		-2.403130e-02
4.687931e-01		-5.133796e-03		-2.436265e-02
4.714231e-01		-6.957186e-03		-2.433786e-02
4.687053e-01		1.026418e-02		-3.792485e-02
4.642306e-01		4.625748e-03		-3.756391e-02
4.629595e-01		-3.323450e-16		-3.731745e-02
4.642306e-01		-4.625748e-03		-3.756391e-02
4.687053e-01		-1.026418e-02		-3.792485e-02
4.654304e-01		1.356567e-02		-5.249696e-02
4.624872e-01		9.888116e-03		-5.244180e-02
4.604793e-01		6.093691e-03		-5.202683e-02
4.593321e-01		2.947387e-03		-5.190226e-02
4.589735e-01		-4.371439e-16		-5.182539e-02
4.593321e-01		-2.947387e-03		-5.190226e-02
4.604793e-01		-6.093691e-03		-5.202683e-02
4.624872e-01		-9.888116e-03		-5.244180e-02
4.654304e-01		-1.356567e-02		-5.249696e-02
4.769890e-01		-1.340673e-02		4.214988e-02
4.720831e-01		-5.564202e-03		4.074766e-02
4.707122e-01		6.676017e-16		4.054067e-02
4.720831e-01		5.564202e-03		4.074766e-02
4.769890e-01		1.340673e-02		4.214988e-02
4.834533e-01		-7.058226e-03		1.907918e-02
4.796624e-01		-2.901301e-03		1.794947e-02
4.787744e-01		4.545619e-16		1.760972e-02
4.796624e-01		2.901301e-03		1.794947e-02
4.834533e-01		7.058226e-03		1.907918e-02
4.857163e-01		-1.906463e-17		1.551044e-16
4.818693e-01		1.324798e-16		3.941865e-16
4.811303e-01		1.281465e-16		4.543012e-16
4.818693e-01		3.148377e-16		5.900957e-16
4.857163e-01		5.636007e-16		6.779028e-16
4.834533e-01		7.058226e-03		-1.907918e-02
4.796624e-01		2.901301e-03		-1.794947e-02
4.787744e-01		-1.776704e-16		-1.760972e-02
4.796624e-01		-2.901301e-03		-1.794947e-02
4.834533e-01		-7.058226e-03		-1.907918e-02
4.769890e-01		1.340673e-02		-4.214988e-02
4.720831e-01		5.564202e-03		-4.074766e-02
4.707122e-01		-4.287892e-16		-4.054067e-02
4.720831e-01		-5.564202e-03		-4.074766e-02
4.769890e-01		-1.340673e-02		-4.214988e-02
4.861900e-01		-1.176176e-02		3.043504e-02
4.836188e-01		-7.306919e-03		2.843941e-02
4.820205e-01		-4.432541e-03		2.846257e-02
4.812694e-01		-1.925000e-03		2.825904e-02
4.810365e-01		5.536429e-16		2.826950e-02
4.812694e-01		1.925000e-03		2.825904e-02
4.820205e-01		4.432541e-03		2.846257e-02
4.836188e-01		7.306919e-03		2.843941e-02
4.861900e-01		1.176176e-02		3.043504e-02
4.904465e-01		-9.005271e-03		2.109239e-02
4.871264e-01		-3.342467e-03		1.856472e-02
4.863188e-01		4.036110e-16		1.811611e-02
4.871264e-01		3.342467e-03		1.856472e-02
4.904465e-01		9.005271e-03		2.109239e-02
4.925379e-01		-6.313274e-03		1.341626e-02
4.904068e-01		-3.886514e-03		1.201501e-02
4.894691e-01		-2.299480e-03		1.167507e-02
4.889335e-01		-9.737628e-04		1.137150e-02
4.887650e-01		2.692450e-16		1.131832e-02
4.889335e-01		9.737628e-04		1.137150e-02
4.894691e-01		2.299480e-03		1.167507e-02
4.904068e-01		3.886514e-03		1.201501e-02
4.925379e-01		6.313274e-03		1.341626e-02
4.940379e-01		-3.225746e-03		6.368744e-03
4.909706e-01		-1.173291e-03		5.456279e-03
4.903743e-01		1.310071e-16		5.258059e-03
4.909706e-01		1.173291e-03		5.456279e-03
4.940379e-01		3.225746e-03		6.368744e-03
4.945565e-01		2.420725e-17		1.667042e-16
4.922831e-01		1.378677e-16		2.106845e-16
4.914438e-01		1.206479e-16		2.138575e-16
4.909920e-01		7.848757e-17		2.503047e-16
4.908653e-01		4.818035e-17		2.235160e-16
4.909920e-01		9.915256e-17		2.859605e-16
4.914438e-01		2.018408e-16		3.722011e-16
4.922831e-01		3.668001e-16		4.624667e-16
4.945565e-01		6.000753e-16		6.444783e-16
4.940379e-01		3.225746e-03		-6.368744e-03
4.909706e-01		1.173291e-03		-5.456279e-03
4.903743e-01		-1.339356e-17		-5.258059e-03
4.909706e-01		-1.173291e-03		-5.456279e-03
4.940379e-01		-3.225746e-03		-6.368744e-03
4.925379e-01		6.313274e-03		-1.341626e-02
4.904068e-01		3.886514e-03		-1.201501e-02
4.894691e-01		2.299480e-03		-1.167507e-02
4.889335e-01		9.737628e-04		-1.137150e-02
4.887650e-01		-1.788835e-16		-1.131832e-02
4.889335e-01		-9.737628e-04		-1.137150e-02
4.894691e-01		-2.299480e-03		-1.167507e-02
4.904068e-01		-3.886514e-03		-1.201501e-02
4.925379e-01		-6.313274e-03		-1.341626e-02
4.904465e-01		9.005271e-03		-2.109239e-02
4.871264e-01		3.342467e-03		-1.856472e-02
4.863188e-01		-1.842500e-16		-1.811611e-02
4.871264e-01		-3.342467e-03		-1.856472e-02
4.904465e-01		-9.005271e-03		-2.109239e-02
4.861900e-01		1.176176e-02		-3.043504e-02
4.836188e-01		7.306919e-03		-2.843941e-02
4.820205e-01		4.432541e-03		-2.846257e-02
4.812694e-01		1.925000e-03		-2.825904e-02
4.810365e-01		-3.341759e-16		-2.826950e-02
4.812694e-01		-1.925000e-03		-2.825904e-02
4.820205e-01		-4.432541e-03		-2.846257e-02
4.836188e-01		-7.306919e-03		-2.843941e-02
4.861900e-01		-1.176176e-02		-3.043504e-02
4.932113e-01		-7.941817e-03		1.613756e-02
4.911370e-01		-2.119759e-03		1.403871e-02
4.906355e-01		3.009994e-16		1.453489e-02
4.911370e-01		2.119759e-03		1.403871e-02
4.932113e-01		7.941817e-03		1.613756e-02
4.986926e-01		-4.035971e-03		6.630638e-03
4.967573e-01		-1.071257e-03		4.903464e-03
4.965173e-01		1.162132e-16		4.980789e-03
4.967573e-01		1.071257e-03		4.903464e-03
4.986926e-01		4.035971e-03		6.630638e-03
4.992600e-01		-4.885290e-17		1.325717e-16
4.973013e-01		4.380209e-17		5.661932e-17
4.970558e-01		-3.286725e-17		8.076015e-17
4.973013e-01		5.792425e-17		1.642794e-16
4.992600e-01		3.311058e-16		3.589728e-16
4.986926e-01		4.035971e-03		-6.630638e-03
4.967573e-01		1.071257e-03		-4.903464e-03
4.965173e-01		-9.788035e-17		-4.980789e-03
4.967573e-01		-1.071257e-03		-4.903464e-03
4.986926e-01		-4.035971e-03		-6.630638e-03
4.932113e-01		7.941817e-03		-1.613756e-02
4.911370e-01		2.119759e-03		-1.403871e-02
4.906355e-01		-2.296825e-16		-1.453489e-02
4.911370e-01		-2.119759e-03		-1.403871e-02
4.932113e-01		-7.941817e-03		-1.613756e-02
5.000000e-01		0.000000e+00		0.000000e+00
5.000000e-01		0.000000e+00		0.000000e+00
5.000000e-01		0.000000e+00		0.000000e+00
5.000000e-01		0.000000e+00		0.000000e+00
5.000000e-01		0.000000e+00		0.000000e+00
5.000000e-01		0.000000e+00		0.000000e+00
5.000000e-01		0.000000e+00		0.000000e+00
5.000000e-01		0.000000e+00		0.000000e+00
5.000000e-01		0.000000e+00		0.000000e+00
5.000000e-01		0.000000e+00		0.000000e+00
5.000000e-01		0.000000e+00		0.000000e+00
5.000000e-01		0.000000e+00		0.000000e+00
5.000000e-01		0.000000e+00		0.000000e+00
5.000000e-01		0.000000e+00		0.000000e+00
5.000000e-01		0.000000e+00		0.000000e+00
5.000000e-01		0.000000e+00		0.000000e+00
5.000000e-01		0.000000e+00		0.000000e+00
5.000000e-01		0.000000e+00		0.000000e+00
5.000000e-01		0.000000e+00		0.000000e+00
5.000000e-01		0.000000e+00		0.000000e+00
5.000000e-01		0.000000e+00		0.000000e+00
5.000000e-01		0.000000e+00		0.000000e+00
5.000000e-01		0.000000e+00		0.000000e+00
5.000000e-01		0.000000e+00		0.000000e+00
5.000000e-01		0.000000e+00		0.000000e+00
5.000000e-01		0.000000e+00		0.000000e+00
5.000000e-01		0.000000e+00		0.000000e+00
5.000000e-01		0.000000e+00		0.000000e+00
5.000000e-01		0.000000e+00		0.000000e+00
5.000000e-01		0.000000e+00		0.000000e+00
5.000000e-01		0.000000e+00		0.000000e+00
5.000000e-01		0.000000e+00		0.000000e+00
5.000000e-01		0.000000e+00		0.000000e+00
5.000000e-01		0.000000e+00		0.000000e+00
5.000000e-01		0.000000e+00		0.000000e+00
5.000000e-01		0.000000e+00		0.000000e+00
5.000000e-01		0.000000e+00		0.000000e+00
5.000000e-01		0.000000e+00		0.000000e+00
5.000000e-01		0.000000e+00		0.000000e+00
5.000000e-01		0.000000e+00		0.000000e+00
5.000000e-01		0.000000e+00		0.000000e+00
5.000000e-01		0.000000e+00		0.000000e+00
5.000000e-01		0.000000e+00		0.000000e+00
5.000000e-01		0.000000e+00		0.000000e+00
5.000000e-01		0.000000e+00		0.000000e+00
5.000000e-01		0.000000e+00		0.000000e+00
5.000000e-01		0.000000e+00		0.000000e+00
5.000000e-01		0.000000e+00		0.000000e+00
5.000000e-01		0.000000e+00		0.000000e+00
5.000000e-01		0.000000e+00		0.000000e+00
5.000000e-01		0.000000e+00		0.000000e+00
5.000000e-01		0.000000e+00		0.000000e+00
5.000000e-01		0.000000e+00		0.000000e+00
5.000000e-01		0.000000e+00		0.000000e+00
5.000000e-01		0.000000e+00		0.000000e+00
5.000000e-01		0.000000e+00		0.000000e+00
5.000000e-01		0.000000e+00		0.000000e+00
5.000000e-01		0.000000e+00		0.000000e+00
5.000000e-01		0.000000e+00		0.000000e+00
5.000000e-01		0.000000e+00		0.000000e+00
5.000000e-01		0.000000e+00		0.000000e+00
5.000000e-01		0.000000e+00		0.000000e+00
5.000000e-01		0.000000e+00		0.000000e+00
5.000000e-01		0.000000e+00		0.000000e+00
5.000000e-01		0.000000e+00		0.000000e+00
VECTORS force double
-3.778611e+07		-3.308515e+07		1.211239e+07
-1.799739e+08		-6.387590e+07		-5.247175e+08
-6.737997e+07		1.095432e+07		8.202554e+07
-2.017050e+08		-3.266005e+07		-5.697097e+08
-6.747586e+07		1.192093e-06		8.431886e+07
-2.017050e+08		3.266005e+07		-5.697097e+08
-6.737997e+07		-1.095432e+07		8.202554e+07
-1.799739e+08		6.387590e+07		-5.247175e+08
-3.778611e+07		3.308515e+07		1.211239e+07
1.941202e+06		-1.810897e+08		-4.678578e+08
-5.773652e+07		-1.057093e+08		-7.267565e+08
-7.238231e+07		-5.275011e-06		-7.359466e+08
-5.773652e+07		1.057093e+08		-7.267565e+08
1.941202e+06		1.810897e+08		-4.678578e+08
1.000739e+07		-1.797908e+07		7.909712e+07
-5.116961e+07		-7.426742e+07		-4.706006e+08
1.078847e+07		2.277699e+07		2.382397e+08
-1.034122e+08		-3.747146e+07		-4.914257e+08
2.330846e+07		1.598673e-06		2.473873e+08
-1.034122e+08		3.747146e+07		-4.914257e+08
1.078847e+07		-2.277699e+07		2.382397e+08
-5.116961e+07		7.426742e+07		-4.706006e+08
1.000739e+07		1.797908e+07		7.909712e+07
7.613523e+06		-5.735728e+07		-1.580305e+08
-6.062965e+07		-3.327049e+07		-2.428118e+08
-8.579172e+07		-2.075243e-06		-2.441246e+08
-6.062965e+07		3.327049e+07		-2.428118e+08
7.613523e+06		5.735728e+07		-1.580305e+08
1.770182e+07		-6.854534e-07		1.698732e-06
-1.360173e+07		-1.661479e-06		-1.129881e-05
2.699385e+07		5.066395e-07		4.805624e-06
-7.368873e+07		-1.206994e-06		-8.005649e-06
4.591588e+07		2.942979e-07		3.427267e-06
-7.368873e+07		7.450581e-09		-4.943460e-06
2.699385e+07		-3.725290e-08		1.996756e-06
-1.360173e+07		4.097819e-07		-2.443790e-06
1.770182e+07		6.228220e-08		7.152557e-07
7.613523e+06		5.735728e+07		1.580305e+08
-6.062965e+07		3.327049e+07		2.428118e+08
-8.579172e+07		9.983778e-07		2.441246e+08
-6.062965e+07		-3.327049e+07		2.428118e+08
7.613523e+06		-5.735728e+07		1.580305e+08
1.000739e+07		1.797908e+07		-7.909712e+07
-5.116961e+07		7.426742e+07		4.706006e+08
1.078847e+07		-2.277699e+07		-2.382397e+08
-1.034122e+08		3.747146e+07		4.914257e+08
2.330846e+07		-1.080334e-06		-2.473873e+08
-1.034122e+08		-3.747146e+07		4.914257e+08
1.078847e+07		2.277699e+07		-2.382397e+08
-5.116961e+07		-7.426742e+07		4.706006e+08
1.000739e+07		-1.797908e+07		-7.909712e+07
1.941202e+06		1.810897e+08		4.678578e+08
-5.773652e+07		1.057093e+08		7.267565e+08
-7.238231e+07		4.380941e-06		7.359466e+08
-5.773652e+07		-1.057093e+08		7.267565e+08
1.941202e+06		-1.810897e+08		4.678578e+08
-3.778611e+07		3.308515e+07		-1.211239e+07
-1.799739e+08		6.387590e+07		5.247175e+08
-6.737997e+07		-1.095432e+07		-8.202554e+07
-2.017050e+08		3.266005e+07		5.697097e+08
-6.747586e+07		-5.858019e-07		-8.431886e+07
-2.017050e+08		-3.266005e+07		5.697097e+08
-6.737997e+07		1.095432e+07		-8.202554e+07
-1.799739e+08		-6.387590e+07		5.247175e+08
-3.778611e+07		-3.308515e+07		-1.211239e+07
0.000000e+00		0.000000e+00		0.000000e+00
0.000000e+00		0.000000e+00		0.000000e+00
0.000000e+00		0.000000e+00		0.000000e+00
0.000000e+00		0.000000e+00		0.000000e+00
0.000000e+00		0.000000e+00		0.000000e+00
0.000000e+00		0.000000e+00		0.000000e+00
0.000000e+00		0.000000e+00		0.000000e+00
0.000000e+00		0.000000e+00		0.000000e+00
0.000000e+00		0.000000e+00		0.000000e+00
0.000000e+00		0.000000e+00		0.000000e+00
0.000000e+00		0.000000e+00		0.000000e+00
0.000000e+00		0.000000e+00		0.000000e+00
0.000000e+00		0.000000e+00		0.000000e+00
0.000000e+00		0.000000e+00		0.000000e+00
0.000000e+00		0.000000e+00		0.000000e+00
0.000000e+00		0.000000e+00		0.000000e+00
0.000000e+00		0.000000e+00		0.000000e+00
0.000000e+00		0.000000e+00		0.000000e+00
0.000000e+00		0.000000e+00		0.000000e+00
0.000000e+00		0.000000e+00		0.000000e+00
0.000000e+00		0.000000e+00		0.000000e+00
0.000000e+00		0.000000e+00		0.000000e+00
0.000000e+00		0.000000e+00		0.000000e+00
0.000000e+00		0.000000e+00		0.000000e+00
0.000000e+00		0.000000e+00		0.000000e+00
0.000000e+00		0.000000e+00		0.000000e+00
0.000000e+00		0.000000e+00		0.000000e+00
0.000000e+00		0.000000e+00		0.000000e+00
0.000000e+00		0.000000e+00		0.000000e+00
0.000000e+00		0.000000e+00		0.000000e+00
0.000000e+00		0.000000e+00		0.000000e+00
0.000000e+00		0.000000e+00		0.000000e+00
0.000000e+00		0.000000e+00		0.000000e+00
0.000000e+00		0.000000e+00		0.000000e+00
0.000000e+00		0.000000e+00		0.000000e+00
0.000000e+00		0.000000e+00		0.000000e+00
0.000000e+00		0.000000e+00		0.000000e+00
0.000000e+00		0.000000e+00		0.000000e+00
0.000000e+00		0.000000e+00		0.000000e+00
0.000000e+00		0.000000e+00		0.000000e+00
0.000000e+00		0.000000e+00		0.000000e+00
0.000000e+00		0.000000e+00		0.000000e+00
0.000000e+00		0.000000e+00		0.000000e+00
0.000000e+00		0.000000e+00		0.000000e+00
0.000000e+00		0.000000e+00		0.000000e+00
0.000000e+00		0.000000e+00		0.000000e+00
0.000000e+00		0.000000e+00		0.000000e+00
0.000000e+00		0.000000e+00		0.000000e+00
0.000000e+00		0.000000e+00		0.000000e+00
0.000000e+00		0.000000e+00		0.000000e+00
0.000000e+00		0.000000e+00		0.000000e+00
0.000000e+00		0.000000e+00		0.000000e+00
0.000000e+00		0.000000e+00		0.000000e+00
0.000000e+00		0.000000e+00		0.000000e+00
0.000000e+00		0.000000e+00		0.000000e+00
0.000000e+00		0.000000e+00		0.000000e+00
0.000000e+00		0.000000e+00		0.000000e+00
0.000000e+00		0.000000e+00		0.000000e+00
0.000000e+00		0.000000e+00		0.000000e+00
0.000000e+00		0.000000e+00		0.000000e+00
0.000000e+00		0.000000e+00		0.000000e+00
0.000000e+00		0.000000e+00		0.000000e+00
0.000000e+00		0.000000e+00		0.000000e+00
0.000000e+00		0.000000e+00		0.000000e+00
0.000000e+00		0.000000e+00		0.000000e+00
0.000000e+00		0.000000e+00		0.000000e+00
0.000000e+00		0.000000e+00		0.000000e+00
0.000000e+00		0.000000e+00		0.000000e+00
0.000000e+00		0.000000e+00		0.000000e+00
0.000000e+00		0.000000e+00		0.000000e+00
0.000000e+00		0.000000e+00		0.000000e+00
0.000000e+00		0.000000e+00		0.000000e+00
0.000000e+00		0.000000e+00		0.000000e+00
0.000000e+00		0.000000e+00		0.000000e+00
0.000000e+00		0.000000e+00		0.000000e+00
0.000000e+00		0.000000e+00		0.000000e+00
0.000000e+00		0.000000e+00		0.000000e+00
0.000000e+00		0.000000e+00		0.000000e+00
0.000000e+00		0.000000e+00		0.000000e+00
0.000000e+00		0.000000e+00		0.000000e+00
0.000000e+00		0.000000e+00		0.000000e+00
0.000000e+00		0.000000e+00		0.000000e+00
0.000000e+00		0.000000e+00		0.000000e+00
0.000000e+00		0.000000e+00		0.000000e+00
0.000000e+00		0.000000e+00		0.000000e+00
0.000000e+00		0.000000e+00		0.000000e+00
0.000000e+00		0.000000e+00		0.000000e+00
0.000000e+00		0.000000e+00		0.000000e+00
0.000000e+00		0.000000e+00		0.000000e+00
0.000000e+00		0.000000e+00		0.000000e+00
0.000000e+00		0.000000e+00		0.000000e+00
0.000000e+00		0.000000e+00		0.000000e+00
0.000000e+00		0.000000e+00		0.000000e+00
0.000000e+00		0.000000e+00		0.000000e+00
0.000000e+00		0.000000e+00		0.000000e+00
0.000000e+00		0.000000e+00		0.000000e+00
0.000000e+00		0.000000e+00		0.000000e+00
0.000000e+00		0.000000e+00		0.000000e+00
0.000000e+00		0.000000e+00		0.000000e+00
0.000000e+00		0.000000e+00		0.000000e+00
0.000000e+00		0.000000e+00		0.000000e+00
0.000000e+00		0.000000e+00		0.000000e+00
0.000000e+00		0.000000e+00		0.000000e+00
0.000000e+00		0.000000e+00		0.000000e+00
0.000000e+00		0.000000e+00		0.000000e+00
0.000000e+00		0.000000e+00		0.000000e+00
0.000000e+00		0.000000e+00		0.000000e+00
0.000000e+00		0.000000e+00		0.000000e+00
0.000000e+00		0.000000e+00		0.000000e+00
0.000000e+00		0.000000e+00		0.000000e+00
0.000000e+00		0.000000e+00		0.000000e+00
0.000000e+00		0.000000e+00		0.000000e+00
0.000000e+00		0.000000e+00		0.000000e+00
0.000000e+00		0.000000e+00		0.000000e+00
0.000000e+00		0.000000e+00		0.000000e+00
0.000000e+00		0.000000e+00		0.000000e+00
0.000000e+00		0.000000e+00		0.000000e+00
0.000000e+00		0.000000e+00		0.000000e+00
0.000000e+00		0.000000e+00		0.000000e+00
0.000000e+00		0.000000e+00		0.000000e+00
0.000000e+00		0.000000e+00		0.000000e+00
0.000000e+00		0.000000e+00		0.000000e+00
0.000000e+00		0.000000e+00		0.000000e+00
0.000000e+00		0.000000e+00		0.000000e+00
0.000000e+00		0.000000e+00		0.000000e+00
0.000000e+00		0.000000e+00		0.000000e+00
0.000000e+00		0.000000e+00		0.000000e+00
0.000000e+00		0.000000e+00		0.000000e+00
0.000000e+00		0.000000e+00		0.000000e+00
0.000000e+00		0.000000e+00		0.000000e+00
0.000000e+00		0.000000e+00		0.000000e+00
0.000000e+00		0.000000e+00		0.000000e+00
0.000000e+00		0.000000e+00		0.000000e+00
0.000000e+00		0.000000e+00		0.000000e+00
0.000000e+00		0.000000e+00		0.000000e+00
0.000000e+00		0.000000e+00		0.000000e+00
0.000000e+00		0.000000e+00		0.000000e+00
0.000000e+00		0.000000e+00		0.000000e+00
0.000000e+00		0.000000e+00		0.000000e+00
0.000000e+00		0.000000e+00		0.000000e+00
0.000000e+00		0.000000e+00		0.000000e+00
0.000000e+00		0.000000e+00		0.000000e+00
0.000000e+00		0.000000e+00		0.000000e+00
0.000000e+00		0.000000e+00		0.000000e+00
0.000000e+00		0.000000e+00		0.000000e+00
0.000000e+00		0.000000e+00		0.000000e+00
0.000000e+00		0.000000e+00		0.000000e+00
0.000000e+00		0.000000e+00		0.000000e+00
0.000000e+00		0.000000e+00		0.000000e+00
0.000000e+00		0.000000e+00		0.000000e+00
0.000000e+00		0.000000e+00		0.000000e+00
0.000000e+00		0.000000e+00		0.000000e+00
0.000000e+00		0.000000e+00		0.000000e+00
0.000000e+00		0.000000e+00		0.000000e+00
0.000000e+00		0.000000e+00		0.000000e+00
0.000000e+00		0.000000e+00		0.000000e+00
0.000000e+00		0.000000e+00		0.000000e+00
0.000000e+00		0.000000e+00		0.000000e+00
0.000000e+00		0.000000e+00		0.000000e+00
0.000000e+00		0.000000e+00		0.000000e+00
0.000000e+00		0.000000e+00		0.000000e+00
0.000000e+00		0.000000e+00		0.000000e+00
0.000000e+00		0.000000e+00		0.000000e+00
0.000000e+00		0.000000e+00		0.000000e+00
0.000000e+00		0.000000e+00		0.000000e+00
0.000000e+00		0.000000e+00		0.000000e+00
0.000000e+00		0.000000e+00		0.000000e+00
0.000000e+00		0.000000e+00		0.000000e+00
0.000000e+00		0.000000e+00		0.000000e+00
0.000000e+00		0.000000e+00		0.000000e+00
0.000000e+00		0.000000e+00		0.000000e+00
0.000000e+00		0.000000e+00		0.000000e+00
0.000000e+00		0.000000e+00		0.000000e+00
0.000000e+00		0.000000e+00		0.000000e+00
0.000000e+00		0.000000e+00		0.000000e+00
0.000000e+00		0.000000e+00		0.000000e+00
0.000000e+00		0.000000e+00		0.000000e+00
0.000000e+00		0.000000e+00		0.000000e+00
0.000000e+00		0.000000e+00		0.000000e+00
0.000000e+00		0.000000e+00		0.000000e+00
0.000000e+00		0.000000e+00		0.000000e+00
0.000000e+00		0.000000e+00		0.000000e+00
0.000000e+00		0.000000e+00		0.000000e+00
0.000000e+00		0.000000e+00		0.000000e+00
0.000000e+00		0.000000e+00		0.000000e+00
0.000000e+00		0.000000e+00		0.000000e+00
0.000000e+00		0.000000e+00		0.000000e+00
0.000000e+00		0.000000e+00		0.000000e+00
0.000000e+00		0.000000e+00		0.000000e+00
0.000000e+00		0.000000e+00		0.000000e+00
0.000000e+00		0.000000e+00		0.000000e+00
0.000000e+00		0.000000e+00		0.000000e+00
0.000000e+00		0.000000e+00		0.000000e+00
0.000000e+00		0.000000e+00		0.000000e+00
0.000000e+00		0.000000e+00		0.000000e+00
0.000000e+00		0.000000e+00		0.000000e+00
0.000000e+00		0.000000e+00		0.000000e+00
0.000000e+00		0.000000e+00		0.000000e+00
0.000000e+00		0.000000e+00		0.000000e+00
0.000000e+00		0.000000e+00		0.000000e+00
0.000000e+00		0.000000e+00		0.000000e+00
0.000000e+00		0.000000e+00		0.000000e+00
0.000000e+00		0.000000e+00		0.000000e+00
0.000000e+00		0.000000e+00		0.000000e+00
0.000000e+00		0.000000e+00		0.000000e+00
0.000000e+00		0.000000e+00		0.000000e+00
0.000000e+00		0.000000e+00		0.000000e+00
0.000000e+00		0.000000e+00		0.000000e+00
0.000000e+00		0.000000e+00		0.000000e+00
0.000000e+00		0.000000e+00		0.000000e+00
0.000000e+00		0.000000e+00		0.000000e+00
0.000000e+00		0.000000e+00		0.000000e+00
0.000000e+00		0.000000e+00		0.000000e+00
0.000000e+00		0.000000e+00		0.000000e+00
0.000000e+00		0.000000e+00		0.000000e+00
0.000000e+00		0.000000e+00		0.000000e+00
0.000000e+00		0.000000e+00		0.000000e+00
0.000000e+00		0.000000e+00		0.000000e+00
0.000000e+00		0.000000e+00		0.000000e+00
0.000000e+00		0.000000e+00		0.000000e+00
0.000000e+00		0.000000e+00		0.000000e+00
0.000000e+00		0.000000e+00		0.000000e+00
0.000000e+00		0.000000e+00		0.000000e+00
0.000000e+00		0.000000e+00		0.000000e+00
0.000000e+00		0.000000e+00		0.000000e+00
0.000000e+00		0.000000e+00		0.000000e+00
0.000000e+00		0.000000e+00		0.000000e+00
0.000000e+00		0.000000e+00		0.000000e+00
0.000000e+00		0.000000e+00		0.000000e+00
0.000000e+00		0.000000e+00		0.000000e+00
0.000000e+00		0.000000e+00		0.000000e+00
0.000000e+00		0.000000e+00		0.000000e+00
0.000000e+00		0.000000e+00		0.000000e+00
0.000000e+00		0.000000e+00		0.000000e+00
0.000000e+00		0.000000e+00		0.000000e+00
0.000000e+00		0.000000e+00		0.000000e+00
0.000000e+00		0.000000e+00		0.000000e+00
0.000000e+00		0.000000e+00		0.000000e+00
0.000000e+00		0.000000e+00		0.000000e+00
0.000000e+00		0.000000e+00		0.000000e+00
0.000000e+00		0.000000e+00		0.000000e+00
0.000000e+00		0.000000e+00		0.000000e+00
0.000000e+00		0.000000e+00		0.000000e+00
0.000000e+00		0.000000e+00		0.000000e+00
0.000000e+00		0.000000e+00		0.000000e+00
0.000000e+00		0.000000e+00		0.000000e+00
0.000000e+00		0.000000e+00		0.000000e+00
0.000000e+00		0.000000e+00		0.000000e+00
0.000000e+00		0.000000e+00		0.000000e+00
0.000000e+00		0.000000e+00		0.000000e+00
0.000000e+00		0.000000e+00		0.000000e+00
0.000000e+00		0.000000e+00		0.000000e+00
0.000000e+00		0.000000e+00		0.000000e+00
0.000000e+00		0.000000e+00		0.000000e+00
0.000000e+00		0.000000e+00		0.000000e+00
0.000000e+00		0.000000e+00		0.000000e+00
0.000000e+00		0.000000e+00		0.000000e+00
0.000000e+00		0.000000e+00		0.000000e+00
0.000000e+00		0.000000e+00		0.000000e+00
0.000000e+00		0.000000e+00		0.000000e+00
0.000000e+00		0.000000e+00		0.000000e+00
0.000000e+00		0.000000e+00		0.000000e+00
0.000000e+00		0.000000e+00		0.000000e+00
0.000000e+00		0.000000e+00		0.000000e+00
0.000000e+00		0.000000e+00		0.000000e+00
0.000000e+00		0.000000e+00		0.000000e+00
0.000000e+00		0.000000e+00		0.000000e+00
0.000000e+00		0.000000e+00		0.000000e+00
0.000000e+00		0.000000e+00		0.000000e+00
0.000000e+00		0.000000e+00		0.000000e+00
0.000000e+00		0.000000e+00		0.000000e+00
0.000000e+00		0.000000e+00		0.000000e+00
0.000000e+00		0.000000e+00		0.000000e+00
0.000000e+00		0.000000e+00		0.000000e+00
0.000000e+00		0.000000e+00		0.000000e+00
0.000000e+00		0.000000e+00		0.000000e+00
0.000000e+00		0.000000e+00		0.000000e+00
0.000000e+00		0.000000e+00		0.000000e+00
0.000000e+00		0.000000e+00		0.000000e+00
0.000000e+00		0.000000e+00		0.000000e+00
0.000000e+00		0.000000e+00		0.000000e+00
0.000000e+00		0.000000e+00		0.000000e+00
0.000000e+00		0.000000e+00		0.000000e+00
0.000000e+00		0.000000e+00		0.000000e+00
0.000000e+00		0.000000e+00		0.000000e+00
0.000000e+00		0.000000e+00		0.000000e+00
0.000000e+00		0.000000e+00		0.000000e+00
0.000000e+00		0.000000e+00		0.000000e+00
0.000000e+00		0.000000e+00		0.000000e+00
0.000000e+00		0.000000e+00		0.000000e+00
0.000000e+00		0.000000e+00		0.000000e+00
0.000000e+00		0.000000e+00		0.000000e+00
0.000000e+00		0.000000e+00		0.000000e+00
0.000000e+00		0.000000e+00		0.000000e+00
0.000000e+00		0.000000e+00		0.000000e+00
0.000000e+00		0.000000e+00		0.000000e+00
0.000000e+00		0.000000e+00		0.000000e+00
0.000000e+00		0.000000e+00		0.000000e+00
0.000000e+00		0.000000e+00		0.000000e+00
0.000000e+00		0.000000e+00		0.000000e+00
0.000000e+00		0.000000e+00		0.000000e+00
0.000000e+00		0.000000e+00		0.000000e+00
0.000000e+00		0.000000e+00		0.000000e+00
0.000000e+00		0.000000e+00		0.000000e+00
0.000000e+00		0.000000e+00		0.000000e+00
0.000000e+00		0.000000e+00		0.000000e+00
0.000000e+00		0.000000e+00		0.000000e+00
0.000000e+00		0.000000e+00		0.000000e+00
0.000000e+00		0.000000e+00		0.000000e+00
0.000000e+00		0.000000e+00		0.000000e+00
0.000000e+00		0.000000e+00		0.000000e+00
0.000000e+00		0.000000e+00		0.000000e+00
0.000000e+00		0.000000e+00		0.000000e+00
0.000000e+00		0.000000e+00		0.000000e+00
0.000000e+00		0.000000e+00		0.000000e+00
0.000000e+00		0.000000e+00		0.000000e+00
0.000000e+00		0.000000e+00		0.000000e+00
0.000000e+00		0.000000e+00		0.000000e+00
0.000000e+00		0.000000e+00		0.000000e+00
0.000000e+00		0.000000e+00		0.000000e+00
0.000000e+00		0.000000e+00		0.000000e+00
0.000000e+00		0.000000e+00		0.000000e+00
0.000000e+00		0.000000e+00		0.000000e+00
0.000000e+00		0.000000e+00		0.000000e+00
0.000000e+00		0.000000e+00		0.000000e+00
0.000000e+00		0.000000e+00		0.000000e+00
0.000000e+00		0.000000e+00		0.000000e+00
0.000000e+00		0.000000e+00		0.000000e+00
0.000000e+00		0.000000e+00		0.000000e+00
0.000000e+00		0.000000e+00		0.000000e+00
0.000000e+00		0.000000e+00		0.000000e+00
0.000000e+00		0.000000e+00		0.000000e+00
0.000000e+00		0.000000e+00		0.000000e+00
0.000000e+00		0.000000e+00		0.000000e+00
0.000000e+00		0.000000e+00		0.000000e+00
0.000000e+00		0.000000e+00		0.000000e+00
0.000000e+00		0.000000e+00		0.000000e+00
0.000000e+00		0.000000e+00		0.000000e+00
0.000000e+00		0.000000e+00		0.000000e+00
0.000000e+00		0.000000e+00		0.000000e+00
0.000000e+00		0.000000e+00		0.000000e+00
0.000000e+00		0.000000e+00		0.000000e+00
0.000000e+00		0.000000e+00		0.000000e+00
0.000000e+00		0.000000e+00		0.000000e+00
0.000000e+00		0.000000e+00		0.000000e+00
0.000000e+00		0.000000e+00		0.000000e+00
0.000000e+00		0.000000e+00		0.000000e+00
0.000000e+00		0.000000e+00		0.000000e+00
0.000000e+00		0.000000e+00		0.000000e+00
0.000000e+00		0.000000e+00		0.000000e+00
0.000000e+00		0.000000e+00		0.000000e+00
0.000000e+00		0.000000e+00		0.000000e+00
0.000000e+00		0.000000e+00		0.000000e+00
0.000000e+00		0.000000e+00		0.000000e+00
0.000000e+00		0.000000e+00		0.000000e+00
0.000000e+00		0.000000e+00		0.000000e+00
0.000000e+00		0.000000e+00		0.000000e+00
0.000000e+00		0.000000e+00		0.000000e+00
0.000000e+00		0.000000e+00		0.000000e+00
0.000000e+00		0.000000e+00		0.000000e+00
0.000000e+00		0.000000e+00		0.000000e+00
0.000000e+00		0.000000e+00		0.000000e+00
0.000000e+00		0.000000e+00		0.000000e+00
0.000000e+00		0.000000e+00		0.000000e+00
0.000000e+00		0.000000e+00		0.000000e+00
0.000000e+00		0.000000e+00		0.000000e+00
0.000000e+00		0.000000e+00		0.000000e+00
0.000000e+00		0.000000e+00		0.000000e+00
0.000000e+00		0.000000e+00		0.000000e+00
0.000000e+00		0.000000e+00		0.000000e+00
0.000000e+00		0.000000e+00		0.000000e+00
0.000000e+00		0.000000e+00		0.000000e+00
0.000000e+00		0.000000e+00		0.000000e+00
0.000000e+00		0.000000e+00		0.000000e+00
0.000000e+00		0.000000e+00		0.000000e+00
0.000000e+00		0.000000e+00		0.000000e+00
0.000000e+00		0.000000e+00		0.000000e+00
0.000000e+00		0.000000e+00		0.000000e+00
0.000000e+00		0.000000e+00		0.000000e+00
0.000000e+00		0.000000e+00		0.000000e+00
0.000000e+00		0.000000e+00		0.000000e+00
0.000000e+00		0.000000e+00		0.000000e+00
0.000000e+00		0.000000e+00		0.000000e+00
0.000000e+00		0.000000e+00		0.000000e+00
0.000000e+00		0.000000e+00		0.000000e+00
0.000000e+00		0.000000e+00		0.000000e+00
0.000000e+00		0.000000e+00		0.000000e+00
0.000000e+00		0.000000e+00		0.000000e+00
0.000000e+00		0.000000e+00		0.000000e+00
0.000000e+00		0.000000e+00		0.000000e+00
0.000000e+00		0.000000e+00		0.000000e+00
0.000000e+00		0.000000e+00		0.000000e+00
0.000000e+00		0.000000e+00		0.000000e+00
0.000000e+00		0.000000e+00		0.000000e+00
0.000000e+00		0.000000e+00		0.000000e+00
0.000000e+00		0.000000e+00		0.000000e+00
0.000000e+00		0.000000e+00		0.000000e+00
0.000000e+00		0.000000e+00		0.000000e+00
0.000000e+00		0.000000e+00		0.000000e+00
0.000000e+00		0.000000e+00		0.000000e+00
0.000000e+00		0.000000e+00		0.000000e+00
0.000000e+00		0.000000e+00		0.000000e+00
0.000000e+00		0.000000e+00		0.000000e+00
0.000000e+00		0.000000e+00		0.000000e+00
0.000000e+00		0.000000e+00		0.000000e+00
0.000000e+00		0.000000e+00		0.000000e+00
0.000000e+00		0.000000e+00		0.000000e+00
0.000000e+00		0.000000e+00		0.000000e+00
0.000000e+00		0.000000e+00		0.000000e+00
0.000000e+00		0.000000e+00		0.000000e+00
0.000000e+00		0.000000e+00		0.000000e+00
0.000000e+00		0.000000e+00		0.000000e+00
0.000000e+00		0.000000e+00		0.000000e+00
0.000000e+00		0.000000e+00		0.000000e+00
0.000000e+00		0.000000e+00		0.000000e+00
0.000000e+00		0.000000e+00		0.000000e+00
0.000000e+00		0.000000e+00		0.000000e+00
0.000000e+00		0.000000e+00		0.000000e+00
0.000000e+00		0.000000e+00		0.000000e+00
0.000000e+00		0.000000e+00		0.000000e+00
0.000000e+00		0.000000e+00		0.000000e+00
0.000000e+00		0.000000e+00		0.000000e+00
0.000000e+00		0.000000e+00		0.000000e+00
0.000000e+00		0.000000e+00		0.000000e+00
0.000000e+00		0.000000e+00		0.000000e+00
0.000000e+00		0.000000e+00		0.000000e+00
0.000000e+00		0.000000e+00		0.000000e+00
0.000000e+00		0.000000e+00		0.000000e+00
0.000000e+00		0.000000e+00		0.000000e+00
0.000000e+00		0.000000e+00		0.000000e+00
0.000000e+00		0.000000e+00		0.000000e+00
0.000000e+00		0.000000e+00		0.000000e+00
0.000000e+00		0.000000e+00		0.000000e+00
0.000000e+00		0.000000e+00		0.000000e+00
0.000000e+00		0.000000e+00		0.000000e+00
0.000000e+00		0.000000e+00		0.000000e+00
0.000000e+00		0.000000e+00		0.000000e+00
0.000000e+00		0.000000e+00		0.000000e+00
0.000000e+00		0.000000e+00		0.000000e+00
0.000000e+00		0.000000e+00		0.000000e+00
0.000000e+00		0.000000e+00		0.000000e+00
0.000000e+00		0.000000e+00		0.000000e+00
0.000000e+00		0.000000e+00		0.000000e+00
0.000000e+00		0.000000e+00		0.000000e+00
0.000000e+00		0.000000e+00		0.000000e+00
0.000000e+00		0.000000e+00		0.000000e+00
0.000000e+00		0.000000e+00		0.000000e+00
0.000000e+00		0.000000e+00		0.000000e+00
0.000000e+00		0.000000e+00		0.000000e+00
0.000000e+00		0.000000e+00		0.000000e+00
0.000000e+00		0.000000e+00		0.000000e+00
0.000000e+00		0.000000e+00		0.000000e+00
0.000000e+00		0.000000e+00		0.000000e+00
0.000000e+00		0.000000e+00		0.000000e+00
0.000000e+00		0.000000e+00		0.000000e+00
0.000000e+00		0.000000e+00		0.000000e+00
0.000000e+00		0.000000e+00		0.000000e+00
0.000000e+00		0.000000e+00		0.000000e+00
0.000000e+00		0.000000e+00		0.000000e+00
0.000000e+00		0.000000e+00		0.000000e+00
0.000000e+00		0.000000e+00		0.000000e+00
0.000000e+00		0.000000e+00		0.000000e+00
0.000000e+00		0.000000e+00		0.000000e+00
0.000000e+00		0.000000e+00		0.000000e+00
0.000000e+00		0.000000e+00		0.000000e+00
0.000000e+00		0.000000e+00		0.000000e+00
0.000000e+00		0.000000e+00		0.000000e+00
0.000000e+00		0.000000e+00		0.000000e+00
0.000000e+00		0.000000e+00		0.000000e+00
0.000000e+00		0.000000e+00		0.000000e+00
0.000000e+00		0.000000e+00		0.000000e+00
0.000000e+00		0.000000e+00		0.000000e+00
0.000000e+00		0.000000e+00		0.000000e+00
0.000000e+00		0.000000e+00		0.000000e+00
0.000000e+00		0.000000e+00		0.000000e+00
0.000000e+00		0.000000e+00		0.000000e+00
0.000000e+00		0.000000e+00		0.000000e+00
0.000000e+00		0.000000e+00		0.000000e+00
0.000000e+00		0.000000e+00		0.000000e+00
0.000000e+00		0.000000e+00		0.000000e+00
0.000000e+00		0.000000e+00		0.000000e+00
0.000000e+00		0.000000e+00		0.000000e+00
0.000000e+00		0.000000e+00		0.000000e+00
0.000000e+00		0.000000e+00		0.000000e+00
0.000000e+00		0.000000e+00		0.000000e+00
0.000000e+00		0.000000e+00		0.000000e+00
0.000000e+00		0.000000e+00		0.000000e+00
0.000000e+00		0.000000e+00		0.000000e+00
0.000000e+00		0.000000e+00		0.000000e+00
0.000000e+00		0.000000e+00		0.000000e+00
0.000000e+00		0.000000e+00		0.000000e+00
0.000000e+00		0.000000e+00		0.000000e+00
0.000000e+00		0.000000e+00		0.000000e+00
0.000000e+00		0.000000e+00		0.000000e+00
0.000000e+00		0.000000e+00		0.000000e+00
0.000000e+00		0.000000e+00		0.000000e+00
0.000000e+00		0.000000e+00		0.000000e+00
0.000000e+00		0.000000e+00		0.000000e+00
0.000000e+00		0.000000e+00		0.000000e+00
0.000000e+00		0.000000e+00		0.000000e+00
0.000000e+00		0.000000e+00		0.000000e+00
0.000000e+00		0.000000e+00		0.000000e+00
0.000000e+00		0.000000e+00		0.000000e+00
0.000000e+00		0.000000e+00		0.000000e+00
0.000000e+00		0.000000e+00		0.000000e+00
0.000000e+00		0.000000e+00		0.000000e+00
0.000000e+00		0.000000e+00		0.000000e+00
0.000000e+00		0.000000e+00		0.000000e+00
0.000000e+00		0.000000e+00		0.000000e+00
0.000000e+00		0.000000e+00		0.000000e+00
0.000000e+00		0.000000e+00		0.000000e+00
0.000000e+00		0.000000e+00		0.000000e+00
0.000000e+00		0.000000e+00		0.000000e+00
0.000000e+00		0.000000e+00		0.000000e+00
0.000000e+00		0.000000e+00		0.000000e+00
0.000000e+00		0.000000e+00		0.000000e+00
0.000000e+00		0.000000e+00		0.000000e+00
0.000000e+00		0.000000e+00		0.000000e+00
0.000000e+00		0.000000e+00		0.000000e+00
0.000000e+00		0.000000e+00		0.000000e+00
0.000000e+00		0.000000e+00		0.000000e+00
0.000000e+00		0.000000e+00		0.000000e+00
0.000000e+00		0.000000e+00		0.000000e+00
0.000000e+00		0.000000e+00		0.000000e+00
0.000000e+00		0.000000e+00		0.000000e+00
0.000000e+00		0.000000e+00		0.000000e+00
0.000000e+00		0.000000e+00		0.000000e+00
0.000000e+00		0.000000e+00		0.000000e+00
0.000000e+00		0.000000e+00		0.000000e+00
0.000000e+00		0.000000e+00		0.000000e+00
0.000000e+00		0.000000e+00		0.000000e+00
0.000000e+00		0.000000e+00		0.000000e+00
0.000000e+00		0.000000e+00		0.000000e+00
0.000000e+00		0.000000e+00		0.000000e+00
0.000000e+00		0.000000e+00		0.000000e+00
0.000000e+00		0.000000e+00		0.000000e+00
0.000000e+00		0.000000e+00		0.000000e+00
0.000000e+00		0.000000e+00		0.000000e+00
0.000000e+00		0.000000e+00		0.000000e+00
0.000000e+00		0.000000e+00		0.000000e+00
0.000000e+00		0.000000e+00		0.000000e+00
0.000000e+00		0.000000e+00		0.000000e+00
0.000000e+00		0.000000e+00		0.000000e+00
0.000000e+00		0.000000e+00		0.000000e+00
0.000000e+00		0.000000e+00		0.000000e+00
0.000000e+00		0.000000e+00		0.000000e+00
0.000000e+00		0.000000e+00		0.000000e+00
0.000000e+00		0.000000e+00		0.000000e+00
0.000000e+00		0.000000e+00		0.000000e+00
0.000000e+00		0.000000e+00		0.000000e+00
0.000000e+00		0.000000e+00		0.000000e+00
0.000000e+00		0.000000e+00		0.000000e+00
0.000000e+00		0.000000e+00		0.000000e+00
0.000000e+00		0.000000e+00		0.000000e+00
0.000000e+00		0.000000e+00		0.000000e+00
0.000000e+00		0.000000e+00		0.000000e+00
0.000000e+00		0.000000e+00		0.000000e+00
0.000000e+00		0.000000e+00		0.000000e+00
0.000000e+00		0.000000e+00		0.000000e+00
0.000000e+00		0.000000e+00		0.000000e+00
0.000000e+00		0.000000e+00		0.000000e+00
0.000000e+00		0.000000e+00		0.000000e+00
0.000000e+00		0.000000e+00		0.000000e+00
0.000000e+00		0.000000e+00		0.000000e+00
0.000000e+00		0.000000e+00		0.000000e+00
0.000000e+00		0.000000e+00		0.000000e+00
0.000000e+00		0.000000e+00		0.000000e+00
0.000000e+00		0.000000e+00		0.000000e+00
0.000000e+00		0.000000e+00		0.000000e+00
0.000000e+00		0.000000e+00		0.000000e+00
0.000000e+00		0.000000e+00		0.000000e+00
0.000000e+00		0.000000e+00		0.000000e+00
0.000000e+00		0.000000e+00		0.000000e+00
0.000000e+00		0.000000e+00		0.000000e+00
0.000000e+00		0.000000e+00		0.000000e+00
0.000000e+00		0.000000e+00		0.000000e+00
0.000000e+00		0.000000e+00		0.000000e+00
0.000000e+00		0.000000e+00		0.000000e+00
0.000000e+00		0.000000e+00		0.000000e+00
0.000000e+00		0.000000e+00		0.000000e+00
0.000000e+00		0.000000e+00		0.000000e+00
0.000000e+00		0.000000e+00		0.000000e+00
0.000000e+00		0.000000e+00		0.000000e+00
0.000000e+00		0.000000e+00		0.000000e+00
0.000000e+00		0.000000e+00		0.000000e+00
0.000000e+00		0.000000e+00		0.000000e+00
0.000000e+00		0.000000e+00		0.000000e+00
0.000000e+00		0.000000e+00		0.000000e+00
0.000000e+00		0.000000e+00		0.000000e+00
0.000000e+00		0.000000e+00		0.000000e+00
0.000000e+00		0.000000e+00		0.000000e+00
0.000000e+00		0.000000e+00		0.000000e+00
0.000000e+00		0.000000e+00		0.000000e+00
0.000000e+00		0.000000e+00		0.000000e+00
0.000000e+00		0.000000e+00		0.000000e+00
0.000000e+00		0.000000e+00		0.000000e+00
0.000000e+00		0.000000e+00		0.000000e+00
0.000000e+00		0.000000e+00		0.000000e+00
0.000000e+00		0.000000e+00		0.000000e+00
0.000000e+00		0.000000e+00		0.000000e+00
0.000000e+00		0.000000e+00		0.000000e+00
0.000000e+00		0.000000e+00		0.000000e+00
0.000000e+00		0.000000e+00		0.000000e+00
0.000000e+00		0.000000e+00		0.000000e+00
0.000000e+00		0.000000e+00		0.000000e+00
0.000000e+00		0.000000e+00		0.000000e+00
0.000000e+00		0.000000e+00		0.000000e+00
0.000000e+00		0.000000e+00		0.000000e+00
0.000000e+00		0.000000e+00		0.000000e+00
0.000000e+00		0.000000e+00		0.000000e+00
0.000000e+00		0.000000e+00		0.000000e+00
0.000000e+00		0.000000e+00		0.000000e+00
0.000000e+00		0.000000e+00		0.000000e+00
0.000000e+00		0.000000e+00		0.000000e+00
0.000000e+00		0.000000e+00		0.000000e+00
0.000000e+00		0.000000e+00		0.000000e+00
0.000000e+00		0.000000e+00		0.000000e+00
0.000000e+00		0.000000e+00		0.000000e+00
0.000000e+00		0.000000e+00		0.000000e+00
0.000000e+00		0.000000e+00		0.000000e+00
0.000000e+00		0.000000e+00		0.000000e+00
0.000000e+00		0.000000e+00		0.000000e+00
0.000000e+00		0.000000e+00		0.000000e+00
0.000000e+00		0.000000e+00		0.000000e+00
0.000000e+00		0.000000e+00		0.000000e+00
0.000000e+00		0.000000e+00		0.000000e+00
0.000000e+00		0.000000e+00		0.000000e+00
0.000000e+00		0.000000e+00		0.000000e+00
0.000000e+00		0.000000e+00		0.000000e+00
0.000000e+00		0.000000e+00		0.000000e+00
0.000000e+00		0.000000e+00		0.000000e+00
0.000000e+00		0.000000e+00		0.000000e+00
0.000000e+00		0.000000e+00		0.000000e+00
0.000000e+00		0.000000e+00		0.000000e+00
0.000000e+00		0.000000e+00		0.000000e+00
0.000000e+00		0.000000e+00		0.000000e+00
0.000000e+00		0.000000e+00		0.000000e+00
0.000000e+00		0.000000e+00		0.000000e+00
0.000000e+00		0.000000e+00		0.000000e+00
0.000000e+00		0.000000e+00		0.000000e+00
0.000000e+00		0.000000e+00		0.000000e+00
0.000000e+00		0.000000e+00		0.000000e+00
0.000000e+00		0.000000e+00		0.000000e+00
0.000000e+00		0.000000e+00		0.000000e+00
0.000000e+00		0.000000e+00		0.000000e+00
0.000000e+00		0.000000e+00		0.000000e+00
0.000000e+00		0.000000e+00		0.000000e+00
0.000000e+00		0.000000e+00		0.000000e+00
0.000000e+00		0.000000e+00		0.000000e+00
0.000000e+00		0.000000e+00		0.000000e+00
0.000000e+00		0.000000e+00		0.000000e+00
0.000000e+00		0.000000e+00		0.000000e+00
0.000000e+00		0.000000e+00		0.000000e+00
0.000000e+00		0.000000e+00		0.000000e+00
0.000000e+00		0.000000e+00		0.000000e+00
0.000000e+00		0.000000e+00		0.000000e+00
0.000000e+00		0.000000e+00		0.000000e+00
0.000000e+00		0.000000e+00		0.000000e+00
0.000000e+00		0.000000e+00		0.000000e+00
0.000000e+00		0.000000e+00		0.000000e+00
0.000000e+00		0.000000e+00		0.000000e+00
0.000000e+00		0.000000e+00		0.000000e+00
0.000000e+00		0.000000e+00		0.000000e+00
0.000000e+00		0.000000e+00		0.000000e+00
0.000000e+00		0.000000e+00		0.000000e+00
0.000000e+00		0.000000e+00		0.000000e+00
0.000000e+00		0.000000e+00		0.000000e+00
0.000000e+00		0.000000e+00		0.000000e+00
0.000000e+00		0.000000e+00		0.000000e+00
0.000000e+00		0.000000e+00		0.000000e+00
0.000000e+00		0.000000e+00		0.000000e+00
0.000000e+00		0.000000e+00		0.000000e+00
0.000000e+00		0.000000e+00		0.000000e+00
0.000000e+00		0.000000e+00		0.000000e+00
0.000000e+00		0.000000e+00		0.000000e+00
0.000000e+00		0.000000e+00		0.000000e+00
0.000000e+00		0.000000e+00		0.000000e+00
0.000000e+00		0.000000e+00		0.000000e+00
0.000000e+00		0.000000e+00		0.000000e+00
0.000000e+00		0.000000e+00		0.000000e+00
0.000000e+00		0.000000e+00		0.000000e+00
0.000000e+00		0.000000e+00		0.000000e+00
0.000000e+00		0.000000e+00		0.000000e+00
0.000000e+00		0.000000e+00		0.000000e+00
0.000000e+00		0.000000e+00		0.000000e+00
0.000000e+00		0.000000e+00		0.000000e+00
0.000000e+00		0.000000e+00		0.000000e+00
0.000000e+00		0.000000e+00		0.000000e+00
0.000000e+00		0.000000e+00		0.000000e+00
0.000000e+00		0.000000e+00		0.000000e+00
0.000000e+00		0.000000e+00		0.000000e+00
0.000000e+00		0.000000e+00		0.000000e+00
0.000000e+00		0.000000e+00		0.000000e+00
0.000000e+00		0.000000e+00		0.000000e+00
0.000000e+00		0.000000e+00		0.000000e+00
0.000000e+00		0.000000e+00		0.000000e+00
0.000000e+00		0.000000e+00		0.000000e+00
0.000000e+00		0.000000e+00		0.000000e+00
0.000000e+00		0.000000e+00		0.000000e+00
0.000000e+00		0.000000e+00		0.000000e+00
0.000000e+00		0.000000e+00		0.000000e+00
0.000000e+00		0.000000e+00		0.000000e+00
0.000000e+00		0.000000e+00		0.000000e+00
0.000000e+00		0.000000e+00		0.000000e+00
0.000000e+00		0.000000e+00		0.000000e+00
0.000000e+00		0.000000e+00		0.000000e+00
0.000000e+00		0.000000e+00		0.000000e+00
0.000000e+00		0.000000e+00		0.000000e+00
0.000000e+00		0.000000e+00		0.000000e+00
0.000000e+00		0.000000e+00		0.000000e+00
0.000000e+00		0.000000e+00		0.000000e+00
0.000000e+00		0.000000e+00		0.000000e+00
0.000000e+00		0.000000e+00		0.000000e+00
0.000000e+00		0.000000e+00		0.000000e+00
0.000000e+00		0.000000e+00		0.000000e+00
0.000000e+00		0.000000e+00		0.000000e+00
0.000000e+00		0.000000e+00		0.000000e+00
0.000000e+00		0.000000e+00		0.000000e+00
0.000000e+00		0.000000e+00		0.000000e+00
0.000000e+00		0.000000e+00		0.000000e+00
0.000000e+00		0.000000e+00		0.000000e+00
0.000000e+00		0.000000e+00		0.000000e+00
0.000000e+00		0.000000e+00		0.000000e+00
0.000000e+00		0.000000e+00		0.000000e+00
0.000000e+00		0.000000e+00		0.000000e+00
0.000000e+00		0.000000e+00		0.000000e+00
0.000000e+00		0.000000e+00		0.000000e+00
0.000000e+00		0.000000e+00		0.000000e+00
0.000000e+00		0.000000e+00		0.000000e+00
0.000000e+00		0.000000e+00		0.000000e+00
0.000000e+00		0.000000e+00		0.000000e+00
0.000000e+00		0.000000e+00		0.000000e+00
0.000000e+00		0.000000e+00		0.000000e+00
0.000000e+00		0.000000e+00		0.000000e+00
0.000000e+00		0.000000e+00		0.000000e+00
0.000000e+00		0.000000e+00		0.000000e+00
0.000000e+00		0.000000e+00		0.000000e+00
0.000000e+00		0.000000e+00		0.000000e+00
0.000000e+00		0.000000e+00		0.000000e+00
0.000000e+00		0.000000e+00		0.000000e+00
0.000000e+00		0.000000e+00		0.000000e+00
0.000000e+00		0.000000e+00		0.000000e+00
0.000000e+00		0.000000e+00		0.000000e+00
0.000000e+00		0.000000e+00		0.000000e+00
0.000000e+00		0.000000e+00		0.000000e+00
0.000000e+00		0.000000e+00		0.000000e+00
0.000000e+00		0.000000e+00		0.000000e+00
0.000000e+00		0.000000e+00		0.000000e+00
0.000000e+00		0.000000e+00		0.000000e+00
0.000000e+00		0.000000e+00		0.000000e+00
0.000000e+00		0.000000e+00		0.000000e+00
0.000000e+00		0.000000e+00		0.000000e+00
0.000000e+00		0.000000e+00		0.000000e+00
0.000000e+00		0.000000e+00		0.000000e+00
0.000000e+00		0.000000e+00		0.000000e+00
0.000000e+00		0.000000e+00		0.000000e+00
0.000000e+00		0.000000e+00		0.000000e+00
0.000000e+00		0.000000e+00		0.000000e+00
0.000000e+00		0.000000e+00		0.000000e+00
0.000000e+00		0.000000e+00		0.000000e+00
0.000000e+00		0.000000e+00		0.000000e+00
0.000000e+00		0.000000e+00		0.000000e+00
0.000000e+00		0.000000e+00		0.000000e+00
0.000000e+00		0.000000e+00		0.000000e+00
0.000000e+00		0.000000e+00		0.000000e+00
0.000000e+00		0.000000e+00		0.000000e+00
0.000000e+00		0.000000e+00		0.000000e+00
0.000000e+00		0.000000e+00		0.000000e+00
0.000000e+00		0.000000e+00		0.000000e+00
0.000000e+00		0.000000e+00		0.000000e+00
0.000000e+00		0.000000e+00		0.000000e+00
0.000000e+00		0.000000e+00		0.000000e+00
0.000000e+00		0.000000e+00		0.000000e+00
0.000000e+00		0.000000e+00		0.000000e+00
0.000000e+00		0.000000e+00		0.000000e+00
0.000000e+00		0.000000e+00		0.000000e+00
0.000000e+00		0.000000e+00		0.000000e+00
0.000000e+00		0.000000e+00		0.000000e+00
0.000000e+00		0.000000e+00		0.000000e+00
0.000000e+00		0.000000e+00		0.000000e+00
0.000000e+00		0.000000e+00		0.000000e+00
0.000000e+00		0.000000e+00		0.000000e+00
0.000000e+00		0.000000e+00		0.000000e+00
0.000000e+00		0.000000e+00		0.000000e+00
0.000000e+00		0.000000e+00		0.000000e+00
0.000000e+00		0.000000e+00		0.000000e+00
0.000000e+00		0.000000e+00		0.000000e+00
0.000000e+00		0.000000e+00		0.000000e+00
0.000000e+00		0.000000e+00		0.000000e+00
0.000000e+00		0.000000e+00		0.000000e+00
0.000000e+00		0.000000e+00		0.000000e+00
0.000000e+00		0.000000e+00		0.000000e+00
0.000000e+00		0.000000e+00		0.000000e+00
0.000000e+00		0.000000e+00		0.000000e+00
0.000000e+00		0.000000e+00		0.000000e+00
0.000000e+00		0.000000e+00		0.000000e+00
0.000000e+00		0.000000e+00		0.000000e+00
0.000000e+00		0.000000e+00		0.000000e+00
0.000000e+00		0.000000e+00		0.000000e+00
0.000000e+00		0.000000e+00		0.000000e+00
0.000000e+00		0.000000e+00		0.000000e+00
0.000000e+00		0.000000e+00		0.000000e+00
0.000000e+00		0.000000e+00		0.000000e+00
0.000000e+00		0.000000e+00		0.000000e+00
0.000000e+00		0.000000e+00		0.000000e+00
0.000000e+00		0.000000e+00		0.000000e+00
0.000000e+00		0.000000e+00		0.000000e+00
0.000000e+00		0.000000e+00		0.000000e+00
0.000000e+00		0.000000e+00		0.000000e+00
0.000000e+00		0.000000e+00		0.000000e+00
0.000000e+00		0.000000e+00		0.000000e+00
0.000000e+00		0.000000e+00		0.000000e+00
0.000000e+00		0.000000e+00		0.000000e+00
0.000000e+00		0.000000e+00		0.000000e+00
0.000000e+00		0.000000e+00		0.000000e+00
0.000000e+00		0.000000e+00		0.000000e+00
0.000000e+00		0.000000e+00		0.000000e+00
0.000000e+00		0.000000e+00		0.000000e+00
0.000000e+00		0.000000e+00		0.000000e+00
0.000000e+00		0.000000e+00		0.000000e+00
0.000000e+00		0.000000e+00		0.000000e+00
0.000000e+00		0.000000e+00		0.000000e+00
0.000000e+00		0.000000e+00		0.000000e+00
0.000000e+00		0.000000e+00		0.000000e+00
0.000000e+00		0.000000e+00		0.000000e+00
0.000000e+00		0.000000e+00		0.000000e+00
0.000000e+00		0.000000e+00		0.000000e+00
0.000000e+00		0.000000e+00		0.000000e+00
0.000000e+00		0.000000e+00		0.000000e+00
0.000000e+00		0.000000e+00		0.000000e+00
0.000000e+00		0.000000e+00		0.000000e+00
0.000000e+00		0.000000e+00		0.000000e+00
0.000000e+00		0.000000e+00		0.000000e+00
0.000000e+00		0.000000e+00		0.000000e+00
0.000000e+00		0.000000e+00		0.000000e+00
0.000000e+00		0.000000e+00		0.000000e+00
0.000000e+00		0.000000e+00		0.000000e+00
0.000000e+00		0.000000e+00		0.000000e+00
0.000000e+00		0.000000e+00		0.000000e+00
0.000000e+00		0.000000e+00		0.000000e+00
0.000000e+00		0.000000e+00		0.000000e+00
0.000000e+00		0.000000e+00		0.000000e+00
0.000000e+00		0.000000e+00		0.000000e+00
0.000000e+00		0.000000e+00		0.000000e+00
0.000000e+00		0.000000e+00		0.000000e+00
0.000000e+00		0.000000e+00		0.000000e+00
0.000000e+00		0.000000e+00		0.000000e+00
0.000000e+00		0.000000e+00		0.000000e+00
0.000000e+00		0.000000e+00		0.000000e+00
0.000000e+00		0.000000e+00		0.000000e+00
0.000000e+00		0.000000e+00		0.000000e+00
0.000000e+00		0.000000e+00		0.000000e+00
0.000000e+00		0.000000e+00		0.000000e+00
0.000000e+00		0.000000e+00		0.000000e+00
0.000000e+00		0.000000e+00		0.000000e+00
0.000000e+00		0.000000e+00		0.000000e+00
0.000000e+00		0.000000e+00		0.000000e+00
0.000000e+00		0.000000e+00		0.000000e+00
0.000000e+00		0.000000e+00		0.000000e+00
0.000000e+00		0.000000e+00		0.000000e+00
0.000000e+00		0.000000e+00		0.000000e+00
0.000000e+00		0.000000e+00		0.000000e+00
0.000000e+00		0.000000e+00		0.000000e+00
0.000000e+00		0.000000e+00		0.000000e+00
0.000000e+00		0.000000e+00		0.000000e+00
0.000000e+00		0.000000e+00		0.000000e+00
0.000000e+00		0.000000e+00		0.000000e+00
0.000000e+00		0.000000e+00		0.000000e+00
0.000000e+00		0.000000e+00		0.000000e+00
0.000000e+00		0.000000e+00		0.000000e+00
0.000000e+00		0.000000e+00		0.000000e+00
0.000000e+00		0.000000e+00		0.000000e+00
0.000000e+00		0.000000e+00		0.000000e+00
0.000000e+00		0.000000e+00		0.000000e+00
0.000000e+00		0.000000e+00		0.000000e+00
0.000000e+00		0.000000e+00		0.000000e+00
0.000000e+00		0.000000e+00		0.000000e+00
0.000000e+00		0.000000e+00		0.000000e+00
0.000000e+00		0.000000e+00		0.000000e+00
0.000000e+00		0.000000e+00		0.000000e+00
0.000000e+00		0.000000e+00		0.000000e+00
0.000000e+00		0.000000e+00		0.000000e+00
0.000000e+00		0.000000e+00		0.000000e+00
0.000000e+00		0.000000e+00		0.000000e+00
0.000000e+00		0.000000e+00		0.000000e+00
0.000000e+00		0.000000e+00		0.000000e+00
0.000000e+00		0.000000e+00		0.000000e+00
0.000000e+00		0.000000e+00		0.000000e+00
0.000000e+00		0.000000e+00		0.000000e+00
0.000000e+00		0.000000e+00		0.000000e+00
0.000000e+00		0.000000e+00		0.000000e+00
0.000000e+00		0.000000e+00		0.000000e+00
0.000000e+00		0.000000e+00		0.000000e+00
0.000000e+00		0.000000e+00		0.000000e+00
0.000000e+00		0.000000e+00		0.000000e+00
0.000000e+00		0.000000e+00		0.000000e+00
0.000000e+00		0.000000e+00		0.000000e+00
0.000000e+00		0.000000e+00		0.000000e+00
0.000000e+00		0.000000e+00		0.000000e+00
0.000000e+00		0.000000e+00		0.000000e+00
0.000000e+00		0.000000e+00		0.000000e+00
0.000000e+00		0.000000e+00		0.000000e+00
0.000000e+00		0.000000e+00		0.000000e+00
0.000000e+00		0.000000e+00		0.000000e+00
0.000000e+00		0.000000e+00		0.000000e+00
0.000000e+00		0.000000e+00		0.000000e+00
0.000000e+00		0.000000e+00		0.000000e+00
0.000000e+00		0.000000e+00		0.000000e+00
0.000000e+00		0.000000e+00		0.000000e+00
0.000000e+00		0.000000e+00		0.000000e+00
0.000000e+00		0.000000e+00		0.000000e+00
0.000000e+00		0.000000e+00		0.000000e+00
0.000000e+00		0.000000e+00		0.000000e+00
0.000000e+00		0.000000e+00		0.000000e+00
0.000000e+00		0.000000e+00		0.000000e+00
0.000000e+00		0.000000e+00		0.000000e+00
0.000000e+00		0.000000e+00		0.000000e+00
0.000000e+00		0.000000e+00		0.000000e+00
0.000000e+00		0.000000e+00		0.000000e+00
0.000000e+00		0.000000e+00		0.000000e+00
0.000000e+00		0.000000e+00		0.000000e+00
0.000000e+00		0.000000e+00		0.000000e+00
0.000000e+00		0.000000e+00		0.000000e+00
0.000000e+00		0.000000e+00		0.000000e+00
0.000000e+00		0.000000e+00		0.000000e+00
0.000000e+00		0.000000e+00		0.000000e+00
0.000000e+00		0.000000e+00		0.000000e+00
0.000000e+00		0.000000e+00		0.000000e+00
0.000000e+00		0.000000e+00		0.000000e+00
0.000000e+00		0.000000e+00		0.000000e+00
0.000000e+00		0.000000e+00		0.000000e+00
0.000000e+00		0.000000e+00		0.000000e+00
0.000000e+00		0.000000e+00		0.000000e+00
0.000000e+00		0.000000e+00		0.000000e+00
0.000000e+00		0.000000e+00		0.000000e+00
0.000000e+00		0.000000e+00		0.000000e+00
0.000000e+00		0.000000e+00		0.000000e+00
0.000000e+00		0.000000e+00		0.000000e+00
0.000000e+00		0.000000e+00		0.000000e+00
0.000000e+00		0.000000e+00		0.000000e+00
0.000000e+00		0.000000e+00		0.000000e+00
0.000000e+00		0.000000e+00		0.000000e+00
0.000000e+00		0.000000e+00		0.000000e+00
0.000000e+00		0.000000e+00		0.000000e+00
0.000000e+00		0.000000e+00		0.000000e+00
0.000000e+00		0.000000e+00		0.000000e+00
0.000000e+00		0.000000e+00		0.000000e+00
0.000000e+00		0.000000e+00		0.000000e+00
0.000000e+00		0.000000e+00		0.000000e+00
0.000000e+00		0.000000e+00		0.000000e+00
0.000000e+00		0.000000e+00		0.000000e+00
0.000000e+00		0.000000e+00		0.000000e+00
0.000000e+00		0.000000e+00		0.000000e+00
0.000000e+00		0.000000e+00		0.000000e+00
0.000000e+00		0.000000e+00		0.000000e+00
0.000000e+00		0.000000e+00		0.000000e+00
0.000000e+00		0.000000e+00		0.000000e+00
0.000000e+00		0.000000e+00		0.000000e+00
0.000000e+00		0.000000e+00		0.000000e+00
0.000000e+00		0.000000e+00		0.000000e+00
0.000000e+00		0.000000e+00		0.000000e+00
0.000000e+00		0.000000e+00		0.000000e+00
0.000000e+00		0.000000e+00		0.000000e+00
0.000000e+00		0.000000e+00		0.000000e+00
0.000000e+00		0.000000e+00		0.000000e+00
0.000000e+00		0.000000e+00		0.000000e+00
0.000000e+00		0.000000e+00		0.000000e+00
0.000000e+00		0.000000e+00		0.000000e+00
0.000000e+00		0.000000e+00		0.000000e+00
0.000000e+00		0.000000e+00		0.000000e+00
0.000000e+00		0.000000e+00		0.000000e+00
0.000000e+00		0.000000e+00		0.000000e+00
0.000000e+00		0.000000e+00		0.000000e+00
0.000000e+00		0.000000e+00		0.000000e+00
0.000000e+00		0.000000e+00		0.000000e+00
0.000000e+00		0.000000e+00		0.000000e+00
0.000000e+00		0.000000e+00		0.000000e+00
0.000000e+00		0.000000e+00		0.000000e+00
0.000000e+00		0.000000e+00		0.000000e+00
0.000000e+00		0.000000e+00		0.000000e+00
0.000000e+00		0.000000e+00		0.000000e+00
0.000000e+00		0.000000e+00		0.000000e+00
0.000000e+00		0.000000e+00		0.000000e+00
0.000000e+00		0.000000e+00		0.000000e+00
0.000000e+00		0.000000e+00		0.000000e+00
0.000000e+00		0.000000e+00		0.000000e+00
0.000000e+00		0.000000e+00		0.000000e+00
0.000000e+00		0.000000e+00		0.000000e+00
0.000000e+00		0.000000e+00		0.000000e+00
0.000000e+00		0.000000e+00		0.000000e+00
0.000000e+00		0.000000e+00		0.000000e+00
0.000000e+00		0.000000e+00		0.000000e+00
0.000000e+00		0.000000e+00		0.000000e+00
0.000000e+00		0.000000e+00		0.000000e+00
0.000000e+00		0.000000e+00		0.000000e+00
0.000000e+00		0.000000e+00		0.000000e+00
0.000000e+00		0.000000e+00		0.000000e+00
0.000000e+00		0.000000e+00		0.000000e+00
0.000000e+00		0.000000e+00		0.000000e+00
0.000000e+00		0.000000e+00		0.000000e+00
0.000000e+00		0.000000e+00		0.000000e+00
0.000000e+00		0.000000e+00		0.000000e+00
0.000000e+00		0.000000e+00		0.000000e+00
0.000000e+00		0.000000e+00		0.000000e+00
0.000000e+00		0.000000e+00		0.000000e+00
0.000000e+00		0.000000e+00		0.000000e+00
0.000000e+00		0.000000e+00		0.000000e+00
0.000000e+00		0.000000e+00		0.000000e+00
0.000000e+00		0.000000e+00		0.000000e+00
0.000000e+00		0.000000e+00		0.000000e+00
0.000000e+00		0.000000e+00		0.000000e+00
0.000000e+00		0.000000e+00		0.000000e+00
0.000000e+00		0.000000e+00		0.000000e+00
0.000000e+00		0.000000e+00		0.000000e+00
0.000000e+00		0.000000e+00		0.000000e+00
0.000000e+00		0.000000e+00		0.000000e+00
0.000000e+00		0.000000e+00		0.000000e+00
0.000000e+00		0.000000e+00		0.000000e+00
0.000000e+00		0.000000e+00		0.000000e+00
0.000000e+00		0.000000e+00		0.000000e+00
0.000000e+00		0.000000e+00		0.000000e+00
0.000000e+00		0.000000e+00		0.000000e+00
0.000000e+00		0.000000e+00		0.000000e+00
0.000000e+00		0.000000e+00		0.000000e+00
0.000000e+00		0.000000e+00		0.000000e+00
0.000000e+00		0.000000e+00		0.000000e+00
0.000000e+00		0.000000e+00		0.000000e+00
0.000000e+00		0.000000e+00		0.000000e+00
0.000000e+00		0.000000e+00		0.000000e+00
0.000000e+00		0.000000e+00		0.000000e+00
0.000000e+00		0.000000e+00		0.000000e+00
0.000000e+00		0.000000e+00		0.000000e+00
0.000000e+00		0.000000e+00		0.000000e+00
0.000000e+00		0.000000e+00		0.000000e+00
0.000000e+00		0.000000e+00		0.000000e+00
0.000000e+00		0.000000e+00		0.000000e+00
0.000000e+00		0.000000e+00		0.000000e+00
0.000000e+00		0.000000e+00		0.000000e+00
0.000000e+00		0.000000e+00		0.000000e+00
0.000000e+00		0.000000e+00		0.000000e+00
0.000000e+00		0.000000e+00		0.000000e+00
0.000000e+00		0.000000e+00		0.000000e+00
0.000000e+00		0.000000e+00		0.000000e+00
0.000000e+00		0.000000e+00		0.000000e+00
0.000000e+00		0.000000e+00		0.000000e+00
0.000000e+00		0.000000e+00		0.000000e+00
0.000000e+00		0.000000e+00		0.000000e+00
0.000000e+00		0.000000e+00		0.000000e+00
0.000000e+00		0.000000e+00		0.000000e+00
0.000000e+00		0.000000e+00		0.000000e+00
0.000000e+00		0.000000e+00		0.000000e+00
0.000000e+00		0.000000e+00		0.000000e+00
0.000000e+00		0.000000e+00		0.000000e+00
0.000000e+00		0.000000e+00		0.000000e+00
0.000000e+00		0.000000e+00		0.000000e+00
0.000000e+00		0.000000e+00		0.000000e+00
0.000000e+00		0.000000e+00		0.000000e+00
0.000000e+00		0.000000e+00		0.000000e+00
0.000000e+00		0.000000e+00		0.000000e+00
0.000000e+00		0.000000e+00		0.000000e+00
0.000000e+00		0.000000e+00		0.000000e+00
0.000000e+00		0.000000e+00		0.000000e+00
0.000000e+00		0.000000e+00		0.000000e+00
0.000000e+00		0.000000e+00		0.000000e+00
0.000000e+00		0.000000e+00		0.000000e+00
0.000000e+00		0.000000e+00		0.000000e+00
0.000000e+00		0.000000e+00		0.000000e+00
0.000000e+00		0.000000e+00		0.000000e+00
0.000000e+00		0.000000e+00		0.000000e+00
0.000000e+00		0.000000e+00		0.000000e+00
0.000000e+00		0.000000e+00		0.000000e+00
0.000000e+00		0.000000e+00		0.000000e+00
0.000000e+00		0.000000e+00		0.000000e+00
0.000000e+00		0.000000e+00		0.000000e+00
0.000000e+00		0.000000e+00		0.000000e+00
0.000000e+00		0.000000e+00		0.000000e+00
0.000000e+00		0.000000e+00		0.000000e+00
0.000000e+00		0.000000e+00		0.000000e+00
0.000000e+00		0.000000e+00		0.000000e+00
0.000000e+00		0.000000e+00		0.000000e+00
0.000000e+00		0.000000e+00		0.000000e+00
0.000000e+00		0.000000e+00		0.000000e+00
0.000000e+00		0.000000e+00		0.000000e+00
0.000000e+00		0.000000e+00		0.000000e+00
0.000000e+00		0.000000e+00		0.000000e+00
0.000000e+00		0.000000e+00		0.000000e+00
0.000000e+00		0.000000e+00		0.000000e+00
0.000000e+00		0.000000e+00		0.000000e+00
0.000000e+00		0.000000e+00		0.000000e+00
0.000000e+00		0.000000e+00		0.000000e+00
0.000000e+00		0.000000e+00		0.000000e+00
0.000000e+00		0.000000e+00		0.000000e+00
0.000000e+00		0.000000e+00		0.000000e+00
0.000000e+00		0.000000e+00		0.000000e+00
0.000000e+00		0.000000e+00		0.000000e+00
0.000000e+00		0.000000e+00		0.000000e+00
0.000000e+00		0.000000e+00		0.000000e+00
0.000000e+00		0.000000e+00		0.000000e+00
0.000000e+00		0.000000e+00		0.000000e+00
0.000000e+00		0.000000e+00		0.000000e+00
0.000000e+00		0.000000e+00		0.000000e+00
0.000000e+00		0.000000e+00		0.000000e+00
0.000000e+00		0.000000e+00		0.000000e+00
0.000000e+00		0.000000e+00		0.000000e+00
0.000000e+00		0.000000e+00		0.000000e+00
0.000000e+00		0.000000e+00		0.000000e+00
0.000000e+00		0.000000e+00		0.000000e+00
0.000000e+00		0.000000e+00		0.000000e+00
0.000000e+00		0.000000e+00		0.000000e+00
0.000000e+00		0.000000e+00		0.000000e+00
0.000000e+00		0.000000e+00		0.000000e+00
0.000000e+00		0.000000e+00		0.000000e+00
0.000000e+00		0.000000e+00		0.000000e+00
0.000000e+00		0.000000e+00		0.000000e+00
0.000000e+00		0.000000e+00		0.000000e+00
0.000000e+00		0.000000e+00		0.000000e+00
0.000000e+00		0.000000e+00		0.000000e+00
0.000000e+00		0.000000e+00		0.000000e+00
0.000000e+00		0.000000e+00		0.000000e+00
0.000000e+00		0.000000e+00		0.000000e+00
0.000000e+00		0.000000e+00		0.000000e+00
0.000000e+00		0.000000e+00		0.000000e+00
0.000000e+00		0.000000e+00		0.000000e+00
0.000000e+00		0.000000e+00		0.000000e+00
0.000000e+00		0.000000e+00		0.000000e+00
0.000000e+00		0.000000e+00		0.000000e+00
0.000000e+00		0.000000e+00		0.000000e+00
0.000000e+00		0.000000e+00		0.000000e+00
0.000000e+00		0.000000e+00		0.000000e+00
0.000000e+00		0.000000e+00		0.000000e+00
0.000000e+00		0.000000e+00		0.000000e+00
0.000000e+00		0.000000e+00		0.000000e+00
0.000000e+00		0.000000e+00		0.000000e+00
0.000000e+00		0.000000e+00		0.000000e+00
0.000000e+00		0.000000e+00		0.000000e+00
0.000000e+00		0.000000e+00		0.000000e+00
0.000000e+00		0.000000e+00		0.000000e+00
0.000000e+00		0.000000e+00		0.000000e+00
0.000000e+00		0.000000e+00		0.000000e+00
0.000000e+00		0.000000e+00		0.000000e+00
0.000000e+00		0.000000e+00		0.000000e+00
0.000000e+00		0.000000e+00		0.000000e+00
0.000000e+00		0.000000e+00		0.000000e+00
0.000000e+00		0.000000e+00		0.000000e+00
0.000000e+00		0.000000e+00		0.000000e+00
0.000000e+00		0.000000e+00		0.000000e+00
0.000000e+00		0.000000e+00		0.000000e+00
0.000000e+00		0.000000e+00		0.000000e+00
0.000000e+00		0.000000e+00		0.000000e+00
0.000000e+00		0.000000e+00		0.000000e+00
0.000000e+00		0.000000e+00		0.000000e+00
0.000000e+00		0.000000e+00		0.000000e+00
0.000000e+00		0.000000e+00		0.000000e+00
0.000000e+00		0.000000e+00		0.000000e+00
0.000000e+00		0.000000e+00		0.000000e+00
0.000000e+00		0.000000e+00		0.000000e+00
0.000000e+00		0.000000e+00		0.000000e+00
0.000000e+00		0.000000e+00		0.000000e+00
0.000000e+00		0.000000e+00		0.000000e+00
0.000000e+00		0.000000e+00		0.000000e+00
0.000000e+00		0.000000e+00		0.000000e+00
0.000000e+00		0.000000e+00		0.000000e+00
0.000000e+00		0.000000e+00		0.000000e+00
0.000000e+00		0.000000e+00		0.000000e+00
0.000000e+00		0.000000e+00		0.000000e+00
0.000000e+00		0.000000e+00		0.000000e+00
0.000000e+00		0.000000e+00		0.000000e+00
0.000000e+00		0.000000e+00		0.000000e+00
0.000000e+00		0.000000e+00		0.000000e+00
0.000000e+00		0.000000e+00		0.000000e+00
0.000000e+00		0.000000e+00		0.000000e+00
0.000000e+00		0.000000e+00		0.000000e+00
0.000000e+00		0.000000e+00		0.000000e+00
0.000000e+00		0.000000e+00		0.000000e+00
0.000000e+00		0.000000e+00		0.000000e+00
0.000000e+00		0.000000e+00		0.000000e+00
0.000000e+00		0.000000e+00		0.000000e+00
0.000000e+00		0.000000e+00		0.000000e+00
0.000000e+00		0.000000e+00		0.000000e+00
0.000000e+00		0.000000e+00		0.000000e+00
0.000000e+00		0.000000e+00		0.000000e+00
0.000000e+00		0.000000e+00		0.000000e+00
0.000000e+00		0.000000e+00		0.000000e+00
0.000000e+00		0.000000e+00		0.000000e+00
0.000000e+00		0.000000e+00		0.000000e+00
0.000000e+00		0.000000e+00		0.000000e+00
0.000000e+00		0.000000e+00		0.000000e+00
0.000000e+00		0.000000e+00		0.000000e+00
0.000000e+00		0.000000e+00		0.000000e+00
0.000000e+00		0.000000e+00		0.000000e+00
0.000000e+00		0.000000e+00		0.000000e+00
0.000000e+00		0.000000e+00		0.000000e+00
0.000000e+00		0.000000e+00		0.000000e+00
0.000000e+00		0.000000e+00		0.000000e+00
0.000000e+00		0.000000e+00		0.000000e+00
3.778611e+07		3.308515e+07		1.211239e+07
1.799739e+08		6.387590e+07		-5.247175e+08
6.737997e+07		-1.095432e+07		8.202554e+07
2.017050e+08		3.266005e+07		-5.697097e+08
6.747586e+07		4.002824e-06		8.431886e+07
2.017050e+08		-3.266005e+07		-5.697097e+08
6.737997e+07		1.095432e+07		8.202554e+07
1.799739e+08		-6.387590e+07		-5.247175e+08
3.778611e+07		-3.308515e+07		1.211239e+07
-1.941202e+06		1.810897e+08		-4.678578e+08
5.773652e+07		1.057093e+08		-7.267565e+08
7.238231e+07		-1.145154e-05		-7.359466e+08
5.773652e+07		-1.057093e+08		-7.267565e+08
-1.941202e+06		-1.810897e+08		-4.678578e+08
-1.000739e+07		1.797908e+07		7.909712e+07
5.116961e+07		7.426742e+07		-4.706006e+08
-1.078847e+07		-2.277699e+07		2.382397e+08
1.034122e+08		3.747146e+07		-4.914257e+08
-2.330846e+07		4.392784e-06		2.473873e+08
1.034122e+08		-3.747146e+07		-4.914257e+08
-1.078847e+07		2.277699e+07		2.382397e+08
5.116961e+07		-7.426742e+07		-4.706006e+08
-1.000739e+07		-1.797908e+07		7.909712e+07
-7.613523e+06		5.735728e+07		-1.580305e+08
6.062965e+07		3.327049e+07		-2.428118e+08
8.579172e+07		-1.501472e-06		-2.441246e+08
6.062965e+07		-3.327049e+07		-2.428118e+08
-7.613523e+06		-5.735728e+07		-1.580305e+08
-1.770182e+07		2.348796e-06		1.916662e-06
1.360173e+07		-4.936010e-06		4.954636e-07
-2.699385e+07		1.011416e-06		4.174188e-06
7.368873e+07		1.225621e-06		-2.034009e-06
-4.591588e+07		3.036112e-06		5.537644e-06
7.368873e+07		2.864748e-06		-9.417534e-06
-2.699385e+07		4.969537e-06		8.422881e-06
1.360173e+07		-3.904104e-06		-1.469627e-05
-1.770182e+07		-2.253801e-06		-5.215406e-07
-7.613523e+06		-5.735728e+07		1.580305e+08
6.062965e+07		-3.327049e+07		2.428118e+08
8.579172e+07		6.280839e-06		2.441246e+08
6.062965e+07		3.327049e+07		2.428118e+08
-7.613523e+06		5.735728e+07		1.580305e+08
-1.000739e+07		-1.797908e+07		-7.909712e+07
5.116961e+07		-7.426742e+07		4.706006e+08
-1.078847e+07		2.277699e+07		-2.382397e+08
1.034122e+08		-3.747146e+07		4.914257e+08
-2.330846e+07		-2.086163e-06		-2.473873e+08
1.034122e+08		3.747146e+07		4.914257e+08
-1.078847e+07		-2.277699e+07		-2.382397e+08
5.116961e+07		7.426742e+07		4.706006e+08
-1.000739e+07		1.797908e+07		-7.909712e+07
-1.941202e+06		-1.810897e+08		4.678578e+08
5.773652e+07		-1.057093e+08		7.267565e+08
7.238231e+07		1.150370e-05		7.359466e+08
5.773652e+07		1.057093e+08		7.267565e+08
-1.941202e+06		1.810897e+08		4.678578e+08
3.778611e+07		-3.308515e+07		-1.211239e+07
1.799739e+08		-6.387590e+07		5.247175e+08
6.737997e+07		1.095432e+07		-8.202554e+07
2.017050e+08		-3.266005e+07		5.697097e+08
6.747586e+07		-2.767891e-06		-8.431886e+07
2.017050e+08		3.266005e+07		5.697097e+08
6.737997e+07		-1.095432e+07		-8.202554e+07
1.799739e+08		6.387590e+07		5.247175e+08
3.778611e+07		3.308515e+07		-1.211239e+07
VECTORS velocity double
0.000000e+00		0.000000e+00		0.000000e+00
0.000000e+00		0.000000e+00		0.000000e+00
0.000000e+00		0.000000e+00		0.000000e+00
0.000000e+00		0.000000e+00		0.000000e+00
0.000000e+00		0.000000e+00		0.000000e+00
0.000000e+00		0.000000e+00		0.000000e+00
0.000000e+00		0.000000e+00		0.000000e+00
0.000000e+00		0.000000e+00		0.000000e+00
0.000000e+00		0.000000e+00		0.000000e+00
0.000000e+00		0.000000e+00		0.000000e+00
0.000000e+00		0.000000e+00		0.000000e+00
0.000000e+00		0.000000e+00		0.000000e+00
0.000000e+00		0.000000e+00		0.000000e+00
0.000000e+00		0.000000e+00		0.000000e+00
0.000000e+00		0.000000e+00		0.000000e+00
0.000000e+00		0.000000e+00		0.000000e+00
0.000000e+00		0.000000e+00		0.000000e+00
0.000000e+00		0.000000e+00		0.000000e+00
0.000000e+00		0.000000e+00		0.000000e+00
0.000000e+00		0.000000e+00		0.000000e+00
0.000000e+00		0.000000e+00		0.000000e+00
0.000000e+00		0.000000e+00		0.000000e+00
0.000000e+00		0.000000e+00		0.000000e+00
0.000000e+00		0.000000e+00		0.000000e+00
0.000000e+00		0.000000e+00		0.000000e+00
0.000000e+00		0.000000e+00		0.000000e+00
0.000000e+00		0.000000e+00		0.000000e+00
0.000000e+00		0.000000e+00		0.000000e+00
0.000000e+00		0.000000e+00		0.000000e+00
0.000000e+00		0.000000e+00		0.000000e+00
0.000000e+00		0.000000e+00		0.000000e+00
0.000000e+00		0.000000e+00		0.000000e+00
0.000000e+00		0.000000e+00		0.000000e+00
0.000000e+00		0.000000e+00		0.000000e+00
0.000000e+00		0.000000e+00		0.000000e+00
0.000000e+00		0.000000e+00		0.000000e+00
0.000000e+00		0.000000e+00		0.000000e+00
0.000000e+00		0.000000e+00		0.000000e+00
0.000000e+00		0.000000e+00		0.000000e+00
0.000000e+00		0.000000e+00		0.000000e+00
0.000000e+00		0.000000e+00		0.000000e+00
0.000000e+00		0.000000e+00		0.000000e+00
0.000000e+00		0.000000e+00		0.000000e+00
0.000000e+00		0.000000e+00		0.000000e+00
0.000000e+00		0.000000e+00		0.000000e+00
0.000000e+00		0.000000e+00		0.000000e+00
0.000000e+00		0.000000e+00		0.000000e+00
0.000000e+00		0.000000e+00		0.000000e+00
0.000000e+00		0.000000e+00		0.000000e+00
0.000000e+00		0.000000e+00		0.000000e+00
0.000000e+00		0.000000e+00		0.000000e+00
0.000000e+00		0.000000e+00		0.000000e+00
0.000000e+00		0.000000e+00		0.000000e+00
0.000000e+00		0.000000e+00		0.000000e+00
0.000000e+00		0.000000e+00		0.000000e+00
0.000000e+00		0.000000e+00		0.000000e+00
0.000000e+00		0.000000e+00		0.000000e+00
0.000000e+00		0.000000e+00		0.000000e+00
0.000000e+00		0.000000e+00		0.000000e+00
0.000000e+00		0.000000e+00		0.000000e+00
0.000000e+00		0.000000e+00		0.000000e+00
0.000000e+00		0.000000e+00		0.000000e+00
0.000000e+00		0.000000e+00		0.000000e+00
0.000000e+00		0.000000e+00		0.000000e+00
0.000000e+00		0.000000e+00		0.000000e+00
0.000000e+00		0.000000e+00		0.000000e+00
0.000000e+00		0.000000e+00		0.000000e+00
0.000000e+00		0.000000e+00		0.000000e+00
0.000000e+00		0.000000e+00		0.000000e+00
0.000000e+00		0.000000e+00		0.000000e+00
0.000000e+00		0.000000e+00		0.000000e+00
0.000000e+00		0.000000e+00		0.000000e+00
0.000000e+00		0.000000e+00		0.000000e+00
0.000000e+00		0.000000e+00		0.000000e+00
0.000000e+00		0.000000e+00		0.000000e+00
0.000000e+00		0.000000e+00		0.000000e+00
0.000000e+00		0.000000e+00		0.000000e+00
0.000000e+00		0.000000e+00		0.000000e+00
0.000000e+00		0.000000e+00		0.000000e+00
0.000000e+00		0.000000e+00		0.000000e+00
0.000000e+00		0.000000e+00		0.000000e+00
0.000000e+00		0.000000e+00		0.000000e+00
0.000000e+00		0.000000e+00		0.000000e+00
0.000000e+00		0.000000e+00		0.000000e+00
0.000000e+00		0.000000e+00		0.000000e+00
0.000000e+00		0.000000e+00		0.000000e+00
0.000000e+00		0.000000e+00		0.000000e+00
0.000000e+00		0.000000e+00		0.000000e+00
0.000000e+00		0.000000e+00		0.000000e+00
0.000000e+00		0.000000e+00		0.000000e+00
0.000000e+00		0.000000e+00		0.000000e+00
0.000000e+00		0.000000e+00		0.000000e+00
0.000000e+00		0.000000e+00		0.000000e+00
0.000000e+00		0.000000e+00		0.000000e+00
0.000000e+00		0.000000e+00		0.000000e+00
0.000000e+00		0.000000e+00		0.000000e+00
0.000000e+00		0.000000e+00		0.000000e+00
0.000000e+00		0.000000e+00		0.000000e+00
0.000000e+00		0.000000e+00		0.000000e+00
0.000000e+00		0.000000e+00		0.000000e+00
0.000000e+00		0.000000e+00		0.000000e+00
0.000000e+00		0.000000e+00		0.000000e+00
0.000000e+00		0.000000e+00		0.000000e+00
0.000000e+00		0.000000e+00		0.000000e+00
0.000000e+00		0.000000e+00		0.000000e+00
0.000000e+00		0.000000e+00		0.000000e+00
0.000000e+00		0.000000e+00		0.000000e+00
0.000000e+00		0.000000e+00		0.000000e+00
0.000000e+00		0.000000e+00		0.000000e+00
0.000000e+00		0.000000e+00		0.000000e+00
0.000000e+00		0.000000e+00		0.000000e+00
0.000000e+00		0.000000e+00		0.000000e+00
0.000000e+00		0.000000e+00		0.000000e+00
0.000000e+00		0.000000e+00		0.000000e+00
0.000000e+00		0.000000e+00		0.000000e+00
0.000000e+00		0.000000e+00		0.000000e+00
0.000000e+00		0.000000e+00		0.000000e+00
0.000000e+00		0.000000e+00		0.000000e+00
0.000000e+00		0.000000e+00		0.000000e+00
0.000000e+00		0.000000e+00		0.000000e+00
0.000000e+00		0.000000e+00		0.000000e+00
0.000000e+00		0.000000e+00		0.000000e+00
0.000000e+00		0.000000e+00		0.000000e+00
0.000000e+00		0.000000e+00		0.000000e+00
0.000000e+00		0.000000e+00		0.000000e+00
0.000000e+00		0.000000e+00		0.000000e+00
0.000000e+00		0.000000e+00		0.000000e+00
0.000000e+00		0.000000e+00		0.000000e+00
0.000000e+00		0.000000e+00		0.000000e+00
0.000000e+00		0.000000e+00		0.000000e+00
0.000000e+00		0.000000e+00		0.000000e+00
0.000000e+00		0.000000e+00		0.000000e+00
0.000000e+00		0.000000e+00		0.000000e+00
0.000000e+00		0.000000e+00		0.000000e+00
0.000000e+00		0.000000e+00		0.000000e+00
0.000000e+00		0.000000e+00		0.000000e+00
0.000000e+00		0.000000e+00		0.000000e+00
0.000000e+00		0.000000e+00		0.000000e+00
0.000000e+00		0.000000e+00		0.000000e+00
0.000000e+00		0.000000e+00		0.000000e+00
0.000000e+00		0.000000e+00		0.000000e+00
0.000000e+00		0.000000e+00		0.000000e+00
0.000000e+00		0.000000e+00		0.000000e+00
0.000000e+00		0.000000e+00		0.000000e+00
0.000000e+00		0.000000e+00		0.000000e+00
0.000000e+00		0.000000e+00		0.000000e+00
0.000000e+00		0.000000e+00		0.000000e+00
0.000000e+00		0.000000e+00		0.000000e+00
0.000000e+00		0.000000e+00		0.000000e+00
0.000000e+00		0.000000e+00		0.000000e+00
0.000000e+00		0.000000e+00		0.000000e+00
0.000000e+00		0.000000e+00		0.000000e+00
0.000000e+00		0.000000e+00		0.000000e+00
0.000000e+00		0.000000e+00		0.000000e+00
0.000000e+00		0.000000e+00		0.000000e+00
0.000000e+00		0.000000e+00		0.000000e+00
0.000000e+00		0.000000e+00		0.000000e+00
0.000000e+00		0.000000e+00		0.000000e+00
0.000000e+00		0.000000e+00		0.000000e+00
0.000000e+00		0.000000e+00		0.000000e+00
0.000000e+00		0.000000e+00		0.000000e+00
0.000000e+00		0.000000e+00		0.000000e+00
0.000000e+00		0.000000e+00		0.000000e+00
0.000000e+00		0.000000e+00		0.000000e+00
0.000000e+00		0.000000e+00		0.000000e+00
0.000000e+00		0.000000e+00		0.000000e+00
0.000000e+00		0.000000e+00		0.000000e+00
0.000000e+00		0.000000e+00		0.000000e+00
0.000000e+00		0.000000e+00		0.000000e+00
0.000000e+00		0.000000e+00		0.000000e+00
0.000000e+00		0.000000e+00		0.000000e+00
0.000000e+00		0.000000e+00		0.000000e+00
0.000000e+00		0.000000e+00		0.000000e+00
0.000000e+00		0.000000e+00		0.000000e+00
0.000000e+00		0.000000e+00		0.000000e+00
0.000000e+00		0.000000e+00		0.000000e+00
0.000000e+00		0.000000e+00		0.000000e+00
0.000000e+00		0.000000e+00		0.000000e+00
0.000000e+00		0.000000e+00		0.000000e+00
0.000000e+00		0.000000e+00		0.000000e+00
0.000000e+00		0.000000e+00		0.000000e+00
0.000000e+00		0.000000e+00		0.000000e+00
0.000000e+00		0.000000e+00		0.000000e+00
0.000000e+00		0.000000e+00		0.000000e+00
0.000000e+00		0.000000e+00		0.000000e+00
0.000000e+00		0.000000e+00		0.000000e+00
0.000000e+00		0.000000e+00		0.000000e+00
0.000000e+00		0.000000e+00		0.000000e+00
0.000000e+00		0.000000e+00		0.000000e+00
0.000000e+00		0.000000e+00		0.000000e+00
0.000000e+00		0.000000e+00		0.000000e+00
0.000000e+00		0.000000e+00		0.000000e+00
0.000000e+00		0.000000e+00		0.000000e+00
0.000000e+00		0.000000e+00		0.000000e+00
0.000000e+00		0.000000e+00		0.000000e+00
0.000000e+00		0.000000e+00		0.000000e+00
0.000000e+00		0.000000e+00		0.000000e+00
0.000000e+00		0.000000e+00		0.000000e+00
0.000000e+00		0.000000e+00		0.000000e+00
0.000000e+00		0.000000e+00		0.000000e+00
0.000000e+00		0.000000e+00		0.000000e+00
0.000000e+00		0.000000e+00		0.000000e+00
0.000000e+00		0.000000e+00		0.000000e+00
0.000000e+00		0.000000e+00		0.000000e+00
0.000000e+00		0.000000e+00		0.000000e+00
0.000000e+00		0.000000e+00		0.000000e+00
0.000000e+00		0.000000e+00		0.000000e+00
0.000000e+00		0.000000e+00		0.000000e+00
0.000000e+00		0.000000e+00		0.000000e+00
0.000000e+00		0.000000e+00		0.000000e+00
0.000000e+00		0.000000e+00		0.000000e+00
0.000000e+00		0.000000e+00		0.000000e+00
0.000000e+00		0.000000e+00		0.000000e+00
0.000000e+00		0.000000e+00		0.000000e+00
0.000000e+00		0.000000e+00		0.000000e+00
0.000000e+00		0.000000e+00		0.000000e+00
0.000000e+00		0.000000e+00		0.000000e+00
0.000000e+00		0.000000e+00		0.000000e+00
0.000000e+00		0.000000e+00		0.000000e+00
0.000000e+00		0.000000e+00		0.000000e+00
0.000000e+00		0.000000e+00		0.000000e+00
0.000000e+00		0.000000e+00		0.000000e+00
0.000000e+00		0.000000e+00		0.000000e+00
0.000000e+00		0.000000e+00		0.000000e+00
0.000000e+00		0.000000e+00		0.000000e+00
0.000000e+00		0.000000e+00		0.000000e+00
0.000000e+00		0.000000e+00		0.000000e+00
0.000000e+00		0.000000e+00		0.000000e+00
0.000000e+00		0.000000e+00		0.000000e+00
0.000000e+00		0.000000e+00		0.000000e+00
0.000000e+00		0.000000e+00		0.000000e+00
0.000000e+00		0.000000e+00		0.000000e+00
0.000000e+00		0.000000e+00		0.000000e+00
0.000000e+00		0.000000e+00		0.000000e+00
0.000000e+00		0.000000e+00		0.000000e+00
0.000000e+00		0.000000e+00		0.000000e+00
0.000000e+00		0.000000e+00		0.000000e+00
0.000000e+00		0.000000e+00		0.000000e+00
0.000000e+00		0.000000e+00		0.000000e+00
0.000000e+00		0.000000e+00		0.000000e+00
0.000000e+00		0.000000e+00		0.000000e+00
0.000000e+00		0.000000e+00		0.000000e+00
0.000000e+00		0.000000e+00		0.000000e+00
0.000000e+00		0.000000e+00		0.000000e+00
0.000000e+00		0.000000e+00		0.000000e+00
0.000000e+00		0.000000e+00		0.000000e+00
0.000000e+00		0.000000e+00		0.000000e+00
0.000000e+00		0.000000e+00		0.000000e+00
0.000000e+00		0.000000e+00		0.000000e+00
0.000000e+00		0.000000e+00		0.000000e+00
0.000000e+00		0.000000e+00		0.000000e+00
0.000000e+00		0.000000e+00		0.000000e+00
0.000000e+00		0.000000e+00		0.000000e+00
0.000000e+00		0.000000e+00		0.000000e+00
0.000000e+00		0.000000e+00		0.000000e+00
0.000000e+00		0.000000e+00		0.000000e+00
0.000000e+00		0.000000e+00		0.000000e+00
0.000000e+00		0.000000e+00		0.000000e+00
0.000000e+00		0.000000e+00		0.000000e+00
0.000000e+00		0.000000e+00		0.000000e+00
0.000000e+00		0.000000e+00		0.000000e+00
0.000000e+00		0.000000e+00		0.000000e+00
0.000000e+00		0.000000e+00		0.000000e+00
0.000000e+00		0.000000e+00		0.000000e+00
0.000000e+00		0.000000e+00		0.000000e+00
0.000000e+00		0.000000e+00		0.000000e+00
0.000000e+00		0.000000e+00		0.000000e+00
0.000000e+00		0.000000e+00		0.000000e+00
0.000000e+00		0.000000e+00		0.000000e+00
0.000000e+00		0.000000e+00		0.000000e+00
0.000000e+00		0.000000e+00		0.000000e+00
0.000000e+00		0.000000e+00		0.000000e+00
0.000000e+00		0.000000e+00		0.000000e+00
0.000000e+00		0.000000e+00		0.000000e+00
0.000000e+00		0.000000e+00		0.000000e+00
0.000000e+00		0.000000e+00		0.000000e+00
0.000000e+00		0.000000e+00		0.000000e+00
0.000000e+00		0.000000e+00		0.000000e+00
0.000000e+00		0.000000e+00		0.000000e+00
0.000000e+00		0.000000e+00		0.000000e+00
0.000000e+00		0.000000e+00		0.000000e+00
0.000000e+00		0.000000e+00		0.000000e+00
0.000000e+00		0.000000e+00		0.000000e+00
0.000000e+00		0.000000e+00		0.000000e+00
0.000000e+00		0.000000e+00		0.000000e+00
0.000000e+00		0.000000e+00		0.000000e+00
0.000000e+00		0.000000e+00		0.000000e+00
0.000000e+00		0.000000e+00		0.000000e+00
0.000000e+00		0.000000e+00		0.000000e+00
0.000000e+00		0.000000e+00		0.000000e+00
0.000000e+00		0.000000e+00		0.000000e+00
0.000000e+00		0.000000e+00		0.000000e+00
0.000000e+00		0.000000e+00		0.000000e+00
0.000000e+00		0.000000e+00		0.000000e+00
0.000000e+00		0.000000e+00		0.000000e+00
0.000000e+00		0.000000e+00		0.000000e+00
0.000000e+00		0.000000e+00		0.000000e+00
0.000000e+00		0.000000e+00		0.000000e+00
0.000000e+00		0.000000e+00		0.000000e+00
0.000000e+00		0.000000e+00		0.000000e+00
0.000000e+00		0.000000e+00		0.000000e+00
0.000000e+00		0.000000e+00		0.000000e+00
0.000000e+00		0.000000e+00		0.000000e+00
0.000000e+00		0.000000e+00		0.000000e+00
0.000000e+00		0.000000e+00		0.000000e+00
0.000000e+00		0.000000e+00		0.000000e+00
0.000000e+00		0.000000e+00		0.000000e+00
0.000000e+00		0.000000e+00		0.000000e+00
0.000000e+00		0.000000e+00		0.000000e+00
0.000000e+00		0.000000e+00		0.000000e+00
0.000000e+00		0.000000e+00		0.000000e+00
0.000000e+00		0.000000e+00		0.000000e+00
0.000000e+00		0.000000e+00		0.000000e+00
0.000000e+00		0.000000e+00		0.000000e+00
0.000000e+00		0.000000e+00		0.000000e+00
0.000000e+00		0.000000e+00		0.000000e+00
0.000000e+00		0.000000e+00		0.000000e+00
0.000000e+00		0.000000e+00		0.000000e+00
0.000000e+00		0.000000e+00		0.000000e+00
0.000000e+00		0.000000e+00		0.000000e+00
0.000000e+00		0.000000e+00		0.000000e+00
0.000000e+00		0.000000e+00		0.000000e+00
0.000000e+00		0.000000e+00		0.000000e+00
0.000000e+00		0.000000e+00		0.000000e+00
0.000000e+00		0.000000e+00		0.000000e+00
0.000000e+00		0.000000e+00		0.000000e+00
0.000000e+00		0.000000e+00		0.000000e+00
0.000000e+00		0.000000e+00		0.000000e+00
0.000000e+00		0.000000e+00		0.000000e+00
0.000000e+00		0.000000e+00		0.000000e+00
0.000000e+00		0.000000e+00		0.000000e+00
0.000000e+00		0.000000e+00		0.000000e+00
0.000000e+00		0.000000e+00		0.000000e+00
0.000000e+00		0.000000e+00		0.000000e+00
0.000000e+00		0.000000e+00		0.000000e+00
0.000000e+00		0.000000e+00		0.000000e+00
0.000000e+00		0.000000e+00		0.000000e+00
0.000000e+00		0.000000e+00		0.000000e+00
0.000000e+00		0.000000e+00		0.000000e+00
0.000000e+00		0.000000e+00		0.000000e+00
0.000000e+00		0.000000e+00		0.000000e+00
0.000000e+00		0.000000e+00		0.000000e+00
0.000000e+00		0.000000e+00		0.000000e+00
0.000000e+00		0.000000e+00		0.000000e+00
0.000000e+00		0.000000e+00		0.000000e+00
0.000000e+00		0.000000e+00		0.000000e+00
0.000000e+00		0.000000e+00		0.000000e+00
0.000000e+00		0.000000e+00		0.000000e+00
0.000000e+00		0.000000e+00		0.000000e+00
0.000000e+00		0.000000e+00		0.000000e+00
0.000000e+00		0.000000e+00		0.000000e+00
0.000000e+00		0.000000e+00		0.000000e+00
0.000000e+00		0.000000e+00		0.000000e+00
0.000000e+00		0.000000e+00		0.000000e+00
0.000000e+00		0.000000e+00		0.000000e+00
0.000000e+00		0.000000e+00		0.000000e+00
0.000000e+00		0.000000e+00		0.000000e+00
0.000000e+00		0.000000e+00		0.000000e+00
0.000000e+00		0.000000e+00		0.000000e+00
0.000000e+00		0.000000e+00		0.000000e+00
0.000000e+00		0.000000e+00		0.000000e+00
0.000000e+00		0.000000e+00		0.000000e+00
0.000000e+00		0.000000e+00		0.000000e+00
0.000000e+00		0.000000e+00		0.000000e+00
0.000000e+00		0.000000e+00		0.000000e+00
0.000000e+00		0.000000e+00		0.000000e+00
0.000000e+00		0.000000e+00		0.000000e+00
0.000000e+00		0.000000e+00		0.000000e+00
0.000000e+00		0.000000e+00		0.000000e+00
0.000000e+00		0.000000e+00		0.000000e+00
0.000000e+00		0.000000e+00		0.000000e+00
0.000000e+00		0.000000e+00		0.000000e+00
0.000000e+00		0.000000e+00		0.000000e+00
0.000000e+00		0.000000e+00		0.000000e+00
0.000000e+00		0.000000e+00		0.000000e+00
0.000000e+00		0.000000e+00		0.000000e+00
0.000000e+00		0.000000e+00		0.000000e+00
0.000000e+00		0.000000e+00		0.000000e+00
0.000000e+00		0.000000e+00		0.000000e+00
0.000000e+00		0.000000e+00		0.000000e+00
0.000000e+00		0.000000e+00		0.000000e+00
0.000000e+00		0.000000e+00		0.000000e+00
0.000000e+00		0.000000e+00		0.000000e+00
0.000000e+00		0.000000e+00		0.000000e+00
0.000000e+00		0.000000e+00		0.000000e+00
0.000000e+00		0.000000e+00		0.000000e+00
0.000000e+00		0.000000e+00		0.000000e+00
0.000000e+00		0.000000e+00		0.000000e+00
0.000000e+00		0.000000e+00		0.000000e+00
0.000000e+00		0.000000e+00		0.000000e+00
0.000000e+00		0.000000e+00		0.000000e+00
0.000000e+00		0.000000e+00		0.000000e+00
0.000000e+00		0.000000e+00		0.000000e+00
0.000000e+00		0.000000e+00		0.000000e+00
0.000000e+00		0.000000e+00		0.000000e+00
0.000000e+00		0.000000e+00		0.000000e+00
0.000000e+00		0.000000e+00		0.000000e+00
0.000000e+00		0.000000e+00		0.000000e+00
0.000000e+00		0.000000e+00		0.000000e+00
0.000000e+00		0.000000e+00		0.000000e+00
0.000000e+00		0.000000e+00		0.000000e+00
0.000000e+00		0.000000e+00		0.000000e+00
0.000000e+00		0.000000e+00		0.000000e+00
0.000000e+00		0.000000e+00		0.000000e+00
0.000000e+00		0.000000e+00		0.000000e+00
0.000000e+00		0.000000e+00		0.000000e+00
0.000000e+00		0.000000e+00		0.000000e+00
0.000000e+00		0.000000e+00		0.000000e+00
0.000000e+00		0.000000e+00		0.000000e+00
0.000000e+00		0.000000e+00		0.000000e+00
0.000000e+00		0.000000e+00		0.000000e+00
0.000000e+00		0.000000e+00		0.000000e+00
0.000000e+00		0.000000e+00		0.000000e+00
0.000000e+00		0.000000e+00		0.000000e+00
0.000000e+00		0.000000e+00		0.000000e+00
0.000000e+00		0.000000e+00		0.000000e+00
0.000000e+00		0.000000e+00		0.000000e+00
0.000000e+00		0.000000e+00		0.000000e+00
0.000000e+00		0.000000e+00		0.000000e+00
0.000000e+00		0.000000e+00		0.000000e+00
0.000000e+00		0.000000e+00		0.000000e+00
0.000000e+00		0.000000e+00		0.000000e+00
0.000000e+00		0.000000e+00		0.000000e+00
0.000000e+00		0.000000e+00		0.000000e+00
0.000000e+00		0.000000e+00		0.000000e+00
0.000000e+00		0.000000e+00		0.000000e+00
0.000000e+00		0.000000e+00		0.000000e+00
0.000000e+00		0.000000e+00		0.000000e+00
0.000000e+00		0.000000e+00		0.000000e+00
0.000000e+00		0.000000e+00		0.000000e+00
0.000000e+00		0.000000e+00		0.000000e+00
0.000000e+00		0.000000e+00		0.000000e+00
0.000000e+00		0.000000e+00		0.000000e+00
0.000000e+00		0.000000e+00		0.000000e+00
0.000000e+00		0.000000e+00		0.000000e+00
0.000000e+00		0.000000e+00		0.000000e+00
0.000000e+00		0.000000e+00		0.000000e+00
0.000000e+00		0.000000e+00		0.000000e+00
0.000000e+00		0.000000e+00		0.000000e+00
0.000000e+00		0.000000e+00		0.000000e+00
0.000000e+00		0.000000e+00		0.000000e+00
0.000000e+00		0.000000e+00		0.000000e+00
0.000000e+00		0.000000e+00		0.000000e+00
0.000000e+00		0.000000e+00		0.000000e+00
0.000000e+00		0.000000e+00		0.000000e+00
0.000000e+00		0.000000e+00		0.000000e+00
0.000000e+00		0.000000e+00		0.000000e+00
0.000000e+00		0.000000e+00		0.000000e+00
0.000000e+00		0.000000e+00		0.000000e+00
0.000000e+00		0.000000e+00		0.000000e+00
0.000000e+00		0.000000e+00		0.000000e+00
0.000000e+00		0.000000e+00		0.000000e+00
0.000000e+00		0.000000e+00		0.000000e+00
0.000000e+00		0.000000e+00		0.000000e+00
0.000000e+00		0.000000e+00		0.000000e+00
0.000000e+00		0.000000e+00		0.000000e+00
0.000000e+00		0.000000e+00		0.000000e+00
0.000000e+00		0.000000e+00		0.000000e+00
0.000000e+00		0.000000e+00		0.000000e+00
0.000000e+00		0.000000e+00		0.000000e+00
0.000000e+00		0.000000e+00		0.000000e+00
0.000000e+00		0.000000e+00		0.000000e+00
0.000000e+00		0.000000e+00		0.000000e+00
0.000000e+00		0.000000e+00		0.000000e+00
0.000000e+00		0.000000e+00		0.000000e+00
0.000000e+00		0.000000e+00		0.000000e+00
0.000000e+00		0.000000e+00		0.000000e+00
0.000000e+00		0.000000e+00		0.000000e+00
0.000000e+00		0.000000e+00		0.000000e+00
0.000000e+00		0.000000e+00		0.000000e+00
0.000000e+00		0.000000e+00		0.000000e+00
0.000000e+00		0.000000e+00		0.000000e+00
0.000000e+00		0.000000e+00		0.000000e+00
0.000000e+00		0.000000e+00		0.000000e+00
0.000000e+00		0.000000e+00		0.000000e+00
0.000000e+00		0.000000e+00		0.000000e+00
0.000000e+00		0.000000e+00		0.000000e+00
0.000000e+00		0.000000e+00		0.000000e+00
0.000000e+00		0.000000e+00		0.000000e+00
0.000000e+00		0.000000e+00		0.000000e+00
0.000000e+00		0.000000e+00		0.000000e+00
0.000000e+00		0.000000e+00		0.000000e+00
0.000000e+00		0.000000e+00		0.000000e+00
0.000000e+00		0.000000e+00		0.000000e+00
0.000000e+00		0.000000e+00		0.000000e+00
0.000000e+00		0.000000e+00		0.000000e+00
0.000000e+00		0.000000e+00		0.000000e+00
0.000000e+00		0.000000e+00		0.000000e+00
0.000000e+00		0.000000e+00		0.000000e+00
0.000000e+00		0.000000e+00		0.000000e+00
0.000000e+00		0.000000e+00		0.000000e+00
0.000000e+00		0.000000e+00		0.000000e+00
0.000000e+00		0.000000e+00		0.000000e+00
0.000000e+00		0.000000e+00		0.000000e+00
0.000000e+00		0.000000e+00		0.000000e+00
0.000000e+00		0.000000e+00		0.000000e+00
0.000000e+00		0.000000e+00		0.000000e+00
0.000000e+00		0.000000e+00		0.000000e+00
0.000000e+00		0.000000e+00		0.000000e+00
0.000000e+00		0.000000e+00		0.000000e+00
0.000000e+00		0.000000e+00		0.000000e+00
0.000000e+00		0.000000e+00		0.000000e+00
0.000000e+00		0.000000e+00		0.000000e+00
0.000000e+00		0.000000e+00		0.000000e+00
0.000000e+00		0.000000e+00		0.000000e+00
0.000000e+00		0.000000e+00		0.000000e+00
0.000000e+00		0.000000e+00		0.000000e+00
0.000000e+00		0.000000e+00		0.000000e+00
0.000000e+00		0.000000e+00		0.000000e+00
0.000000e+00		0.000000e+00		0.000000e+00
0.000000e+00		0.000000e+00		0.000000e+00
0.000000e+00		0.000000e+00		0.000000e+00
0.000000e+00		0.000000e+00		0.000000e+00
0.000000e+00		0.000000e+00		0.000000e+00
0.000000e+00		0.000000e+00		0.000000e+00
0.000000e+00		0.000000e+00		0.000000e+00
0.000000e+00		0.000000e+00		0.000000e+00
0.000000e+00		0.000000e+00		0.000000e+00
0.000000e+00		0.000000e+00		0.000000e+00
0.000000e+00		0.000000e+00		0.000000e+00
0.000000e+00		0.000000e+00		0.000000e+00
0.000000e+00		0.000000e+00		0.000000e+00
0.000000e+00		0.000000e+00		0.000000e+00
0.000000e+00		0.000000e+00		0.000000e+00
0.000000e+00		0.000000e+00		0.000000e+00
0.000000e+00		0.000000e+00		0.000000e+00
0.000000e+00		0.000000e+00		0.000000e+00
0.000000e+00		0.000000e+00		0.000000e+00
0.000000e+00		0.000000e+00		0.000000e+00
0.000000e+00		0.000000e+00		0.000000e+00
0.000000e+00		0.000000e+00		0.000000e+00
0.000000e+00		0.000000e+00		0.000000e+00
0.000000e+00		0.000000e+00		0.000000e+00
0.000000e+00		0.000000e+00		0.000000e+00
0.000000e+00		0.000000e+00		0.000000e+00
0.000000e+00		0.000000e+00		0.000000e+00
0.000000e+00		0.000000e+00		0.000000e+00
0.000000e+00		0.000000e+00		0.000000e+00
0.000000e+00		0.000000e+00		0.000000e+00
0.000000e+00		0.000000e+00		0.000000e+00
0.000000e+00		0.000000e+00		0.000000e+00
0.000000e+00		0.000000e+00		0.000000e+00
0.000000e+00		0.000000e+00		0.000000e+00
0.000000e+00		0.000000e+00		0.000000e+00
0.000000e+00		0.000000e+00		0.000000e+00
0.000000e+00		0.000000e+00		0.000000e+00
0.000000e+00		0.000000e+00		0.000000e+00
0.000000e+00		0.000000e+00		0.000000e+00
0.000000e+00		0.000000e+00		0.000000e+00
0.000000e+00		0.000000e+00		0.000000e+00
0.000000e+00		0.000000e+00		0.000000e+00
0.000000e+00		0.000000e+00		0.000000e+00
0.000000e+00		0.000000e+00		0.000000e+00
0.000000e+00		0.000000e+00		0.000000e+00
0.000000e+00		0.000000e+00		0.000000e+00
0.000000e+00		0.000000e+00		0.000000e+00
0.000000e+00		0.000000e+00		0.000000e+00
0.000000e+00		0.000000e+00		0.000000e+00
0.000000e+00		0.000000e+00		0.000000e+00
0.000000e+00		0.000000e+00		0.000000e+00
0.000000e+00		0.000000e+00		0.000000e+00
0.000000e+00		0.000000e+00		0.000000e+00
0.000000e+00		0.000000e+00		0.000000e+00
0.000000e+00		0.000000e+00		0.000000e+00
0.000000e+00		0.000000e+00		0.000000e+00
0.000000e+00		0.000000e+00		0.000000e+00
0.000000e+00		0.000000e+00		0.000000e+00
0.000000e+00		0.000000e+00		0.000000e+00
0.000000e+00		0.000000e+00		0.000000e+00
0.000000e+00		0.000000e+00		0.000000e+00
0.000000e+00		0.000000e+00		0.000000e+00
0.000000e+00		0.000000e+00		0.000000e+00
0.000000e+00		0.000000e+00		0.000000e+00
0.000000e+00		0.000000e+00		0.000000e+00
0.000000e+00		0.000000e+00		0.000000e+00
0.000000e+00		0.000000e+00		0.000000e+00
0.000000e+00		0.000000e+00		0.000000e+00
0.000000e+00		0.000000e+00		0.000000e+00
0.000000e+00		0.000000e+00		0.000000e+00
0.000000e+00		0.000000e+00		0.000000e+00
0.000000e+00		0.000000e+00		0.000000e+00
0.000000e+00		0.000000e+00		0.000000e+00
0.000000e+00		0.000000e+00		0.000000e+00
0.000000e+00		0.000000e+00		0.000000e+00
0.000000e+00		0.000000e+00		0.000000e+00
0.000000e+00		0.000000e+00		0.000000e+00
0.000000e+00		0.000000e+00		0.000000e+00
0.000000e+00		0.000000e+00		0.000000e+00
0.000000e+00		0.000000e+00		0.000000e+00
0.000000e+00		0.000000e+00		0.000000e+00
0.000000e+00		0.000000e+00		0.000000e+00
0.000000e+00		0.000000e+00		0.000000e+00
0.000000e+00		0.000000e+00		0.000000e+00
0.000000e+00		0.000000e+00		0.000000e+00
0.000000e+00		0.000000e+00		0.000000e+00
0.000000e+00		0.000000e+00		0.000000e+00
0.000000e+00		0.000000e+00		0.000000e+00
0.000000e+00		0.000000e+00		0.000000e+00
0.000000e+00		0.000000e+00		0.000000e+00
0.000000e+00		0.000000e+00		0.000000e+00
0.000000e+00		0.000000e+00		0.000000e+00
0.000000e+00		0.000000e+00		0.000000e+00
0.000000e+00		0.000000e+00		0.000000e+00
0.000000e+00		0.000000e+00		0.000000e+00
0.000000e+00		0.000000e+00		0.000000e+00
0.000000e+00		0.000000e+00		0.000000e+00
0.000000e+00		0.000000e+00		0.000000e+00
0.000000e+00		0.000000e+00		0.000000e+00
0.000000e+00		0.000000e+00		0.000000e+00
0.000000e+00		0.000000e+00		0.000000e+00
0.000000e+00		0.000000e+00		0.000000e+00
0.000000e+00		0.000000e+00		0.000000e+00
0.000000e+00		0.000000e+00		0.000000e+00
0.000000e+00		0.000000e+00		0.000000e+00
0.000000e+00		0.000000e+00		0.000000e+00
0.000000e+00		0.000000e+00		0.000000e+00
0.000000e+00		0.000000e+00		0.000000e+00
0.000000e+00		0.000000e+00		0.000000e+00
0.000000e+00		0.000000e+00		0.000000e+00
0.000000e+00		0.000000e+00		0.000000e+00
0.000000e+00		0.000000e+00		0.000000e+00
0.000000e+00		0.000000e+00		0.000000e+00
0.000000e+00		0.000000e+00		0.000000e+00
0.000000e+00		0.000000e+00		0.000000e+00
0.000000e+00		0.000000e+00		0.000000e+00
0.000000e+00		0.000000e+00		0.000000e+00
0.000000e+00		0.000000e+00		0.000000e+00
0.000000e+00		0.000000e+00		0.000000e+00
0.000000e+00		0.000000e+00		0.000000e+00
0.000000e+00		0.000000e+00		0.000000e+00
0.000000e+00		0.000000e+00		0.000000e+00
0.000000e+00		0.000000e+00		0.000000e+00
0.000000e+00		0.000000e+00		0.000000e+00
0.000000e+00		0.000000e+00		0.000000e+00
0.000000e+00		0.000000e+00		0.000000e+00
0.000000e+00		0.000000e+00		0.000000e+00
0.000000e+00		0.000000e+00		0.000000e+00
0.000000e+00		0.000000e+00		0.000000e+00
0.000000e+00		0.000000e+00		0.000000e+00
0.000000e+00		0.000000e+00		0.000000e+00
0.000000e+00		0.000000e+00		0.000000e+00
0.000000e+00		0.000000e+00		0.000000e+00
0.000000e+00		0.000000e+00		0.000000e+00
0.000000e+00		0.000000e+00		0.000000e+00
0.000000e+00		0.000000e+00		0.000000e+00
0.000000e+00		0.000000e+00		0.000000e+00
0.000000e+00		0.000000e+00		0.000000e+00
0.000000e+00		0.000000e+00		0.000000e+00
0.000000e+00		0.000000e+00		0.000000e+00
0.000000e+00		0.000000e+00		0.000000e+00
0.000000e+00		0.000000e+00		0.000000e+00
0.000000e+00		0.000000e+00		0.000000e+00
0.000000e+00		0.000000e+00		0.000000e+00
0.000000e+00		0.000000e+00		0.000000e+00
0.000000e+00		0.000000e+00		0.000000e+00
0.000000e+00		0.000000e+00		0.000000e+00
0.000000e+00		0.000000e+00		0.000000e+00
0.000000e+00		0.000000e+00		0.000000e+00
0.000000e+00		0.000000e+00		0.000000e+00
0.000000e+00		0.000000e+00		0.000000e+00
0.000000e+00		0.000000e+00		0.000000e+00
0.000000e+00		0.000000e+00		0.000000e+00
0.000000e+00		0.000000e+00		0.000000e+00
0.000000e+00		0.000000e+00		0.000000e+00
0.000000e+00		0.000000e+00		0.000000e+00
0.000000e+00		0.000000e+00		0.000000e+00
0.000000e+00		0.000000e+00		0.000000e+00
0.000000e+00		0.000000e+00		0.000000e+00
0.000000e+00		0.000000e+00		0.000000e+00
0.000000e+00		0.000000e+00		0.000000e+00
0.000000e+00		0.000000e+00		0.000000e+00
0.000000e+00		0.000000e+00		0.000000e+00
0.000000e+00		0.000000e+00		0.000000e+00
0.000000e+00		0.000000e+00		0.000000e+00
0.000000e+00		0.000000e+00		0.000000e+00
0.000000e+00		0.000000e+00		0.000000e+00
0.000000e+00		0.000000e+00		0.000000e+00
0.000000e+00		0.000000e+00		0.000000e+00
0.000000e+00		0.000000e+00		0.000000e+00
0.000000e+00		0.000000e+00		0.000000e+00
0.000000e+00		0.000000e+00		0.000000e+00
0.000000e+00		0.000000e+00		0.000000e+00
0.000000e+00		0.000000e+00		0.000000e+00
0.000000e+00		0.000000e+00		0.000000e+00
0.000000e+00		0.000000e+00		0.000000e+00
0.000000e+00		0.000000e+00		0.000000e+00
0.000000e+00		0.000000e+00		0.000000e+00
0.000000e+00		0.000000e+00		0.000000e+00
0.000000e+00		0.000000e+00		0.000000e+00
0.000000e+00		0.000000e+00		0.000000e+00
0.000000e+00		0.000000e+00		0.000000e+00
0.000000e+00		0.000000e+00		0.000000e+00
0.000000e+00		0.000000e+00		0.000000e+00
0.000000e+00		0.000000e+00		0.000000e+00
0.000000e+00		0.000000e+00		0.000000e+00
0.000000e+00		0.000000e+00		0.000000e+00
0.000000e+00		0.000000e+00		0.000000e+00
0.000000e+00		0.000000e+00		0.000000e+00
0.000000e+00		0.000000e+00		0.000000e+00
0.000000e+00		0.000000e+00		0.000000e+00
0.000000e+00		0.000000e+00		0.000000e+00
0.000000e+00		0.000000e+00		0.000000e+00
0.000000e+00		0.000000e+00		0.000000e+00
0.000000e+00		0.000000e+00		0.000000e+00
0.000000e+00		0.000000e+00		0.000000e+00
0.000000e+00		0.000000e+00		0.000000e+00
0.000000e+00		0.000000e+00		0.000000e+00
0.000000e+00		0.000000e+00		0.000000e+00
0.000000e+00		0.000000e+00		0.000000e+00
0.000000e+00		0.000000e+00		0.000000e+00
0.000000e+00		0.000000e+00		0.000000e+00
0.000000e+00		0.000000e+00		0.000000e+00
0.000000e+00		0.000000e+00		0.000000e+00
0.000000e+00		0.000000e+00		0.000000e+00
0.000000e+00		0.000000e+00		0.000000e+00
0.000000e+00		0.000000e+00		0.000000e+00
0.000000e+00		0.000000e+00		0.000000e+00
0.000000e+00		0.000000e+00		0.000000e+00
0.000000e+00		0.000000e+00		0.000000e+00
0.000000e+00		0.000000e+00		0.000000e+00
0.000000e+00		0.000000e+00		0.000000e+00
0.000000e+00		0.000000e+00		0.000000e+00
0.000000e+00		0.000000e+00		0.000000e+00
0.000000e+00		0.000000e+00		0.000000e+00
0.000000e+00		0.000000e+00		0.000000e+00
0.000000e+00		0.000000e+00		0.000000e+00
0.000000e+00		0.000000e+00		0.000000e+00
0.000000e+00		0.000000e+00		0.000000e+00
0.000000e+00		0.000000e+00		0.000000e+00
0.000000e+00		0.000000e+00		0.000000e+00
0.000000e+00		0.000000e+00		0.000000e+00
0.000000e+00		0.000000e+00		0.000000e+00
0.000000e+00		0.000000e+00		0.000000e+00
0.000000e+00		0.000000e+00		0.000000e+00
0.000000e+00		0.000000e+00		0.000000e+00
0.000000e+00		0.000000e+00		0.000000e+00
0.000000e+00		0.000000e+00		0.000000e+00
0.000000e+00		0.000000e+00		0.000000e+00
0.000000e+00		0.000000e+00		0.000000e+00
0.000000e+00		0.000000e+00		0.000000e+00
0.000000e+00		0.000000e+00		0.000000e+00
0.000000e+00		0.000000e+00		0.000000e+00
0.000000e+00		0.000000e+00		0.000000e+00
0.000000e+00		0.000000e+00		0.000000e+00
0.000000e+00		0.000000e+00		0.000000e+00
0.000000e+00		0.000000e+00		0.000000e+00
0.000000e+00		0.000000e+00		0.000000e+00
0.000000e+00		0.000000e+00		0.000000e+00
0.000000e+00		0.000000e+00		0.000000e+00
0.000000e+00		0.000000e+00		0.000000e+00
0.000000e+00		0.000000e+00		0.000000e+00
0.000000e+00		0.000000e+00		0.000000e+00
0.000000e+00		0.000000e+00		0.000000e+00
0.000000e+00		0.000000e+00		0.000000e+00
0.000000e+00		0.000000e+00		0.000000e+00
0.000000e+00		0.000000e+00		0.000000e+00
0.000000e+00		0.000000e+00		0.000000e+00
0.000000e+00		0.000000e+00		0.000000e+00
0.000000e+00		0.000000e+00		0.000000e+00
0.000000e+00		0.000000e+00		0.000000e+00
0.000000e+00		0.000000e+00		0.000000e+00
0.000000e+00		0.000000e+00		0.000000e+00
0.000000e+00		0.000000e+00		0.000000e+00
0.000000e+00		0.000000e+00		0.000000e+00
0.000000e+00		0.000000e+00		0.000000e+00
0.000000e+00		0.000000e+00		0.000000e+00
0.000000e+00		0.000000e+00		0.000000e+00
0.000000e+00		0.000000e+00		0.000000e+00
0.000000e+00		0.000000e+00		0.000000e+00
0.000000e+00		0.000000e+00		0.000000e+00
0.000000e+00		0.000000e+00		0.000000e+00
0.000000e+00		0.000000e+00		0.000000e+00
0.000000e+00		0.000000e+00		0.000000e+00
0.000000e+00		0.000000e+00		0.000000e+00
0.000000e+00		0.000000e+00		0.000000e+00
0.000000e+00		0.000000e+00		0.000000e+00
0.000000e+00		0.000000e+00		0.000000e+00
0.000000e+00		0.000000e+00		0.000000e+00
0.000000e+00		0.000000e+00		0.000000e+00
0.000000e+00		0.000000e+00		0.000000e+00
0.000000e+00		0.000000e+00		0.000000e+00
0.000000e+00		0.000000e+00		0.000000e+00
0.000000e+00		0.000000e+00		0.000000e+00
0.000000e+00		0.000000e+00		0.000000e+00
0.000000e+00		0.000000e+00		0.000000e+00
0.000000e+00		0.000000e+00		0.000000e+00
0.000000e+00		0.000000e+00		0.000000e+00
0.000000e+00		0.000000e+00		0.000000e+00
0.000000e+00		0.000000e+00		0.000000e+00
0.000000e+00		0.000000e+00		0.000000e+00
0.000000e+00		0.000000e+00		0.000000e+00
0.000000e+00		0.000000e+00		0.000000e+00
0.000000e+00		0.000000e+00		0.000000e+00
0.000000e+00		0.000000e+00		0.000000e+00
0.000000e+00		0.000000e+00		0.000000e+00
0.000000e+00		0.000000e+00		0.000000e+00
0.000000e+00		0.000000e+00		0.000000e+00
0.000000e+00		0.000000e+00		0.000000e+00
0.000000e+00		0.000000e+00		0.000000e+00
0.000000e+00		0.000000e+00		0.000000e+00
0.000000e+00		0.000000e+00		0.000000e+00
0.000000e+00		0.000000e+00		0.000000e+00
0.000000e+00		0.000000e+00		0.000000e+00
0.000000e+00		0.000000e+00		0.000000e+00
0.000000e+00		0.000000e+00		0.000000e+00
0.000000e+00		0.000000e+00		0.000000e+00
0.000000e+00		0.000000e+00		0.000000e+00
0.000000e+00		0.000000e+00		0.000000e+00
0.000000e+00		0.000000e+00		0.000000e+00
0.000000e+00		0.000000e+00		0.000000e+00
0.000000e+00		0.000000e+00		0.000000e+00
0.000000e+00		0.000000e+00		0.000000e+00
0.000000e+00		0.000000e+00		0.000000e+00
0.000000e+00		0.000000e+00		0.000000e+00
0.000000e+00		0.000000e+00		0.000000e+00
0.000000e+00		0.000000e+00		0.000000e+00
0.000000e+00		0.000000e+00		0.000000e+00
0.000000e+00		0.000000e+00		0.000000e+00
0.000000e+00		0.000000e+00		0.000000e+00
0.000000e+00		0.000000e+00		0.000000e+00
0.000000e+00		0.000000e+00		0.000000e+00
0.000000e+00		0.000000e+00		0.000000e+00
0.000000e+00		0.000000e+00		0.000000e+00
0.000000e+00		0.000000e+00		0.000000e+00
0.000000e+00		0.000000e+00		0.000000e+00
0.000000e+00		0.000000e+00		0.000000e+00
0.000000e+00		0.000000e+00		0.000000e+00
0.000000e+00		0.000000e+00		0.000000e+00
0.000000e+00		0.000000e+00		0.000000e+00
0.000000e+00		0.000000e+00		0.000000e+00
0.000000e+00		0.000000e+00		0.000000e+00
0.000000e+00		0.000000e+00		0.000000e+00
0.000000e+00		0.000000e+00		0.000000e+00
0.000000e+00		0.000000e+00		0.000000e+00
0.000000e+00		0.000000e+00		0.000000e+00
0.000000e+00		0.000000e+00		0.000000e+00
0.000000e+00		0.000000e+00		0.000000e+00
0.000000e+00		0.000000e+00		0.000000e+00
0.000000e+00		0.000000e+00		0.000000e+00
0.000000e+00		0.000000e+00		0.000000e+00
0.000000e+00		0.000000e+00		0.000000e+00
0.000000e+00		0.000000e+00		0.000000e+00
0.000000e+00		0.000000e+00		0.000000e+00
0.000000e+00		0.000000e+00		0.000000e+00
0.000000e+00		0.000000e+00		0.000000e+00
0.000000e+00		0.000000e+00		0.000000e+00
0.000000e+00		0.000000e+00		0.000000e+00
0.000000e+00		0.000000e+00		0.000000e+00
0.000000e+00		0.000000e+00		0.000000e+00
0.000000e+00		0.000000e+00		0.000000e+00
0.000000e+00		0.000000e+00		0.000000e+00
0.000000e+00		0.000000e+00		0.000000e+00
0.000000e+00		0.000000e+00		0.000000e+00
0.000000e+00		0.000000e+00		0.000000e+00
0.000000e+00		0.000000e+00		0.000000e+00
0.000000e+00		0.000000e+00		0.000000e+00
0.000000e+00		0.000000e+00		0.000000e+00
0.000000e+00		0.000000e+00		0.000000e+00
0.000000e+00		0.000000e+00		0.000000e+00
0.000000e+00		0.000000e+00		0.000000e+00
0.000000e+00		0.000000e+00		0.000000e+00
0.000000e+00		0.000000e+00		0.000000e+00
0.000000e+00		0.000000e+00		0.000000e+00
0.000000e+00		0.000000e+00		0.000000e+00
0.000000e+00		0.000000e+00		0.000000e+00
0.000000e+00		0.000000e+00		0.000000e+00
0.000000e+00		0.000000e+00		0.000000e+00
0.000000e+00		0.000000e+00		0.000000e+00
0.000000e+00		0.000000e+00		0.000000e+00
0.000000e+00		0.000000e+00		0.000000e+00
0.000000e+00		0.000000e+00		0.000000e+00
0.000000e+00		0.000000e+00		0.000000e+00
0.000000e+00		0.000000e+00		0.000000e+00
0.000000e+00		0.000000e+00		0.000000e+00
0.000000e+00		0.000000e+00		0.000000e+00
0.000000e+00		0.000000e+00		0.000000e+00
0.000000e+00		0.000000e+00		0.000000e+00
0.000000e+00		0.000000e+00		0.000000e+00
0.000000e+00		0.000000e+00		0.000000e+00
0.000000e+00		0.000000e+00		0.000000e+00
0.000000e+00		0.000000e+00		0.000000e+00
0.000000e+00		0.000000e+00		0.000000e+00
0.000000e+00		0.000000e+00		0.000000e+00
0.000000e+00		0.000000e+00		0.000000e+00
0.000000e+00		0.000000e+00		0.000000e+00
0.000000e+00		0.000000e+00		0.000000e+00
0.000000e+00		0.000000e+00		0.000000e+00
0.000000e+00		0.000000e+00		0.000000e+00
0.000000e+00		0.000000e+00		0.000000e+00
0.000000e+00		0.000000e+00		0.000000e+00
0.000000e+00		0.000000e+00		0.000000e+00
0.000000e+00		0.000000e+00		0.000000e+00
0.000000e+00		0.000000e+00		0.000000e+00
0.000000e+00		0.000000e+00		0.000000e+00
0.000000e+00		0.000000e+00		0.000000e+00
0.000000e+00		0.000000e+00		0.000000e+00
0.000000e+00		0.000000e+00		0.000000e+00
0.000000e+00		0.000000e+00		0.000000e+00
0.000000e+00		0.000000e+00		0.000000e+00
0.000000e+00		0.000000e+00		0.000000e+00
0.000000e+00		0.000000e+00		0.000000e+00
0.000000e+00		0.000000e+00		0.000000e+00
0.000000e+00		0.000000e+00		0.000000e+00
0.000000e+00		0.000000e+00		0.000000e+00
0.000000e+00		0.000000e+00		0.000000e+00
0.000000e+00		0.000000e+00		0.000000e+00
0.000000e+00		0.000000e+00		0.000000e+00
0.000000e+00		0.000000e+00		0.000000e+00
0.000000e+00		0.000000e+00		0.000000e+00
0.000000e+00		0.000000e+00		0.000000e+00
0.000000e+00		0.000000e+00		0.000000e+00
0.000000e+00		0.000000e+00		0.000000e+00
0.000000e+00		0.000000e+00		0.000000e+00
0.000000e+00		0.000000e+00		0.000000e+00
0.000000e+00		0.000000e+00		0.000000e+00
0.000000e+00		0.000000e+00		0.000000e+00
0.000000e+00		0.000000e+00		0.000000e+00
0.000000e+00		0.000000e+00		0.000000e+00
0.000000e+00		0.000000e+00		0.000000e+00
0.000000e+00		0.000000e+00		0.000000e+00
0.000000e+00		0.000000e+00		0.000000e+00
0.000000e+00		0.000000e+00		0.000000e+00
0.000000e+00		0.000000e+00		0.000000e+00
0.000000e+00		0.000000e+00		0.000000e+00
0.000000e+00		0.000000e+00		0.000000e+00
0.000000e+00		0.000000e+00		0.000000e+00
0.000000e+00		0.000000e+00		0.000000e+00
0.000000e+00		0.000000e+00		0.000000e+00
0.000000e+00		0.000000e+00		0.000000e+00
0.000000e+00		0.000000e+00		0.000000e+00
0.000000e+00		0.000000e+00		0.000000e+00
0.000000e+00		0.000000e+00		0.000000e+00
0.000000e+00		0.000000e+00		0.000000e+00
0.000000e+00		0.000000e+00		0.000000e+00
0.000000e+00		0.000000e+00		0.000000e+00
0.000000e+00		0.000000e+00		0.000000e+00
0.000000e+00		0.000000e+00		0.000000e+00
0.000000e+00		0.000000e+00		0.000000e+00
0.000000e+00		0.000000e+00		0.000000e+00
0.000000e+00		0.000000e+00		0.000000e+00
0.000000e+00		0.000000e+00		0.000000e+00
0.000000e+00		0.000000e+00		0.000000e+00
0.000000e+00		0.000000e+00		0.000000e+00
0.000000e+00		0.000000e+00		0.000000e+00
0.000000e+00		0.000000e+00		0.000000e+00
0.000000e+00		0.000000e+00		0.000000e+00
0.000000e+00		0.000000e+00		0.000000e+00
0.000000e+00		0.000000e+00		0.000000e+00
0.000000e+00		0.000000e+00		0.000000e+00
0.000000e+00		0.000000e+00		0.000000e+00
0.000000e+00		0.000000e+00		0.000000e+00
0.000000e+00		0.000000e+00		0.000000e+00
0.000000e+00		0.000000e+00		0.000000e+00
0.000000e+00		0.000000e+00		0.000000e+00
0.000000e+00		0.000000e+00		0.000000e+00
0.000000e+00		0.000000e+00		0.000000e+00
0.000000e+00		0.000000e+00		0.000000e+00
0.000000e+00		0.000000e+00		0.000000e+00
0.000000e+00		0.000000e+00		0.000000e+00
0.000000e+00		0.000000e+00		0.000000e+00
0.000000e+00		0.000000e+00		0.000000e+00
0.000000e+00		0.000000e+00		0.000000e+00
0.000000e+00		0.000000e+00		0.000000e+00
0.000000e+00		0.000000e+00		0.000000e+00
0.000000e+00		0.000000e+00		0.000000e+00
0.000000e+00		0.000000e+00		0.000000e+00
0.000000e+00		0.000000e+00		0.000000e+00
0.000000e+00		0.000000e+00		0.000000e+00
0.000000e+00		0.000000e+00		0.000000e+00
0.000000e+00		0.000000e+00		0.000000e+00
0.000000e+00		0.000000e+00		0.000000e+00
0.000000e+00		0.000000e+00		0.000000e+00
0.000000e+00		0.000000e+00		0.000000e+00
0.000000e+00		0.000000e+00		0.000000e+00
0.000000e+00		0.000000e+00		0.000000e+00
0.000000e+00		0.000000e+00		0.000000e+00
0.000000e+00		0.000000e+00		0.000000e+00
0.000000e+00		0.000000e+00		0.000000e+00
0.000000e+00		0.000000e+00		0.000000e+00
0.000000e+00		0.000000e+00		0.000000e+00
0.000000e+00		0.000000e+00		0.000000e+00
0.000000e+00		0.000000e+00		0.000000e+00
0.000000e+00		0.000000e+00		0.000000e+00
0.000000e+00		0.000000e+00		0.000000e+00
0.000000e+00		0.000000e+00		0.000000e+00
0.000000e+00		0.000000e+00		0.000000e+00
0.000000e+00		0.000000e+00		0.000000e+00
0.000000e+00		0.000000e+00		0.000000e+00
0.000000e+00		0.000000e+00		0.000000e+00
0.000000e+00		0.000000e+00		0.000000e+00
0.000000e+00		0.000000e+00		0.000000e+00
0.000000e+00		0.000000e+00		0.000000e+00
0.000000e+00		0.000000e+00		0.000000e+00
0.000000e+00		0.000000e+00		0.000000e+00
0.000000e+00		0.000000e+00		0.000000e+00
0.000000e+00		0.000000e+00		0.000000e+00
0.000000e+00		0.000000e+00		0.000000e+00
0.000000e+00		0.000000e+00		0.000000e+00
0.000000e+00		0.000000e+00		0.000000e+00
0.000000e+00		0.000000e+00		0.000000e+00
0.000000e+00		0.000000e+00		0.000000e+00
0.000000e+00		0.000000e+00		0.000000e+00
0.000000e+00		0.000000e+00		0.000000e+00
0.000000e+00		0.000000e+00		0.000000e+00
0.000000e+00		0.000000e+00		0.000000e+00
0.000000e+00		0.000000e+00		0.000000e+00
0.000000e+00		0.000000e+00		0.000000e+00
0.000000e+00		0.000000e+00		0.000000e+00
0.000000e+00		0.000000e+00		0.000000e+00
0.000000e+00		0.000000e+00		0.000000e+00
0.000000e+00		0.000000e+00		0.000000e+00
0.000000e+00		0.000000e+00		0.000000e+00
0.000000e+00		0.000000e+00		0.000000e+00
0.000000e+00		0.000000e+00		0.000000e+00
0.000000e+00		0.000000e+00		0.000000e+00
0.000000e+00		0.000000e+00		0.000000e+00
0.000000e+00		0.000000e+00		0.000000e+00
0.000000e+00		0.000000e+00		0.000000e+00
0.000000e+00		0.000000e+00		0.000000e+00
0.000000e+00		0.000000e+00		0.000000e+00
0.000000e+00		0.000000e+00		0.000000e+00
0.000000e+00		0.000000e+00		0.000000e+00
0.000000e+00		0.000000e+00		0.000000e+00
0.000000e+00		0.000000e+00		0.000000e+00
0.000000e+00		0.000000e+00		0.000000e+00
0.000000e+00		0.000000e+00		0.000000e+00
0.000000e+00		0.000000e+00		0.000000e+00
0.000000e+00		0.000000e+00		0.000000e+00
0.000000e+00		0.000000e+00		0.000000e+00
0.000000e+00		0.000000e+00		0.000000e+00
0.000000e+00		0.000000e+00		0.000000e+00
0.000000e+00		0.000000e+00		0.000000e+00
0.000000e+00		0.000000e+00		0.000000e+00
0.000000e+00		0.000000e+00		0.000000e+00
0.000000e+00		0.000000e+00		0.000000e+00
0.000000e+00		0.000000e+00		0.000000e+00
0.000000e+00		0.000000e+00		0.000000e+00
0.000000e+00		0.000000e+00		0.000000e+00
0.000000e+00		0.000000e+00		0.000000e+00
0.000000e+00		0.000000e+00		0.000000e+00
0.000000e+00		0.000000e+00		0.000000e+00
0.000000e+00		0.000000e+00		0.000000e+00
0.000000e+00		0.000000e+00		0.000000e+00
0.000000e+00		0.000000e+00		0.000000e+00
0.000000e+00		0.000000e+00		0.000000e+00
0.000000e+00		0.000000e+00		0.000000e+00
0.000000e+00		0.000000e+00		0.000000e+00
0.000000e+00		0.000000e+00		0.000000e+00
0.000000e+00		0.000000e+00		0.000000e+00
0.000000e+00		0.000000e+00		0.000000e+00
0.000000e+00		0.000000e+00		0.000000e+00
0.000000e+00		0.000000e+00		0.000000e+00
0.000000e+00		0.000000e+00		0.000000e+00
0.000000e+00		0.000000e+00		0.000000e+00
0.000000e+00		0.000000e+00		0.000000e+00
0.000000e+00		0.000000e+00		0.000000e+00
0.000000e+00		0.000000e+00		0.000000e+00
0.000000e+00		0.000000e+00		0.000000e+00
0.000000e+00		0.000000e+00		0.000000e+00
0.000000e+00		0.000000e+00		0.000000e+00
0.000000e+00		0.000000e+00		0.000000e+00
0.000000e+00		0.000000e+00		0.000000e+00
0.000000e+00		0.000000e+00		0.000000e+00
0.000000e+00		0.000000e+00		0.000000e+00
0.000000e+00		0.000000e+00		0.000000e+00
0.000000e+00		0.000000e+00		0.000000e+00
0.000000e+00		0.000000e+00		0.000000e+00
0.000000e+00		0.000000e+00		0.000000e+00
0.000000e+00		0.000000e+00		0.000000e+00
0.000000e+00		0.000000e+00		0.000000e+00
0.000000e+00		0.000000e+00		0.000000e+00
0.000000e+00		0.000000e+00		0.000000e+00
0.000000e+00		0.000000e+00		0.000000e+00
0.000000e+00		0.000000e+00		0.000000e+00
0.000000e+00		0.000000e+00		0.000000e+00
0.000000e+00		0.000000e+00		0.000000e+00
0.000000e+00		0.000000e+00		0.000000e+00
0.000000e+00		0.000000e+00		0.000000e+00
0.000000e+00		0.000000e+00		0.000000e+00
0.000000e+00		0.000000e+00		0.000000e+00
0.000000e+00		0.000000e+00		0.000000e+00
0.000000e+00		0.000000e+00		0.000000e+00
0.000000e+00		0.000000e+00		0.000000e+00
0.000000e+00		0.000000e+00		0.000000e+00
0.000000e+00		0.000000e+00		0.000000e+00
0.000000e+00		0.000000e+00		0.000000e+00
0.000000e+00		0.000000e+00		0.000000e+00
0.000000e+00		0.000000e+00		0.000000e+00
0.000000e+00		0.000000e+00		0.000000e+00
0.000000e+00		0.000000e+00		0.000000e+00
0.000000e+00		0.000000e+00		0.000000e+00
0.000000e+00		0.000000e+00		0.000000e+00
0.000000e+00		0.000000e+00		0.000000e+00
0.000000e+00		0.000000e+00		0.000000e+00
0.000000e+00		0.000000e+00		0.000000e+00
0.000000e+00		0.000000e+00		0.000000e+00
0.000000e+00		0.000000e+00		0.000000e+00
0.000000e+00		0.000000e+00		0.000000e+00
0.000000e+00		0.000000e+00		0.000000e+00
0.000000e+00		0.000000e+00		0.000000e+00
0.000000e+00		0.000000e+00		0.000000e+00
0.000000e+00		0.000000e+00		0.000000e+00
0.000000e+00		0.000000e+00		0.000000e+00
0.000000e+00		0.000000e+00		0.000000e+00
0.000000e+00		0.000000e+00		0.000000e+00
0.000000e+00		0.000000e+00		0.000000e+00
0.000000e+00		0.000000e+00		0.000000e+00
0.000000e+00		0.000000e+00		0.000000e+00
0.000000e+00		0.000000e+00		0.000000e+00
0.000000e+00		0.000000e+00		0.000000e+00
0.000000e+00		0.000000e+00		0.000000e+00
0.000000e+00		0.000000e+00		0.000000e+00
0.000000e+00		0.000000e+00		0.000000e+00
0.000000e+00		0.000000e+00		0.000000e+00
0.000000e+00		0.000000e+00		0.000000e+00
0.000000e+00		0.000000e+00		0.000000e+00
0.000000e+00		0.000000e+00		0.000000e+00
0.000000e+00		0.000000e+00		0.000000e+00
0.000000e+00		0.000000e+00		0.000000e+00
0.000000e+00		0.000000e+00		0.000000e+00
0.000000e+00		0.000000e+00		0.000000e+00
0.000000e+00		0.000000e+00		0.000000e+00
0.000000e+00		0.000000e+00		0.000000e+00
0.000000e+00		0.000000e+00		0.000000e+00
0.000000e+00		0.000000e+00		0.000000e+00
0.000000e+00		0.000000e+00		0.000000e+00
0.000000e+00		0.000000e+00		0.000000e+00
0.000000e+00		0.000000e+00		0.000000e+00
0.000000e+00		0.000000e+00		0.000000e+00
0.000000e+00		0.000000e+00		0.000000e+00
0.000000e+00		0.000000e+00		0.000000e+00
0.000000e+00		0.000000e+00		0.000000e+00
0.000000e+00		0.000000e+00		0.000000e+00
0.000000e+00		0.000000e+00		0.000000e+00
0.000000e+00		0.000000e+00		0.000000e+00
0.000000e+00		0.000000e+00		0.000000e+00
0.000000e+00		0.000000e+00		0.000000e+00
0.000000e+00		0.000000e+00		0.000000e+00
0.000000e+00		0.000000e+00		0.000000e+00
0.000000e+00		0.000000e+00		0.000000e+00
0.000000e+00		0.000000e+00		0.000000e+00
0.000000e+00		0.000000e+00		0.000000e+00
0.000000e+00		0.000000e+00		0.000000e+00
0.000000e+00		0.000000e+00		0.000000e+00
0.000000e+00		0.000000e+00		0.000000e+00
0.000000e+00		0.000000e+00		0.000000e+00
0.000000e+00		0.000000e+00		0.000000e+00
0.000000e+00		0.000000e+00		0.000000e+00
0.000000e+00		0.000000e+00		0.000000e+00
0.000000e+00		0.000000e+00		0.000000e+00
0.000000e+00		0.000000e+00		0.000000e+00
0.000000e+00		0.000000e+00		0.000000e+00
0.000000e+00		0.000000e+00		0.000000e+00
0.000000e+00		0.000000e+00		0.000000e+00
0.000000e+00		0.000000e+00		0.000000e+00
0.000000e+00		0.000000e+00		0.000000e+00
0.000000e+00		0.000000e+00		0.000000e+00
0.000000e+00		0.000000e+00		0.000000e+00
0.000000e+00		0.000000e+00		0.000000e+00
0.000000e+00		0.000000e+00		0.000000e+00
0.000000e+00		0.000000e+00		0.000000e+00
0.000000e+00		0.000000e+00		0.000000e+00
0.000000e+00		0.000000e+00		0.000000e+00
0.000000e+00		0.000000e+00		0.000000e+00
0.000000e+00		0.000000e+00		0.000000e+00
0.000000e+00		0.000000e+00		0.000000e+00
0.000000e+00		0.000000e+00		0.000000e+00
0.000000e+00		0.000000e+00		0.000000e+00
0.000000e+00		0.000000e+00		0.000000e+00
0.000000e+00		0.000000e+00		0.000000e+00
0.000000e+00		0.000000e+00		0.000000e+00
0.000000e+00		0.000000e+00		0.000000e+00
0.000000e+00		0.000000e+00		0.000000e+00
0.000000e+00		0.000000e+00		0.000000e+00
0.000000e+00		0.000000e+00		0.000000e+00
0.000000e+00		0.000000e+00		0.000000e+00
0.000000e+00		0.000000e+00		0.000000e+00
0.000000e+00		0.000000e+00		0.000000e+00
0.000000e+00		0.000000e+00		0.000000e+00
0.000000e+00		0.000000e+00		0.000000e+00
0.000000e+00		0.000000e+00		0.000000e+00
0.000000e+00		0.000000e+00		0.000000e+00
0.000000e+00		0.000000e+00		0.000000e+00
0.000000e+00		0.000000e+00		0.000000e+00
0.000000e+00		0.000000e+00		0.000000e+00
0.000000e+00		0.000000e+00		0.000000e+00
0.000000e+00		0.000000e+00		0.000000e+00
0.000000e+00		0.000000e+00		0.000000e+00
0.000000e+00		0.000000e+00		0.000000e+00
0.000000e+00		0.000000e+00		0.000000e+00
0.000000e+00		0.000000e+00		0.000000e+00
0.000000e+00		0.000000e+00		0.000000e+00
0.000000e+00		0.000000e+00		0.000000e+00
0.000000e+00		0.000000e+00		0.000000e+00
0.000000e+00		0.000000e+00		0.000000e+00
0.000000e+00		0.000000e+00		0.000000e+00
0.000000e+00		0.000000e+00		0.000000e+00
0.000000e+00		0.000000e+00		0.000000e+00
0.000000e+00		0.000000e+00		0.000000e+00
0.000000e+00		0.000000e+00		0.000000e+00
0.000000e+00		0.000000e+00		0.000000e+00
0.000000e+00		0.000000e+00		0.000000e+00
0.000000e+00		0.000000e+00		0.000000e+00
0.000000e+00		0.000000e+00		0.000000e+00
0.000000e+00		0.000000e+00		0.000000e+00
0.000000e+00		0.000000e+00		0.000000e+00
0.000000e+00		0.000000e+00		0.000000e+00
0.000000e+00		0.000000e+00		0.000000e+00
0.000000e+00		0.000000e+00		0.000000e+00
0.000000e+00		0.000000e+00		0.000000e+00
0.000000e+00		0.000000e+00		0.000000e+00
0.000000e+00		0.000000e+00		0.000000e+00
0.000000e+00		0.000000e+00		0.000000e+00
0.000000e+00		0.000000e+00		0.000000e+00
0.000000e+00		0.000000e+00		0.000000e+00
0.000000e+00		0.000000e+00		0.000000e+00
0.000000e+00		0.000000e+00		0.000000e+00
0.000000e+00		0.000000e+00		0.000000e+00
0.000000e+00		0.000000e+00		0.000000e+00
0.000000e+00		0.000000e+00		0.000000e+00
0.000000e+00		0.000000e+00		0.000000e+00
0.000000e+00		0.000000e+00		0.000000e+00
0.000000e+00		0.000000e+00		0.000000e+00
0.000000e+00		0.000000e+00		0.000000e+00
0.000000e+00		0.000000e+00		0.000000e+00
0.000000e+00		0.000000e+00		0.000000e+00
0.000000e+00		0.000000e+00		0.000000e+00
0.000000e+00		0.000000e+00		0.000000e+00
0.000000e+00		0.000000e+00		0.000000e+00
0.000000e+00		0.000000e+00		0.000000e+00
0.000000e+00		0.000000e+00		0.000000e+00
0.000000e+00		0.000000e+00		0.000000e+00
0.000000e+00		0.000000e+00		0.000000e+00
0.000000e+00		0.000000e+00		0.000000e+00
0.000000e+00		0.000000e+00		0.000000e+00
0.000000e+00		0.000000e+00		0.000000e+00
0.000000e+00		0.000000e+00		0.000000e+00
0.000000e+00		0.000000e+00		0.000000e+00
0.000000e+00		0.000000e+00		0.000000e+00
0.000000e+00		0.000000e+00		0.000000e+00
0.000000e+00		0.000000e+00		0.000000e+00
0.000000e+00		0.000000e+00		0.000000e+00
0.000000e+00		0.000000e+00		0.000000e+00
0.000000e+00		0.000000e+00		0.000000e+00
0.000000e+00		0.000000e+00		0.000000e+00
0.000000e+00		0.000000e+00		0.000000e+00
0.000000e+00		0.000000e+00		0.000000e+00
0.000000e+00		0.000000e+00		0.000000e+00
0.000000e+00		0.000000e+00		0.000000e+00
0.000000e+00		0.000000e+00		0.000000e+00
0.000000e+00		0.000000e+00		0.000000e+00
0.000000e+00		0.000000e+00		0.000000e+00
0.000000e+00		0.000000e+00		0.000000e+00
0.000000e+00		0.000000e+00		0.000000e+00
0.000000e+00		0.000000e+00		0.000000e+00
0.000000e+00		0.000000e+00		0.000000e+00
0.000000e+00		0.000000e+00		0.000000e+00
0.000000e+00		0.000000e+00		0.000000e+00
0.000000e+00		0.000000e+00		0.000000e+00
0.000000e+00		0.000000e+00		0.000000e+00
0.000000e+00		0.000000e+00		0.000000e+00
0.000000e+00		0.000000e+00		0.000000e+00
0.000000e+00		0.000000e+00		0.000000e+00
0.000000e+00		0.000000e+00		0.000000e+00
0.000000e+00		0.000000e+00		0.000000e+00
0.000000e+00		0.000000e+00		0.000000e+00
0.000000e+00		0.000000e+00		0.000000e+00
0.000000e+00		0.000000e+00		0.000000e+00
0.000000e+00		0.000000e+00		0.000000e+00
0.000000e+00		0.000000e+00		0.000000e+00
0.000000e+00		0.000000e+00		0.000000e+00
0.000000e+00		0.000000e+00		0.000000e+00
0.000000e+00		0.000000e+00		0.000000e+00
0.000000e+00		0.000000e+00		0.000000e+00
0.000000e+00		0.000000e+00		0.000000e+00
0.000000e+00		0.000000e+00		0.000000e+00
0.000000e+00		0.000000e+00		0.000000e+00
0.000000e+00		0.000000e+00		0.000000e+00
0.000000e+00		0.000000e+00		0.000000e+00
0.000000e+00		0.000000e+00		0.000000e+00
0.000000e+00		0.000000e+00		0.000000e+00
0.000000e+00		0.000000e+00		0.000000e+00
0.000000e+00		0.000000e+00		0.000000e+00
0.000000e+00		0.000000e+00		0.000000e+00
0.000000e+00		0.000000e+00		0.000000e+00
0.000000e+00		0.000000e+00		0.000000e+00
0.000000e+00		0.000000e+00		0.000000e+00
0.000000e+00		0.000000e+00		0.000000e+00
0.000000e+00		0.000000e+00		0.000000e+00
0.000000e+00		0.000000e+00		0.000000e+00
0.000000e+00		0.000000e+00		0.000000e+00
0.000000e+00		0.000000e+00		0.000000e+00
0.000000e+00		0.000000e+00		0.000000e+00
0.000000e+00		0.000000e+00		0.000000e+00
0.000000e+00		0.000000e+00		0.000000e+00
0.000000e+00		0.000000e+00		0.000000e+00
0.000000e+00		0.000000e+00		0.000000e+00
0.000000e+00		0.000000e+00		0.000000e+00
0.000000e+00		0.000000e+00		0.000000e+00
0.000000e+00		0.000000e+00		0.000000e+00
0.000000e+00		0.000000e+00		0.000000e+00
0.000000e+00		0.000000e+00		0.000000e+00
0.000000e+00		0.000000e+00		0.000000e+00
0.000000e+00		0.000000e+00		0.000000e+00
0.000000e+00		0.000000e+00		0.000000e+00
0.000000e+00		0.000000e+00		0.000000e+00
0.000000e+00		0.000000e+00		0.000000e+00
0.000000e+00		0.000000e+00		0.000000e+00
0.000000e+00		0.000000e+00		0.000000e+00
0.000000e+00		0.000000e+00		0.000000e+00
0.000000e+00		0.000000e+00		0.000000e+00
0.000000e+00		0.000000e+00		0.000000e+00
0.000000e+00		0.000000e+00		0.000000e+00
0.000000e+00		0.000000e+00		0.000000e+00
0.000000e+00		0.000000e+00		0.000000e+00
0.000000e+00		0.000000e+00		0.000000e+00
0.000000e+00		0.000000e+00		0.000000e+00
0.000000e+00		0.000000e+00		0.000000e+00
0.000000e+00		0.000000e+00		0.000000e+00
0.000000e+00		0.000000e+00		0.000000e+00
0.000000e+00		0.000000e+00		0.000000e+00
0.000000e+00		0.000000e+00		0.000000e+00
0.000000e+00		0.000000e+00		0.000000e+00
0.000000e+00		0.000000e+00		0.000000e+00
0.000000e+00		0.000000e+00		0.000000e+00
VECTORS acceleration double
0.000000e+00		0.000000e+00		0.000000e+00
0.000000e+00		0.000000e+00		0.000000e+00
0.000000e+00		0.000000e+00		0.000000e+00
0.000000e+00		0.000000e+00		0.000000e+00
0.000000e+00		0.000000e+00		0.000000e+00
0.000000e+00		0.000000e+00		0.000000e+00
0.000000e+00		0.000000e+00		0.000000e+00
0.000000e+00		0.000000e+00		0.000000e+00
0.000000e+00		0.000000e+00		0.000000e+00
0.000000e+00		0.000000e+00		0.000000e+00
0.000000e+00		0.000000e+00		0.000000e+00
0.000000e+00		0.000000e+00		0.000000e+00
0.000000e+00		0.000000e+00		0.000000e+00
0.000000e+00		0.000000e+00		0.000000e+00
0.000000e+00		0.000000e+00		0.000000e+00
0.000000e+00		0.000000e+00		0.000000e+00
0.000000e+00		0.000000e+00		0.000000e+00
0.000000e+00		0.000000e+00		0.000000e+00
0.000000e+00		0.000000e+00		0.000000e+00
0.000000e+00		0.000000e+00		0.000000e+00
0.000000e+00		0.000000e+00		0.000000e+00
0.000000e+00		0.000000e+00		0.000000e+00
0.000000e+00		0.000000e+00		0.000000e+00
0.000000e+00		0.000000e+00		0.000000e+00
0.000000e+00		0.000000e+00		0.000000e+00
0.000000e+00		0.000000e+00		0.000000e+00
0.000000e+00		0.000000e+00		0.000000e+00
0.000000e+00		0.000000e+00		0.000000e+00
0.000000e+00		0.000000e+00		0.000000e+00
0.000000e+00		0.000000e+00		0.000000e+00
0.000000e+00		0.000000e+00		0.000000e+00
0.000000e+00		0.000000e+00		0.000000e+00
0.000000e+00		0.000000e+00		0.000000e+00
0.000000e+00		0.000000e+00		0.000000e+00
0.000000e+00		0.000000e+00		0.000000e+00
0.000000e+00		0.000000e+00		0.000000e+00
0.000000e+00		0.000000e+00		0.000000e+00
0.000000e+00		0.000000e+00		0.000000e+00
0.000000e+00		0.000000e+00		0.000000e+00
0.000000e+00		0.000000e+00		0.000000e+00
0.000000e+00		0.000000e+00		0.000000e+00
0.000000e+00		0.000000e+00		0.000000e+00
0.000000e+00		0.000000e+00		0.000000e+00
0.000000e+00		0.000000e+00		0.000000e+00
0.000000e+00		0.000000e+00		0.000000e+00
0.000000e+00		0.000000e+00		0.000000e+00
0.000000e+00		0.000000e+00		0.000000e+00
0.000000e+00		0.000000e+00		0.000000e+00
0.000000e+00		0.000000e+00		0.000000e+00
0.000000e+00		0.000000e+00		0.000000e+00
0.000000e+00		0.000000e+00		0.000000e+00
0.000000e+00		0.000000e+00		0.000000e+00
0.000000e+00		0.000000e+00		0.000000e+00
0.000000e+00		0.000000e+00		0.000000e+00
0.000000e+00		0.000000e+00		0.000000e+00
0.000000e+00		0.000000e+00		0.000000e+00
0.000000e+00		0.000000e+00		0.000000e+00
0.000000e+00		0.000000e+00		0.000000e+00
0.000000e+00		0.000000e+00		0.000000e+00
0.000000e+00		0.000000e+00		0.000000e+00
0.000000e+00		0.000000e+00		0.000000e+00
0.000000e+00		0.000000e+00		0.000000e+00
0.000000e+00		0.000000e+00		0.000000e+00
0.000000e+00		0.000000e+00		0.000000e+00
0.000000e+00		0.000000e+00		0.000000e+00
0.000000e+00		0.000000e+00		0.000000e+00
0.000000e+00		0.000000e+00		0.000000e+00
0.000000e+00		0.000000e+00		0.000000e+00
0.000000e+00		0.000000e+00		0.000000e+00
0.000000e+00		0.000000e+00		0.000000e+00
0.000000e+00		0.000000e+00		0.000000e+00
0.000000e+00		0.000000e+00		0.000000e+00
0.000000e+00		0.000000e+00		0.000000e+00
0.000000e+00		0.000000e+00		0.000000e+00
0.000000e+00		0.000000e+00		0.000000e+00
0.000000e+00		0.000000e+00		0.000000e+00
0.000000e+00		0.000000e+00		0.000000e+00
0.000000e+00		0.000000e+00		0.000000e+00
0.000000e+00		0.000000e+00		0.000000e+00
0.000000e+00		0.000000e+00		0.000000e+00
0.000000e+00		0.000000e+00		0.000000e+00
0.000000e+00		0.000000e+00		0.000000e+00
0.000000e+00		0.000000e+00		0.000000e+00
0.000000e+00		0.000000e+00		0.000000e+00
0.000000e+00		0.000000e+00		0.000000e+00
0.000000e+00		0.000000e+00		0.000000e+00
0.000000e+00		0.000000e+00		0.000000e+00
0.000000e+00		0.000000e+00		0.000000e+00
0.000000e+00		0.000000e+00		0.000000e+00
0.000000e+00		0.000000e+00		0.000000e+00
0.000000e+00		0.000000e+00		0.000000e+00
0.000000e+00		0.000000e+00		0.000000e+00
0.000000e+00		0.000000e+00		0.000000e+00
0.000000e+00		0.000000e+00		0.000000e+00
0.000000e+00		0.000000e+00		0.000000e+00
0.000000e+00		0.000000e+00		0.000000e+00
0.000000e+00		0.000000e+00		0.000000e+00
0.000000e+00		0.000000e+00		0.000000e+00
0.000000e+00		0.000000e+00		0.000000e+00
0.000000e+00		0.000000e+00		0.000000e+00
0.000000e+00		0.000000e+00		0.000000e+00
0.000000e+00		0.000000e+00		0.000000e+00
0.000000e+00		0.000000e+00		0.000000e+00
0.000000e+00		0.000000e+00		0.000000e+00
0.000000e+00		0.000000e+00		0.000000e+00
0.000000e+00		0.000000e+00		0.000000e+00
0.000000e+00		0.000000e+00		0.000000e+00
0.000000e+00		0.000000e+00		0.000000e+00
0.000000e+00		0.000000e+00		0.000000e+00
0.000000e+00		0.000000e+00		0.000000e+00
0.000000e+00		0.000000e+00		0.000000e+00
0.000000e+00		0.000000e+00		0.000000e+00
0.000000e+00		0.000000e+00		0.000000e+00
0.000000e+00		0.000000e+00		0.000000e+00
0.000000e+00		0.000000e+00		0.000000e+00
0.000000e+00		0.000000e+00		0.000000e+00
0.000000e+00		0.000000e+00		0.000000e+00
0.000000e+00		0.000000e+00		0.000000e+00
0.000000e+00		0.000000e+00		0.000000e+00
0.000000e+00		0.000000e+00		0.000000e+00
0.000000e+00		0.000000e+00		0.000000e+00
0.000000e+00		0.000000e+00		0.000000e+00
0.000000e+00		0.000000e+00		0.000000e+00
0.000000e+00		0.000000e+00		0.000000e+00
0.000000e+00		0.000000e+00		0.000000e+00
0.000000e+00		0.000000e+00		0.000000e+00
0.000000e+00		0.000000e+00		0.000000e+00
0.000000e+00		0.000000e+00		0.000000e+00
0.000000e+00		0.000000e+00		0.000000e+00
0.000000e+00		0.000000e+00		0.000000e+00
0.000000e+00		0.000000e+00		0.000000e+00
0.000000e+00		0.000000e+00		0.000000e+00
0.000000e+00		0.000000e+00		0.000000e+00
0.000000e+00		0.000000e+00		0.000000e+00
0.000000e+00		0.000000e+00		0.000000e+00
0.000000e+00		0.000000e+00		0.000000e+00
0.000000e+00		0.000000e+00		0.000000e+00
0.000000e+00		0.000000e+00		0.000000e+00
0.000000e+00		0.000000e+00		0.000000e+00
0.000000e+00		0.000000e+00		0.000000e+00
0.000000e+00		0.000000e+00		0.000000e+00
0.000000e+00		0.000000e+00		0.000000e+00
0.000000e+00		0.000000e+00		0.000000e+00
0.000000e+00		0.000000e+00		0.000000e+00
0.000000e+00		0.000000e+00		0.000000e+00
0.000000e+00		0.000000e+00		0.000000e+00
0.000000e+00		0.000000e+00		0.000000e+00
0.000000e+00		0.000000e+00		0.000000e+00
0.000000e+00		0.000000e+00		0.000000e+00
0.000000e+00		0.000000e+00		0.000000e+00
0.000000e+00		0.000000e+00		0.000000e+00
0.000000e+00		0.000000e+00		0.000000e+00
0.000000e+00		0.000000e+00		0.000000e+00
0.000000e+00		0.000000e+00		0.000000e+00
0.000000e+00		0.000000e+00		0.000000e+00
0.000000e+00		0.000000e+00		0.000000e+00
0.000000e+00		0.000000e+00		0.000000e+00
0.000000e+00		0.000000e+00		0.000000e+00
0.000000e+00		0.000000e+00		0.000000e+00
0.000000e+00		0.000000e+00		0.000000e+00
0.000000e+00		0.000000e+00		0.000000e+00
0.000000e+00		0.000000e+00		0.000000e+00
0.000000e+00		0.000000e+00		0.000000e+00
0.000000e+00		0.000000e+00		0.000000e+00
0.000000e+00		0.000000e+00		0.000000e+00
0.000000e+00		0.000000e+00		0.000000e+00
0.000000e+00		0.000000e+00		0.000000e+00
0.000000e+00		0.000000e+00		0.000000e+00
0.000000e+00		0.000000e+00		0.000000e+00
0.000000e+00		0.000000e+00		0.000000e+00
0.000000e+00		0.000000e+00		0.000000e+00
0.000000e+00		0.000000e+00		0.000000e+00
0.000000e+00		0.000000e+00		0.000000e+00
0.000000e+00		0.000000e+00		0.000000e+00
0.000000e+00		0.000000e+00		0.000000e+00
0.000000e+00		0.000000e+00		0.000000e+00
0.000000e+00		0.000000e+00		0.000000e+00
0.000000e+00		0.000000e+00		0.000000e+00
0.000000e+00		0.000000e+00		0.000000e+00
0.000000e+00		0.000000e+00		0.000000e+00
0.000000e+00		0.000000e+00		0.000000e+00
0.000000e+00		0.000000e+00		0.000000e+00
0.000000e+00		0.000000e+00		0.000000e+00
0.000000e+00		0.000000e+00		0.000000e+00
0.000000e+00		0.000000e+00		0.000000e+00
0.000000e+00		0.000000e+00		0.000000e+00
0.000000e+00		0.000000e+00		0.000000e+00
0.000000e+00		0.000000e+00		0.000000e+00
0.000000e+00		0.000000e+00		0.000000e+00
0.000000e+00		0.000000e+00		0.000000e+00
0.000000e+00		0.000000e+00		0.000000e+00
0.000000e+00		0.000000e+00		0.000000e+00
0.000000e+00		0.000000e+00		0.000000e+00
0.000000e+00		0.000000e+00		0.000000e+00
0.000000e+00		0.000000e+00		0.000000e+00
0.000000e+00		0.000000e+00		0.000000e+00
0.000000e+00		0.000000e+00		0.000000e+00
0.000000e+00		0.000000e+00		0.000000e+00
0.000000e+00		0.000000e+00		0.000000e+00
0.000000e+00		0.000000e+00		0.000000e+00
0.000000e+00		0.000000e+00		0.000000e+00
0.000000e+00		0.000000e+00		0.000000e+00
0.000000e+00		0.000000e+00		0.000000e+00
0.000000e+00		0.000000e+00		0.000000e+00
0.000000e+00		0.000000e+00		0.000000e+00
0.000000e+00		0.000000e+00		0.000000e+00
0.000000e+00		0.000000e+00		0.000000e+00
0.000000e+00		0.000000e+00		0.000000e+00
0.000000e+00		0.000000e+00		0.000000e+00
0.000000e+00		0.000000e+00		0.000000e+00
0.000000e+00		0.000000e+00		0.000000e+00
0.000000e+00		0.000000e+00		0.000000e+00
0.000000e+00		0.000000e+00		0.000000e+00
0.000000e+00		0.000000e+00		0.000000e+00
0.000000e+00		0.000000e+00		0.000000e+00
0.000000e+00		0.000000e+00		0.000000e+00
0.000000e+00		0.000000e+00		0.000000e+00
0.000000e+00		0.000000e+00		0.000000e+00
0.000000e+00		0.000000e+00		0.000000e+00
0.000000e+00		0.000000e+00		0.000000e+00
0.000000e+00		0.000000e+00		0.000000e+00
0.000000e+00		0.000000e+00		0.000000e+00
0.000000e+00		0.000000e+00		0.000000e+00
0.000000e+00		0.000000e+00		0.000000e+00
0.000000e+00		0.000000e+00		0.000000e+00
0.000000e+00		0.000000e+00		0.000000e+00
0.000000e+00		0.000000e+00		0.000000e+00
0.000000e+00		0.000000e+00		0.000000e+00
0.000000e+00		0.000000e+00		0.000000e+00
0.000000e+00		0.000000e+00		0.000000e+00
0.000000e+00		0.000000e+00		0.000000e+00
0.000000e+00		0.000000e+00		0.000000e+00
0.000000e+00		0.000000e+00		0.000000e+00
0.000000e+00		0.000000e+00		0.000000e+00
0.000000e+00		0.000000e+00		0.000000e+00
0.000000e+00		0.000000e+00		0.000000e+00
0.000000e+00		0.000000e+00		0.000000e+00
0.000000e+00		0.000000e+00		0.000000e+00
0.000000e+00		0.000000e+00		0.000000e+00
0.000000e+00		0.000000e+00		0.000000e+00
0.000000e+00		0.000000e+00		0.000000e+00
0.000000e+00		0.000000e+00		0.000000e+00
0.000000e+00		0.000000e+00		0.000000e+00
0.000000e+00		0.000000e+00		0.000000e+00
0.000000e+00		0.000000e+00		0.000000e+00
0.000000e+00		0.000000e+00		0.000000e+00
0.000000e+00		0.000000e+00		0.000000e+00
0.000000e+00		0.000000e+00		0.000000e+00
0.000000e+00		0.000000e+00		0.000000e+00
0.000000e+00		0.000000e+00		0.000000e+00
0.000000e+00		0.000000e+00		0.000000e+00
0.000000e+00		0.000000e+00		0.000000e+00
0.000000e+00		0.000000e+00		0.000000e+00
0.000000e+00		0.000000e+00		0.000000e+00
0.000000e+00		0.000000e+00		0.000000e+00
0.000000e+00		0.000000e+00		0.000000e+00
0.000000e+00		0.000000e+00		0.000000e+00
0.000000e+00		0.000000e+00		0.000000e+00
0.000000e+00		0.000000e+00		0.000000e+00
0.000000e+00		0.000000e+00		0.000000e+00
0.000000e+00		0.000000e+00		0.000000e+00
0.000000e+00		0.000000e+00		0.000000e+00
0.000000e+00		0.000000e+00		0.000000e+00
0.000000e+00		0.000000e+00		0.000000e+00
0.000000e+00		0.000000e+00		0.000000e+00
0.000000e+00		0.000000e+00		0.000000e+00
0.000000e+00		0.000000e+00		0.000000e+00
0.000000e+00		0.000000e+00		0.000000e+00
0.000000e+00		0.000000e+00		0.000000e+00
0.000000e+00		0.000000e+00		0.000000e+00
0.000000e+00		0.000000e+00		0.000000e+00
0.000000e+00		0.000000e+00		0.000000e+00
0.000000e+00		0.000000e+00		0.000000e+00
0.000000e+00		0.000000e+00		0.000000e+00
0.000000e+00		0.000000e+00		0.000000e+00
0.000000e+00		0.000000e+00		0.000000e+00
0.000000e+00		0.000000e+00		0.000000e+00
0.000000e+00		0.000000e+00		0.000000e+00
0.000000e+00		0.000000e+00		0.000000e+00
0.000000e+00		0.000000e+00		0.000000e+00
0.000000e+00		0.000000e+00		0.000000e+00
0.000000e+00		0.000000e+00		0.000000e+00
0.000000e+00		0.000000e+00		0.000000e+00
0.000000e+00		0.000000e+00		0.000000e+00
0.000000e+00		0.000000e+00		0.000000e+00
0.000000e+00		0.000000e+00		0.000000e+00
0.000000e+00		0.000000e+00		0.000000e+00
0.000000e+00		0.000000e+00		0.000000e+00
0.000000e+00		0.000000e+00		0.000000e+00
0.000000e+00		0.000000e+00		0.000000e+00
0.000000e+00		0.000000e+00		0.000000e+00
0.000000e+00		0.000000e+00		0.000000e+00
0.000000e+00		0.000000e+00		0.000000e+00
0.000000e+00		0.000000e+00		0.000000e+00
0.000000e+00		0.000000e+00		0.000000e+00
0.000000e+00		0.000000e+00		0.000000e+00
0.000000e+00		0.000000e+00		0.000000e+00
0.000000e+00		0.000000e+00		0.000000e+00
0.000000e+00		0.000000e+00		0.000000e+00
0.000000e+00		0.000000e+00		0.000000e+00
0.000000e+00		0.000000e+00		0.000000e+00
0.000000e+00		0.000000e+00		0.000000e+00
0.000000e+00		0.000000e+00		0.000000e+00
0.000000e+00		0.000000e+00		0.000000e+00
0.000000e+00		0.000000e+00		0.000000e+00
0.000000e+00		0.000000e+00		0.000000e+00
0.000000e+00		0.000000e+00		0.000000e+00
0.000000e+00		0.000000e+00		0.000000e+00
0.000000e+00		0.000000e+00		0.000000e+00
0.000000e+00		0.000000e+00		0.000000e+00
0.000000e+00		0.000000e+00		0.000000e+00
0.000000e+00		0.000000e+00		0.000000e+00
0.000000e+00		0.000000e+00		0.000000e+00
0.000000e+00		0.000000e+00		0.000000e+00
0.000000e+00		0.000000e+00		0.000000e+00
0.000000e+00		0.000000e+00		0.000000e+00
0.000000e+00		0.000000e+00		0.000000e+00
0.000000e+00		0.000000e+00		0.000000e+00
0.000000e+00		0.000000e+00		0.000000e+00
0.000000e+00		0.000000e+00		0.000000e+00
0.000000e+00		0.000000e+00		0.000000e+00
0.000000e+00		0.000000e+00		0.000000e+00
0.000000e+00		0.000000e+00		0.000000e+00
0.000000e+00		0.000000e+00		0.000000e+00
0.000000e+00		0.000000e+00		0.000000e+00
0.000000e+00		0.000000e+00		0.000000e+00
0.000000e+00		0.000000e+00		0.000000e+00
0.000000e+00		0.000000e+00		0.000000e+00
0.000000e+00		0.000000e+00		0.000000e+00
0.000000e+00		0.000000e+00		0.000000e+00
0.000000e+00		0.000000e+00		0.000000e+00
0.000000e+00		0.000000e+00		0.000000e+00
0.000000e+00		0.000000e+00		0.000000e+00
0.000000e+00		0.000000e+00		0.000000e+00
0.000000e+00		0.000000e+00		0.000000e+00
0.000000e+00		0.000000e+00		0.000000e+00
0.000000e+00		0.000000e+00		0.000000e+00
0.000000e+00		0.000000e+00		0.000000e+00
0.000000e+00		0.000000e+00		0.000000e+00
0.000000e+00		0.000000e+00		0.000000e+00
0.000000e+00		0.000000e+00		0.000000e+00
0.000000e+00		0.000000e+00		0.000000e+00
0.000000e+00		0.000000e+00		0.000000e+00
0.000000e+00		0.000000e+00		0.000000e+00
0.000000e+00		0.000000e+00		0.000000e+00
0.000000e+00		0.000000e+00		0.000000e+00
0.000000e+00		0.000000e+00		0.000000e+00
0.000000e+00		0.000000e+00		0.000000e+00
0.000000e+00		0.000000e+00		0.000000e+00
0.000000e+00		0.000000e+00		0.000000e+00
0.000000e+00		0.000000e+00		0.000000e+00
0.000000e+00		0.000000e+00		0.000000e+00
0.000000e+00		0.000000e+00		0.000000e+00
0.000000e+00		0.000000e+00		0.000000e+00
0.000000e+00		0.000000e+00		0.000000e+00
0.000000e+00		0.000000e+00		0.000000e+00
0.000000e+00		0.000000e+00		0.000000e+00
0.000000e+00		0.000000e+00		0.000000e+00
0.000000e+00		0.000000e+00		0.000000e+00
0.000000e+00		0.000000e+00		0.000000e+00
0.000000e+00		0.000000e+00		0.000000e+00
0.000000e+00		0.000000e+00		0.000000e+00
0.000000e+00		0.000000e+00		0.000000e+00
0.000000e+00		0.000000e+00		0.000000e+00
0.000000e+00		0.000000e+00		0.000000e+00
0.000000e+00		0.000000e+00		0.000000e+00
0.000000e+00		0.000000e+00		0.000000e+00
0.000000e+00		0.000000e+00		0.000000e+00
0.000000e+00		0.000000e+00		0.000000e+00
0.000000e+00		0.000000e+00		0.000000e+00
0.000000e+00		0.000000e+00		0.000000e+00
0.000000e+00		0.000000e+00		0.000000e+00
0.000000e+00		0.000000e+00		0.000000e+00
0.000000e+00		0.000000e+00		0.000000e+00
0.000000e+00		0.000000e+00		0.000000e+00
0.000000e+00		0.000000e+00		0.000000e+00
0.000000e+00		0.000000e+00		0.000000e+00
0.000000e+00		0.000000e+00		0.000000e+00
0.000000e+00		0.000000e+00		0.000000e+00
0.000000e+00		0.000000e+00		0.000000e+00
0.000000e+00		0.000000e+00		0.000000e+00
0.000000e+00		0.000000e+00		0.000000e+00
0.000000e+00		0.000000e+00		0.000000e+00
0.000000e+00		0.000000e+00		0.000000e+00
0.000000e+00		0.000000e+00		0.000000e+00
0.000000e+00		0.000000e+00		0.000000e+00
0.000000e+00		0.000000e+00		0.000000e+00
0.000000e+00		0.000000e+00		0.000000e+00
0.000000e+00		0.000000e+00		0.000000e+00
0.000000e+00		0.000000e+00		0.000000e+00
0.000000e+00		0.000000e+00		0.000000e+00
0.000000e+00		0.000000e+00		0.000000e+00
0.000000e+00		0.000000e+00		0.000000e+00
0.000000e+00		0.000000e+00		0.000000e+00
0.000000e+00		0.000000e+00		0.000000e+00
0.000000e+00		0.000000e+00		0.000000e+00
0.000000e+00		0.000000e+00		0.000000e+00
0.000000e+00		0.000000e+00		0.000000e+00
0.000000e+00		0.000000e+00		0.000000e+00
0.000000e+00		0.000000e+00		0.000000e+00
0.000000e+00		0.000000e+00		0.000000e+00
0.000000e+00		0.000000e+00		0.000000e+00
0.000000e+00		0.000000e+00		0.000000e+00
0.000000e+00		0.000000e+00		0.000000e+00
0.000000e+00		0.000000e+00		0.000000e+00
0.000000e+00		0.000000e+00		0.000000e+00
0.000000e+00		0.000000e+00		0.000000e+00
0.000000e+00		0.000000e+00		0.000000e+00
0.000000e+00		0.000000e+00		0.000000e+00
0.000000e+00		0.000000e+00		0.000000e+00
0.000000e+00		0.000000e+00		0.000000e+00
0.000000e+00		0.000000e+00		0.000000e+00
0.000000e+00		0.000000e+00		0.000000e+00
0.000000e+00		0.000000e+00		0.000000e+00
0.000000e+00		0.000000e+00		0.000000e+00
0.000000e+00		0.000000e+00		0.000000e+00
0.000000e+00		0.000000e+00		0.000000e+00
0.000000e+00		0.000000e+00		0.000000e+00
0.000000e+00		0.000000e+00		0.000000e+00
0.000000e+00		0.000000e+00		0.000000e+00
0.000000e+00		0.000000e+00		0.000000e+00
0.000000e+00		0.000000e+00		0.000000e+00
0.000000e+00		0.000000e+00		0.000000e+00
0.000000e+00		0.000000e+00		0.000000e+00
0.000000e+00		0.000000e+00		0.000000e+00
0.000000e+00		0.000000e+00		0.000000e+00
0.000000e+00		0.000000e+00		0.000000e+00
0.000000e+00		0.000000e+00		0.000000e+00
0.000000e+00		0.000000e+00		0.000000e+00
0.000000e+00		0.000000e+00		0.000000e+00
0.000000e+00		0.000000e+00		0.000000e+00
0.000000e+00		0.000000e+00		0.000000e+00
0.000000e+00		0.000000e+00		0.000000e+00
0.000000e+00		0.000000e+00		0.000000e+00
0.000000e+00		0.000000e+00		0.000000e+00
0.000000e+00		0.000000e+00		0.000000e+00
0.000000e+00		0.000000e+00		0.000000e+00
0.000000e+00		0.000000e+00		0.000000e+00
0.000000e+00		0.000000e+00		0.000000e+00
0.000000e+00		0.000000e+00		0.000000e+00
0.000000e+00		0.000000e+00		0.000000e+00
0.000000e+00		0.000000e+00		0.000000e+00
0.000000e+00		0.000000e+00		0.000000e+00
0.000000e+00		0.000000e+00		0.000000e+00
0.000000e+00		0.000000e+00		0.000000e+00
0.000000e+00		0.000000e+00		0.000000e+00
0.000000e+00		0.000000e+00		0.000000e+00
0.000000e+00		0.000000e+00		0.000000e+00
0.000000e+00		0.000000e+00		0.000000e+00
0.000000e+00		0.000000e+00		0.000000e+00
0.000000e+00		0.000000e+00		0.000000e+00
0.000000e+00		0.000000e+00		0.000000e+00
0.000000e+00		0.000000e+00		0.000000e+00
0.000000e+00		0.000000e+00		0.000000e+00
0.000000e+00		0.000000e+00		0.000000e+00
0.000000e+00		0.000000e+00		0.000000e+00
0.000000e+00		0.000000e+00		0.000000e+00
0.000000e+00		0.000000e+00		0.000000e+00
0.000000e+00		0.000000e+00		0.000000e+00
0.000000e+00		0.000000e+00		0.000000e+00
0.000000e+00		0.000000e+00		0.000000e+00
0.000000e+00		0.000000e+00		0.000000e+00
0.000000e+00		0.000000e+00		0.000000e+00
0.000000e+00		0.000000e+00		0.000000e+00
0.000000e+00		0.000000e+00		0.000000e+00
0.000000e+00		0.000000e+00		0.000000e+00
0.000000e+00		0.000000e+00		0.000000e+00
0.000000e+00		0.000000e+00		0.000000e+00
0.000000e+00		0.000000e+00		0.000000e+00
0.000000e+00		0.000000e+00		0.000000e+00
0.000000e+00		0.000000e+00		0.000000e+00
0.000000e+00		0.000000e+00		0.000000e+00
0.000000e+00		0.000000e+00		0.000000e+00
0.000000e+00		0.000000e+00		0.000000e+00
0.000000e+00		0.000000e+00		0.000000e+00
0.000000e+00		0.000000e+00		0.000000e+00
0.000000e+00		0.000000e+00		0.000000e+00
0.000000e+00		0.000000e+00		0.000000e+00
0.000000e+00		0.000000e+00		0.000000e+00
0.000000e+00		0.000000e+00		0.000000e+00
0.000000e+00		0.000000e+00		0.000000e+00
0.000000e+00		0.000000e+00		0.000000e+00
0.000000e+00		0.000000e+00		0.000000e+00
0.000000e+00		0.000000e+00		0.000000e+00
0.000000e+00		0.000000e+00		0.000000e+00
0.000000e+00		0.000000e+00		0.000000e+00
0.000000e+00		0.000000e+00		0.000000e+00
0.000000e+00		0.000000e+00		0.000000e+00
0.000000e+00		0.000000e+00		0.000000e+00
0.000000e+00		0.000000e+00		0.000000e+00
0.000000e+00		0.000000e+00		0.000000e+00
0.000000e+00		0.000000e+00		0.000000e+00
0.000000e+00		0.000000e+00		0.000000e+00
0.000000e+00		0.000000e+00		0.000000e+00
0.000000e+00		0.000000e+00		0.000000e+00
0.000000e+00		0.000000e+00		0.000000e+00
0.000000e+00		0.000000e+00		0.000000e+00
0.000000e+00		0.000000e+00		0.000000e+00
0.000000e+00		0.000000e+00		0.000000e+00
0.000000e+00		0.000000e+00		0.000000e+00
0.000000e+00		0.000000e+00		0.000000e+00
0.000000e+00		0.000000e+00		0.000000e+00
0.000000e+00		0.000000e+00		0.000000e+00
0.000000e+00		0.000000e+00		0.000000e+00
0.000000e+00		0.000000e+00		0.000000e+00
0.000000e+00		0.000000e+00		0.000000e+00
0.000000e+00		0.000000e+00		0.000000e+00
0.000000e+00		0.000000e+00		0.000000e+00
0.000000e+00		0.000000e+00		0.000000e+00
0.000000e+00		0.000000e+00		0.000000e+00
0.000000e+00		0.000000e+00		0.000000e+00
0.000000e+00		0.000000e+00		0.000000e+00
0.000000e+00		0.000000e+00		0.000000e+00
0.000000e+00		0.000000e+00		0.000000e+00
0.000000e+00		0.000000e+00		0.000000e+00
0.000000e+00		0.000000e+00		0.000000e+00
0.000000e+00		0.000000e+00		0.000000e+00
0.000000e+00		0.000000e+00		0.000000e+00
0.000000e+00		0.000000e+00		0.000000e+00
0.000000e+00		0.000000e+00		0.000000e+00
0.000000e+00		0.000000e+00		0.000000e+00
0.000000e+00		0.000000e+00		0.000000e+00
0.000000e+00		0.000000e+00		0.000000e+00
0.000000e+00		0.000000e+00		0.000000e+00
0.000000e+00		0.000000e+00		0.000000e+00
0.000000e+00		0.000000e+00		0.000000e+00
0.000000e+00		0.000000e+00		0.000000e+00
0.000000e+00		0.000000e+00		0.000000e+00
0.000000e+00		0.000000e+00		0.000000e+00
0.000000e+00		0.000000e+00		0.000000e+00
0.000000e+00		0.000000e+00		0.000000e+00
0.000000e+00		0.000000e+00		0.000000e+00
0.000000e+00		0.000000e+00		0.000000e+00
0.000000e+00		0.000000e+00		0.000000e+00
0.000000e+00		0.000000e+00		0.000000e+00
0.000000e+00		0.000000e+00		0.000000e+00
0.000000e+00		0.000000e+00		0.000000e+00
0.000000e+00		0.000000e+00		0.000000e+00
0.000000e+00		0.000000e+00		0.000000e+00
0.000000e+00		0.000000e+00		0.000000e+00
0.000000e+00		0.000000e+00		0.000000e+00
0.000000e+00		0.000000e+00		0.000000e+00
0.000000e+00		0.000000e+00		0.000000e+00
0.000000e+00		0.000000e+00		0.000000e+00
0.000000e+00		0.000000e+00		0.000000e+00
0.000000e+00		0.000000e+00		0.000000e+00
0.000000e+00		0.000000e+00		0.000000e+00
0.000000e+00		0.000000e+00		0.000000e+00
0.000000e+00		0.000000e+00		0.000000e+00
0.000000e+00		0.000000e+00		0.000000e+00
0.000000e+00		0.000000e+00		0.000000e+00
0.000000e+00		0.000000e+00		0.000000e+00
0.000000e+00		0.000000e+00		0.000000e+00
0.000000e+00		0.000000e+00		0.000000e+00
0.000000e+00		0.000000e+00		0.000000e+00
0.000000e+00		0.000000e+00		0.000000e+00
0.000000e+00		0.000000e+00		0.000000e+00
0.000000e+00		0.000000e+00		0.000000e+00
0.000000e+00		0.000000e+00		0.000000e+00
0.000000e+00		0.000000e+00		0.000000e+00
0.000000e+00		0.000000e+00		0.000000e+00
0.000000e+00		0.000000e+00		0.000000e+00
0.000000e+00		0.000000e+00		0.000000e+00
0.000000e+00		0.000000e+00		0.000000e+00
0.000000e+00		0.000000e+00		0.000000e+00
0.000000e+00		0.000000e+00		0.000000e+00
0.000000e+00		0.000000e+00		0.000000e+00
0.000000e+00		0.000000e+00		0.000000e+00
0.000000e+00		0.000000e+00		0.000000e+00
0.000000e+00		0.000000e+00		0.000000e+00
0.000000e+00		0.000000e+00		0.000000e+00
0.000000e+00		0.000000e+00		0.000000e+00
0.000000e+00		0.000000e+00		0.000000e+00
0.000000e+00		0.000000e+00		0.000000e+00
0.000000e+00		0.000000e+00		0.000000e+00
0.000000e+00		0.000000e+00		0.000000e+00
0.000000e+00		0.000000e+00		0.000000e+00
0.000000e+00		0.000000e+00		0.000000e+00
0.000000e+00		0.000000e+00		0.000000e+00
0.000000e+00		0.000000e+00		0.000000e+00
0.000000e+00		0.000000e+00		0.000000e+00
0.000000e+00		0.000000e+00		0.000000e+00
0.000000e+00		0.000000e+00		0.000000e+00
0.000000e+00		0.000000e+00		0.000000e+00
0.000000e+00		0.000000e+00		0.000000e+00
0.000000e+00		0.000000e+00		0.000000e+00
0.000000e+00		0.000000e+00		0.000000e+00
0.000000e+00		0.000000e+00		0.000000e+00
0.000000e+00		0.000000e+00		0.000000e+00
0.000000e+00		0.000000e+00		0.000000e+00
0.000000e+00		0.000000e+00		0.000000e+00
0.000000e+00		0.000000e+00		0.000000e+00
0.000000e+00		0.000000e+00		0.000000e+00
0.000000e+00		0.000000e+00		0.000000e+00
0.000000e+00		0.000000e+00		0.000000e+00
0.000000e+00		0.000000e+00		0.000000e+00
0.000000e+00		0.000000e+00		0.000000e+00
0.000000e+00		0.000000e+00		0.000000e+00
0.000000e+00		0.000000e+00		0.000000e+00
0.000000e+00		0.000000e+00		0.000000e+00
0.000000e+00		0.000000e+00		0.000000e+00
0.000000e+00		0.000000e+00		0.000000e+00
0.000000e+00		0.000000e+00		0.000000e+00
0.000000e+00		0.000000e+00		0.000000e+00
0.000000e+00		0.000000e+00		0.000000e+00
0.000000e+00		0.000000e+00		0.000000e+00
0.000000e+00		0.000000e+00		0.000000e+00
0.000000e+00		0.000000e+00		0.000000e+00
0.000000e+00		0.000000e+00		0.000000e+00
0.000000e+00		0.000000e+00		0.000000e+00
0.000000e+00		0.000000e+00		0.000000e+00
0.000000e+00		0.000000e+00		0.000000e+00
0.000000e+00		0.000000e+00		0.000000e+00
0.000000e+00		0.000000e+00		0.000000e+00
0.000000e+00		0.000000e+00		0.000000e+00
0.000000e+00		0.000000e+00		0.000000e+00
0.000000e+00		0.000000e+00		0.000000e+00
0.000000e+00		0.000000e+00		0.000000e+00
0.000000e+00		0.000000e+00		0.000000e+00
0.000000e+00		0.000000e+00		0.000000e+00
0.000000e+00		0.000000e+00		0.000000e+00
0.000000e+00		0.000000e+00		0.000000e+00
0.000000e+00		0.000000e+00		0.000000e+00
0.000000e+00		0.000000e+00		0.000000e+00
0.000000e+00		0.000000e+00		0.000000e+00
0.000000e+00		0.000000e+00		0.000000e+00
0.000000e+00		0.000000e+00		0.000000e+00
0.000000e+00		0.000000e+00		0.000000e+00
0.000000e+00		0.000000e+00		0.000000e+00
0.000000e+00		0.000000e+00		0.000000e+00
0.000000e+00		0.000000e+00		0.000000e+00
0.000000e+00		0.000000e+00		0.000000e+00
0.000000e+00		0.000000e+00		0.000000e+00
0.000000e+00		0.000000e+00		0.000000e+00
0.000000e+00		0.000000e+00		0.000000e+00
0.000000e+00		0.000000e+00		0.000000e+00
0.000000e+00		0.000000e+00		0.000000e+00
0.000000e+00		0.000000e+00		0.000000e+00
0.000000e+00		0.000000e+00		0.000000e+00
0.000000e+00		0.000000e+00		0.000000e+00
0.000000e+00		0.000000e+00		0.000000e+00
0.000000e+00		0.000000e+00		0.000000e+00
0.000000e+00		0.000000e+00		0.000000e+00
0.000000e+00		0.000000e+00		0.000000e+00
0.000000e+00		0.000000e+00		0.000000e+00
0.000000e+00		0.000000e+00		0.000000e+00
0.000000e+00		0.000000e+00		0.000000e+00
0.000000e+00		0.000000e+00		0.000000e+00
0.000000e+00		0.000000e+00		0.000000e+00
0.000000e+00		0.000000e+00		0.000000e+00
0.000000e+00		0.000000e+00		0.000000e+00
0.000000e+00		0.000000e+00		0.000000e+00
0.000000e+00		0.000000e+00		0.000000e+00
0.000000e+00		0.000000e+00		0.000000e+00
0.000000e+00		0.000000e+00		0.000000e+00
0.000000e+00		0.000000e+00		0.000000e+00
0.000000e+00		0.000000e+00		0.000000e+00
0.000000e+00		0.000000e+00		0.000000e+00
0.000000e+00		0.000000e+00		0.000000e+00
0.000000e+00		0.000000e+00		0.000000e+00
0.000000e+00		0.000000e+00		0.000000e+00
0.000000e+00		0.000000e+00		0.000000e+00
0.000000e+00		0.000000e+00		0.000000e+00
0.000000e+00		0.000000e+00		0.000000e+00
0.000000e+00		0.000000e+00		0.000000e+00
0.000000e+00		0.000000e+00		0.000000e+00
0.000000e+00		0.000000e+00		0.000000e+00
0.000000e+00		0.000000e+00		0.000000e+00
0.000000e+00		0.000000e+00		0.000000e+00
0.000000e+00		0.000000e+00		0.000000e+00
0.000000e+00		0.000000e+00		0.000000e+00
0.000000e+00		0.000000e+00		0.000000e+00
0.000000e+00		0.000000e+00		0.000000e+00
0.000000e+00		0.000000e+00		0.000000e+00
0.000000e+00		0.000000e+00		0.000000e+00
0.000000e+00		0.000000e+00		0.000000e+00
0.000000e+00		0.000000e+00		0.000000e+00
0.000000e+00		0.000000e+00		0.000000e+00
0.000000e+00		0.000000e+00		0.000000e+00
0.000000e+00		0.000000e+00		0.000000e+00
0.000000e+00		0.000000e+00		0.000000e+00
0.000000e+00		0.000000e+00		0.000000e+00
0.000000e+00		0.000000e+00		0.000000e+00
0.000000e+00		0.000000e+00		0.000000e+00
0.000000e+00		0.000000e+00		0.000000e+00
0.000000e+00		0.000000e+00		0.000000e+00
0.000000e+00		0.000000e+00		0.000000e+00
0.000000e+00		0.000000e+00		0.000000e+00
0.000000e+00		0.000000e+00		0.000000e+00
0.000000e+00		0.000000e+00		0.000000e+00
0.000000e+00		0.000000e+00		0.000000e+00
0.000000e+00		0.000000e+00		0.000000e+00
0.000000e+00		0.000000e+00		0.000000e+00
0.000000e+00		0.000000e+00		0.000000e+00
0.000000e+00		0.000000e+00		0.000000e+00
0.000000e+00		0.000000e+00		0.000000e+00
0.000000e+00		0.000000e+00		0.000000e+00
0.000000e+00		0.000000e+00		0.000000e+00
0.000000e+00		0.000000e+00		0.000000e+00
0.000000e+00		0.000000e+00		0.000000e+00
0.000000e+00		0.000000e+00		0.000000e+00
0.000000e+00		0.000000e+00		0.000000e+00
0.000000e+00		0.000000e+00		0.000000e+00
0.000000e+00		0.000000e+00		0.000000e+00
0.000000e+00		0.000000e+00		0.000000e+00
0.000000e+00		0.000000e+00		0.000000e+00
0.000000e+00		0.000000e+00		0.000000e+00
0.000000e+00		0.000000e+00		0.000000e+00
0.000000e+00		0.000000e+00		0.000000e+00
0.000000e+00		0.000000e+00		0.000000e+00
0.000000e+00		0.000000e+00		0.000000e+00
0.000000e+00		0.000000e+00		0.000000e+00
0.000000e+00		0.000000e+00		0.000000e+00
0.000000e+00		0.000000e+00		0.000000e+00
0.000000e+00		0.000000e+00		0.000000e+00
0.000000e+00		0.000000e+00		0.000000e+00
0.000000e+00		0.000000e+00		0.000000e+00
0.000000e+00		0.000000e+00		0.000000e+00
0.000000e+00		0.000000e+00		0.000000e+00
0.000000e+00		0.000000e+00		0.000000e+00
0.000000e+00		0.000000e+00		0.000000e+00
0.000000e+00		0.000000e+00		0.000000e+00
0.000000e+00		0.000000e+00		0.000000e+00
0.000000e+00		0.000000e+00		0.000000e+00
0.000000e+00		0.000000e+00		0.000000e+00
0.000000e+00		0.000000e+00		0.000000e+00
0.000000e+00		0.000000e+00		0.000000e+00
0.000000e+00		0.000000e+00		0.000000e+00
0.000000e+00		0.000000e+00		0.000000e+00
0.000000e+00		0.000000e+00		0.000000e+00
0.000000e+00		0.000000e+00		0.000000e+00
0.000000e+00		0.000000e+00		0.000000e+00
0.000000e+00		0.000000e+00		0.000000e+00
0.000000e+00		0.000000e+00		0.000000e+00
0.000000e+00		0.000000e+00		0.000000e+00
0.000000e+00		0.000000e+00		0.000000e+00
0.000000e+00		0.000000e+00		0.000000e+00
0.000000e+00		0.000000e+00		0.000000e+00
0.000000e+00		0.000000e+00		0.000000e+00
0.000000e+00		0.000000e+00		0.000000e+00
0.000000e+00		0.000000e+00		0.000000e+00
0.000000e+00		0.000000e+00		0.000000e+00
0.000000e+00		0.000000e+00		0.000000e+00
0.000000e+00		0.000000e+00		0.000000e+00
0.000000e+00		0.000000e+00		0.000000e+00
0.000000e+00		0.000000e+00		0.000000e+00
0.000000e+00		0.000000e+00		0.000000e+00
0.000000e+00		0.000000e+00		0.000000e+00
0.000000e+00		0.000000e+00		0.000000e+00
0.000000e+00		0.000000e+00		0.000000e+00
0.000000e+00		0.000000e+00		0.000000e+00
0.000000e+00		0.000000e+00		0.000000e+00
0.000000e+00		0.000000e+00		0.000000e+00
0.000000e+00		0.000000e+00		0.000000e+00
0.000000e+00		0.000000e+00		0.000000e+00
0.000000e+00		0.000000e+00		0.000000e+00
0.000000e+00		0.000000e+00		0.000000e+00
0.000000e+00		0.000000e+00		0.000000e+00
0.000000e+00		0.000000e+00		0.000000e+00
0.000000e+00		0.000000e+00		0.000000e+00
0.000000e+00		0.000000e+00		0.000000e+00
0.000000e+00		0.000000e+00		0.000000e+00
0.000000e+00		0.000000e+00		0.000000e+00
0.000000e+00		0.000000e+00		0.000000e+00
0.000000e+00		0.000000e+00		0.000000e+00
0.000000e+00		0.000000e+00		0.000000e+00
0.000000e+00		0.000000e+00		0.000000e+00
0.000000e+00		0.000000e+00		0.000000e+00
0.000000e+00		0.000000e+00		0.000000e+00
0.000000e+00		0.000000e+00		0.000000e+00
0.000000e+00		0.000000e+00		0.000000e+00
0.000000e+00		0.000000e+00		0.000000e+00
0.000000e+00		0.000000e+00		0.000000e+00
0.000000e+00		0.000000e+00		0.000000e+00
0.000000e+00		0.000000e+00		0.000000e+00
0.000000e+00		0.000000e+00		0.000000e+00
0.000000e+00		0.000000e+00		0.000000e+00
0.000000e+00		0.000000e+00		0.000000e+00
0.000000e+00		0.000000e+00		0.000000e+00
0.000000e+00		0.000000e+00		0.000000e+00
0.000000e+00		0.000000e+00		0.000000e+00
0.000000e+00		0.000000e+00		0.000000e+00
0.000000e+00		0.000000e+00		0.000000e+00
0.000000e+00		0.000000e+00		0.000000e+00
0.000000e+00		0.000000e+00		0.000000e+00
0.000000e+00		0.000000e+00		0.000000e+00
0.000000e+00		0.000000e+00		0.000000e+00
0.000000e+00		0.000000e+00		0.000000e+00
0.000000e+00		0.000000e+00		0.000000e+00
0.000000e+00		0.000000e+00		0.000000e+00
0.000000e+00		0.000000e+00		0.000000e+00
0.000000e+00		0.000000e+00		0.000000e+00
0.000000e+00		0.000000e+00		0.000000e+00
0.000000e+00		0.000000e+00		0.000000e+00
0.000000e+00		0.000000e+00		0.000000e+00
0.000000e+00		0.000000e+00		0.000000e+00
0.000000e+00		0.000000e+00		0.000000e+00
0.000000e+00		0.000000e+00		0.000000e+00
0.000000e+00		0.000000e+00		0.000000e+00
0.000000e+00		0.000000e+00		0.000000e+00
0.000000e+00		0.000000e+00		0.000000e+00
0.000000e+00		0.000000e+00		0.000000e+00
0.000000e+00		0.000000e+00		0.000000e+00
0.000000e+00		0.000000e+00		0.000000e+00
0.000000e+00		0.000000e+00		0.000000e+00
0.000000e+00		0.000000e+00		0.000000e+00
0.000000e+00		0.000000e+00		0.000000e+00
0.000000e+00		0.000000e+00		0.000000e+00
0.000000e+00		0.000000e+00		0.000000e+00
0.000000e+00		0.000000e+00		0.000000e+00
0.000000e+00		0.000000e+00		0.000000e+00
0.000000e+00		0.000000e+00		0.000000e+00
0.000000e+00		0.000000e+00		0.000000e+00
0.000000e+00		0.000000e+00		0.000000e+00
0.000000e+00		0.000000e+00		0.000000e+00
0.000000e+00		0.000000e+00		0.000000e+00
0.000000e+00		0.000000e+00		0.000000e+00
0.000000e+00		0.000000e+00		0.000000e+00
0.000000e+00		0.000000e+00		0.000000e+00
0.000000e+00		0.000000e+00		0.000000e+00
0.000000e+00		0.000000e+00		0.000000e+00
0.000000e+00		0.000000e+00		0.000000e+00
0.000000e+00		0.000000e+00		0.000000e+00
0.000000e+00		0.000000e+00		0.000000e+00
0.000000e+00		0.000000e+00		0.000000e+00
0.000000e+00		0.000000e+00		0.000000e+00
0.000000e+00		0.000000e+00		0.000000e+00
0.000000e+00		0.000000e+00		0.000000e+00
0.000000e+00		0.000000e+00		0.000000e+00
0.000000e+00		0.000000e+00		0.000000e+00
0.000000e+00		0.000000e+00		0.000000e+00
0.000000e+00		0.000000e+00		0.000000e+00
0.000000e+00		0.000000e+00		0.000000e+00
0.000000e+00		0.000000e+00		0.000000e+00
0.000000e+00		0.000000e+00		0.000000e+00
0.000000e+00		0.000000e+00		0.000000e+00
0.000000e+00		0.000000e+00		0.000000e+00
0.000000e+00		0.000000e+00		0.000000e+00
0.000000e+00		0.000000e+00		0.000000e+00
0.000000e+00		0.000000e+00		0.000000e+00
0.000000e+00		0.000000e+00		0.000000e+00
0.000000e+00		0.000000e+00		0.000000e+00
0.000000e+00		0.000000e+00		0.000000e+00
0.000000e+00		0.000000e+00		0.000000e+00
0.000000e+00		0.000000e+00		0.000000e+00
0.000000e+00		0.000000e+00		0.000000e+00
0.000000e+00		0.000000e+00		0.000000e+00
0.000000e+00		0.000000e+00		0.000000e+00
0.000000e+00		0.000000e+00		0.000000e+00
0.000000e+00		0.000000e+00		0.000000e+00
0.000000e+00		0.000000e+00		0.000000e+00
0.000000e+00		0.000000e+00		0.000000e+00
0.000000e+00		0.000000e+00		0.000000e+00
0.000000e+00		0.000000e+00		0.000000e+00
0.000000e+00		0.000000e+00		0.000000e+00
0.000000e+00		0.000000e+00		0.000000e+00
0.000000e+00		0.000000e+00		0.000000e+00
0.000000e+00		0.000000e+00		0.000000e+00
0.000000e+00		0.000000e+00		0.000000e+00
0.000000e+00		0.000000e+00		0.000000e+00
0.000000e+00		0.000000e+00		0.000000e+00
0.000000e+00		0.000000e+00		0.000000e+00
0.000000e+00		0.000000e+00		0.000000e+00
0.000000e+00		0.000000e+00		0.000000e+00
0.000000e+00		0.000000e+00		0.000000e+00
0.000000e+00		0.000000e+00		0.000000e+00
0.000000e+00		0.000000e+00		0.000000e+00
0.000000e+00		0.000000e+00		0.000000e+00
0.000000e+00		0.000000e+00		0.000000e+00
0.000000e+00		0.000000e+00		0.000000e+00
0.000000e+00		0.000000e+00		0.000000e+00
0.000000e+00		0.000000e+00		0.000000e+00
0.000000e+00		0.000000e+00		0.000000e+00
0.000000e+00		0.000000e+00		0.000000e+00
0.000000e+00		0.000000e+00		0.000000e+00
0.000000e+00		0.000000e+00		0.000000e+00
0.000000e+00		0.000000e+00		0.000000e+00
0.000000e+00		0.000000e+00		0.000000e+00
0.000000e+00		0.000000e+00		0.000000e+00
0.000000e+00		0.000000e+00		0.000000e+00
0.000000e+00		0.000000e+00		0.000000e+00
0.000000e+00		0.000000e+00		0.000000e+00
0.000000e+00		0.000000e+00		0.000000e+00
0.000000e+00		0.000000e+00		0.000000e+00
0.000000e+00		0.000000e+00		0.000000e+00
0.000000e+00		0.000000e+00		0.000000e+00
0.000000e+00		0.000000e+00		0.000000e+00
0.000000e+00		0.000000e+00		0.000000e+00
0.000000e+00		0.000000e+00		0.000000e+00
0.000000e+00		0.000000e+00		0.000000e+00
0.000000e+00		0.000000e+00		0.000000e+00
0.000000e+00		0.000000e+00		0.000000e+00
0.000000e+00		0.000000e+00		0.000000e+00
0.000000e+00		0.000000e+00		0.000000e+00
0.000000e+00		0.000000e+00		0.000000e+00
0.000000e+00		0.000000e+00		0.000000e+00
0.000000e+00		0.000000e+00		0.000000e+00
0.000000e+00		0.000000e+00		0.000000e+00
0.000000e+00		0.000000e+00		0.000000e+00
0.000000e+00		0.000000e+00		0.000000e+00
0.000000e+00		0.000000e+00		0.000000e+00
0.000000e+00		0.000000e+00		0.000000e+00
0.000000e+00		0.000000e+00		0.000000e+00
0.000000e+00		0.000000e+00		0.000000e+00
0.000000e+00		0.000000e+00		0.000000e+00
0.000000e+00		0.000000e+00		0.000000e+00
0.000000e+00		0.000000e+00		0.000000e+00
0.000000e+00		0.000000e+00		0.000000e+00
0.000000e+00		0.000000e+00		0.000000e+00
0.000000e+00		0.000000e+00		0.000000e+00
0.000000e+00		0.000000e+00		0.000000e+00
0.000000e+00		0.000000e+00		0.000000e+00
0.000000e+00		0.000000e+00		0.000000e+00
0.000000e+00		0.000000e+00		0.000000e+00
0.000000e+00		0.000000e+00		0.000000e+00
0.000000e+00		0.000000e+00		0.000000e+00
0.000000e+00		0.000000e+00		0.000000e+00
0.000000e+00		0.000000e+00		0.000000e+00
0.000000e+00		0.000000e+00		0.000000e+00
0.000000e+00		0.000000e+00		0.000000e+00
0.000000e+00		0.000000e+00		0.000000e+00
0.000000e+00		0.000000e+00		0.000000e+00
0.000000e+00		0.000000e+00		0.000000e+00
0.000000e+00		0.000000e+00		0.000000e+00
0.000000e+00		0.000000e+00		0.000000e+00
0.000000e+00		0.000000e+00		0.000000e+00
0.000000e+00		0.000000e+00		0.000000e+00
0.000000e+00		0.000000e+00		0.000000e+00
0.000000e+00		0.000000e+00		0.000000e+00
0.000000e+00		0.000000e+00		0.000000e+00
0.000000e+00		0.000000e+00		0.000000e+00
0.000000e+00		0.000000e+00		0.000000e+00
0.000000e+00		0.000000e+00		0.000000e+00
0.000000e+00		0.000000e+00		0.000000e+00
0.000000e+00		0.000000e+00		0.000000e+00
0.000000e+00		0.000000e+00		0.000000e+00
0.000000e+00		0.000000e+00		0.000000e+00
0.000000e+00		0.000000e+00		0.000000e+00
0.000000e+00		0.000000e+00		0.000000e+00
0.000000e+00		0.000000e+00		0.000000e+00
0.000000e+00		0.000000e+00		0.000000e+00
0.000000e+00		0.000000e+00		0.000000e+00
0.000000e+00		0.000000e+00		0.000000e+00
0.000000e+00		0.000000e+00		0.000000e+00
0.000000e+00		0.000000e+00		0.000000e+00
0.000000e+00		0.000000e+00		0.000000e+00
0.000000e+00		0.000000e+00		0.000000e+00
0.000000e+00		0.000000e+00		0.000000e+00
0.000000e+00		0.000000e+00		0.000000e+00
0.000000e+00		0.000000e+00		0.000000e+00
0.000000e+00		0.000000e+00		0.000000e+00
0.000000e+00		0.000000e+00		0.000000e+00
0.000000e+00		0.000000e+00		0.000000e+00
0.000000e+00		0.000000e+00		0.000000e+00
0.000000e+00		0.000000e+00		0.000000e+00
0.000000e+00		0.000000e+00		0.000000e+00
0.000000e+00		0.000000e+00		0.000000e+00
0.000000e+00		0.000000e+00		0.000000e+00
0.000000e+00		0.000000e+00		0.000000e+00
0.000000e+00		0.000000e+00		0.000000e+00
0.000000e+00		0.000000e+00		0.000000e+00
0.000000e+00		0.000000e+00		0.000000e+00
0.000000e+00		0.000000e+00		0.000000e+00
0.000000e+00		0.000000e+00		0.000000e+00
0.000000e+00		0.000000e+00		0.000000e+00
0.000000e+00		0.000000e+00		0.000000e+00
0.000000e+00		0.000000e+00		0.000000e+00
0.000000e+00		0.000000e+00		0.000000e+00
0.000000e+00		0.000000e+00		0.000000e+00
0.000000e+00		0.000000e+00		0.000000e+00
0.000000e+00		0.000000e+00		0.000000e+00
0.000000e+00		0.000000e+00		0.000000e+00
0.000000e+00		0.000000e+00		0.000000e+00
0.000000e+00		0.000000e+00		0.000000e+00
0.000000e+00		0.000000e+00		0.000000e+00
0.000000e+00		0.000000e+00		0.000000e+00
0.000000e+00		0.000000e+00		0.000000e+00
0.000000e+00		0.000000e+00		0.000000e+00
0.000000e+00		0.000000e+00		0.000000e+00
0.000000e+00		0.000000e+00		0.000000e+00
0.000000e+00		0.000000e+00		0.000000e+00
0.000000e+00		0.000000e+00		0.000000e+00
0.000000e+00		0.000000e+00		0.000000e+00
0.000000e+00		0.000000e+00		0.000000e+00
0.000000e+00		0.000000e+00		0.000000e+00
0.000000e+00		0.000000e+00		0.000000e+00
0.000000e+00		0.000000e+00		0.000000e+00
0.000000e+00		0.000000e+00		0.000000e+00
0.000000e+00		0.000000e+00		0.000000e+00
0.000000e+00		0.000000e+00		0.000000e+00
0.000000e+00		0.000000e+00		0.000000e+00
0.000000e+00		0.000000e+00		0.000000e+00
0.000000e+00		0.000000e+00		0.000000e+00
0.000000e+00		0.000000e+00		0.000000e+00
0.000000e+00		0.000000e+00		0.000000e+00
0.000000e+00		0.000000e+00		0.000000e+00
0.000000e+00		0.000000e+00		0.000000e+00
0.000000e+00		0.000000e+00		0.000000e+00
0.000000e+00		0.000000e+00		0.000000e+00
0.000000e+00		0.000000e+00		0.000000e+00
0.000000e+00		0.000000e+00		0.000000e+00
0.000000e+00		0.000000e+00		0.000000e+00
0.000000e+00		0.000000e+00		0.000000e+00
0.000000e+00		0.000000e+00		0.000000e+00
0.000000e+00		0.000000e+00		0.000000e+00
0.000000e+00		0.000000e+00		0.000000e+00
0.000000e+00		0.000000e+00		0.000000e+00
0.000000e+00		0.000000e+00		0.000000e+00
0.000000e+00		0.000000e+00		0.000000e+00
0.000000e+00		0.000000e+00		0.000000e+00
0.000000e+00		0.000000e+00		0.000000e+00
0.000000e+00		0.000000e+00		0.000000e+00
0.000000e+00		0.000000e+00		0.000000e+00
0.000000e+00		0.000000e+00		0.000000e+00
0.000000e+00		0.000000e+00		0.000000e+00
0.000000e+00		0.000000e+00		0.000000e+00
0.000000e+00		0.000000e+00		0.000000e+00
0.000000e+00		0.000000e+00		0.000000e+00
0.000000e+00		0.000000e+00		0.000000e+00
0.000000e+00		0.000000e+00		0.000000e+00
0.000000e+00		0.000000e+00		0.000000e+00
0.000000e+00		0.000000e+00		0.000000e+00
0.000000e+00		0.000000e+00		0.000000e+00
0.000000e+00		0.000000e+00		0.000000e+00
0.000000e+00		0.000000e+00		0.000000e+00
0.000000e+00		0.000000e+00		0.000000e+00
0.000000e+00		0.000000e+00		0.000000e+00
0.000000e+00		0.000000e+00		0.000000e+00
0.000000e+00		0.000000e+00		0.000000e+00
0.000000e+00		0.000000e+00		0.000000e+00
0.000000e+00		0.000000e+00		0.000000e+00
0.000000e+00		0.000000e+00		0.000000e+00
0.000000e+00		0.000000e+00		0.000000e+00
0.000000e+00		0.000000e+00		0.000000e+00
0.000000e+00		0.000000e+00		0.000000e+00
0.000000e+00		0.000000e+00		0.000000e+00
0.000000e+00		0.000000e+00		0.000000e+00
0.000000e+00		0.000000e+00		0.000000e+00
0.000000e+00		0.000000e+00		0.000000e+00
0.000000e+00		0.000000e+00		0.000000e+00
0.000000e+00		0.000000e+00		0.000000e+00
0.000000e+00		0.000000e+00		0.000000e+00
0.000000e+00		0.000000e+00		0.000000e+00
0.000000e+00		0.000000e+00		0.000000e+00
0.000000e+00		0.000000e+00		0.000000e+00
0.000000e+00		0.000000e+00		0.000000e+00
0.000000e+00		0.000000e+00		0.000000e+00
0.000000e+00		0.000000e+00		0.000000e+00
0.000000e+00		0.000000e+00		0.000000e+00
0.000000e+00		0.000000e+00		0.000000e+00
0.000000e+00		0.000000e+00		0.000000e+00
0.000000e+00		0.000000e+00		0.000000e+00
0.000000e+00		0.000000e+00		0.000000e+00
0.000000e+00		0.000000e+00		0.000000e+00
0.000000e+00		0.000000e+00		0.000000e+00
0.000000e+00		0.000000e+00		0.000000e+00
0.000000e+00		0.000000e+00		0.000000e+00
0.000000e+00		0.000000e+00		0.000000e+00
0.000000e+00		0.000000e+00		0.000000e+00
0.000000e+00		0.000000e+00		0.000000e+00
0.000000e+00		0.000000e+00		0.000000e+00
0.000000e+00		0.000000e+00		0.000000e+00
0.000000e+00		0.000000e+00		0.000000e+00
0.000000e+00		0.000000e+00		0.000000e+00
0.000000e+00		0.000000e+00		0.000000e+00
0.000000e+00		0.000000e+00		0.000000e+00
0.000000e+00		0.000000e+00		0.000000e+00
0.000000e+00		0.000000e+00		0.000000e+00
0.000000e+00		0.000000e+00		0.000000e+00
0.000000e+00		0.000000e+00		0.000000e+00
0.000000e+00		0.000000e+00		0.000000e+00
0.000000e+00		0.000000e+00		0.000000e+00
0.000000e+00		0.000000e+00		0.000000e+00
0.000000e+00		0.000000e+00		0.000000e+00
0.000000e+00		0.000000e+00		0.000000e+00
0.000000e+00		0.000000e+00		0.000000e+00
0.000000e+00		0.000000e+00		0.000000e+00
0.000000e+00		0.000000e+00		0.000000e+00
0.000000e+00		0.000000e+00		0.000000e+00
0.000000e+00		0.000000e+00		0.000000e+00
0.000000e+00		0.000000e+00		0.000000e+00
0.000000e+00		0.000000e+00		0.000000e+00
0.000000e+00		0.000000e+00		0.000000e+00
0.000000e+00		0.000000e+00		0.000000e+00
0.000000e+00		0.000000e+00		0.000000e+00
0.000000e+00		0.000000e+00		0.000000e+00
0.000000e+00		0.000000e+00		0.000000e+00
0.000000e+00		0.000000e+00		0.000000e+00
0.000000e+00		0.000000e+00		0.000000e+00
0.000000e+00		0.000000e+00		0.000000e+00
0.000000e+00		0.000000e+00		0.000000e+00
0.000000e+00		0.000000e+00		0.000000e+00
0.000000e+00		0.000000e+00		0.000000e+00
0.000000e+00		0.000000e+00		0.000000e+00
0.000000e+00		0.000000e+00		0.000000e+00
0.000000e+00		0.000000e+00		0.000000e+00
0.000000e+00		0.000000e+00		0.000000e+00
0.000000e+00		0.000000e+00		0.000000e+00
0.000000e+00		0.000000e+00		0.000000e+00
0.000000e+00		0.000000e+00		0.000000e+00
0.000000e+00		0.000000e+00		0.000000e+00
0.000000e+00		0.000000e+00		0.000000e+00
0.000000e+00		0.000000e+00		0.000000e+00
0.000000e+00		0.000000e+00		0.000000e+00
0.000000e+00		0.000000e+00		0.000000e+00
0.000000e+00		0.000000e+00		0.000000e+00
0.000000e+00		0.000000e+00		0.000000e+00
0.000000e+00		0.000000e+00		0.000000e+00
0.000000e+00		0.000000e+00		0.000000e+00
0.000000e+00		0.000000e+00		0.000000e+00
0.000000e+00		0.000000e+00		0.000000e+00
0.000000e+00		0.000000e+00		0.000000e+00
0.000000e+00		0.000000e+00		0.000000e+00
0.000000e+00		0.000000e+00		0.000000e+00
0.000000e+00		0.000000e+00		0.000000e+00
0.000000e+00		0.000000e+00		0.000000e+00
0.000000e+00		0.000000e+00		0.000000e+00
0.000000e+00		0.000000e+00		0.000000e+00
0.000000e+00		0.000000e+00		0.000000e+00
0.000000e+00		0.000000e+00		0.000000e+00
0.000000e+00		0.000000e+00		0.000000e+00
0.000000e+00		0.000000e+00		0.000000e+00
0.000000e+00		0.000000e+00		0.000000e+00
0.000000e+00		0.000000e+00		0.000000e+00
0.000000e+00		0.000000e+00		0.000000e+00
0.000000e+00		0.000000e+00		0.000000e+00
0.000000e+00		0.000000e+00		0.000000e+00
0.000000e+00		0.000000e+00		0.000000e+00
0.000000e+00		0.000000e+00		0.000000e+00
0.000000e+00		0.000000e+00		0.000000e+00
0.000000e+00		0.000000e+00		0.000000e+00
0.000000e+00		0.000000e+00		0.000000e+00
0.000000e+00		0.000000e+00		0.000000e+00
0.000000e+00		0.000000e+00		0.000000e+00
0.000000e+00		0.000000e+00		0.000000e+00
0.000000e+00		0.000000e+00		0.000000e+00
0.000000e+00		0.000000e+00		0.000000e+00
0.000000e+00		0.000000e+00		0.000000e+00
0.000000e+00		0.000000e+00		0.000000e+00
0.000000e+00		0.000000e+00		0.000000e+00
0.000000e+00		0.000000e+00		0.000000e+00
0.000000e+00		0.000000e+00		0.000000e+00
0.000000e+00		0.000000e+00		0.000000e+00
0.000000e+00		0.000000e+00		0.000000e+00
0.000000e+00		0.000000e+00		0.000000e+00
0.000000e+00		0.000000e+00		0.000000e+00
0.000000e+00		0.000000e+00		0.000000e+00
0.000000e+00		0.000000e+00		0.000000e+00
0.000000e+00		0.000000e+00		0.000000e+00
0.000000e+00		0.000000e+00		0.000000e+00
0.000000e+00		0.000000e+00		0.000000e+00
0.000000e+00		0.000000e+00		0.000000e+00
0.000000e+00		0.000000e+00		0.000000e+00
0.000000e+00		0.000000e+00		0.000000e+00
0.000000e+00		0.000000e+00		0.000000e+00
0.000000e+00		0.000000e+00		0.000000e+00
0.000000e+00		0.000000e+00		0.000000e+00
0.000000e+00		0.000000e+00		0.000000e+00
0.000000e+00		0.000000e+00		0.000000e+00
0.000000e+00		0.000000e+00		0.000000e+00
0.000000e+00		0.000000e+00		0.000000e+00
0.000000e+00		0.000000e+00		0.000000e+00
0.000000e+00		0.000000e+00		0.000000e+00
0.000000e+00		0.000000e+00		0.000000e+00
0.000000e+00		0.000000e+00		0.000000e+00
0.000000e+00		0.000000e+00		0.000000e+00
0.000000e+00		0.000000e+00		0.000000e+00
0.000000e+00		0.000000e+00		0.000000e+00
0.000000e+00		0.000000e+00		0.000000e+00
0.000000e+00		0.000000e+00		0.000000e+00
0.000000e+00		0.000000e+00		0.000000e+00
0.000000e+00		0.000000e+00		0.000000e+00
0.000000e+00		0.000000e+00		0.000000e+00
0.000000e+00		0.000000e+00		0.000000e+00
0.000000e+00		0.000000e+00		0.000000e+00
0.000000e+00		0.000000e+00		0.000000e+00
0.000000e+00		0.000000e+00		0.000000e+00
0.000000e+00		0.000000e+00		0.000000e+00
0.000000e+00		0.000000e+00		0.000000e+00
0.000000e+00		0.000000e+00		0.000000e+00
0.000000e+00		0.000000e+00		0.000000e+00
0.000000e+00		0.000000e+00		0.000000e+00
0.000000e+00		0.000000e+00		0.000000e+00
0.000000e+00		0.000000e+00		0.000000e+00
0.000000e+00		0.000000e+00		0.000000e+00
0.000000e+00		0.000000e+00		0.000000e+00
0.000000e+00		0.000000e+00		0.000000e+00
0.000000e+00		0.000000e+00		0.000000e+00
0.000000e+00		0.000000e+00		0.000000e+00
0.000000e+00		0.000000e+00		0.000000e+00
0.000000e+00		0.000000e+00		0.000000e+00
0.000000e+00		0.000000e+00		0.000000e+00
0.000000e+00		0.000000e+00		0.000000e+00
0.000000e+00		0.000000e+00		0.000000e+00
0.000000e+00		0.000000e+00		0.000000e+00
0.000000e+00		0.000000e+00		0.000000e+00
0.000000e+00		0.000000e+00		0.000000e+00
0.000000e+00		0.000000e+00		0.000000e+00
0.000000e+00		0.000000e+00		0.000000e+00
0.000000e+00		0.000000e+00		0.000000e+00
0.000000e+00		0.000000e+00		0.000000e+00
0.000000e+00		0.000000e+00		0.000000e+00
0.000000e+00		0.000000e+00		0.000000e+00
0.000000e+00		0.000000e+00		0.000000e+00
0.000000e+00		0.000000e+00		0.000000e+00
0.000000e+00		0.000000e+00		0.000000e+00
0.000000e+00		0.000000e+00		0.000000e+00
0.000000e+00		0.000000e+00		0.000000e+00
0.000000e+00		0.000000e+00		0.000000e+00
0.000000e+00		0.000000e+00		0.000000e+00
0.000000e+00		0.000000e+00		0.000000e+00
0.000000e+00		0.000000e+00		0.000000e+00
0.000000e+00		0.000000e+00		0.000000e+00
0.000000e+00		0.000000e+00		0.000000e+00
0.000000e+00		0.000000e+00		0.000000e+00
0.000000e+00		0.000000e+00		0.000000e+00
0.000000e+00		0.000000e+00		0.000000e+00
0.000000e+00		0.000000e+00		0.000000e+00
0.000000e+00		0.000000e+00		0.000000e+00
0.000000e+00		0.000000e+00		0.000000e+00
0.000000e+00		0.000000e+00		0.000000e+00
0.000000e+00		0.000000e+00		0.000000e+00
0.000000e+00		0.000000e+00		0.000000e+00
0.000000e+00		0.000000e+00		0.000000e+00
0.000000e+00		0.000000e+00		0.000000e+00
0.000000e+00		0.000000e+00		0.000000e+00
0.000000e+00		0.000000e+00		0.000000e+00
0.000000e+00		0.000000e+00		0.000000e+00
0.000000e+00		0.000000e+00		0.000000e+00
0.000000e+00		0.000000e+00		0.000000e+00
0.000000e+00		0.000000e+00		0.000000e+00
0.000000e+00		0.000000e+00		0.000000e+00
0.000000e+00		0.000000e+00		0.000000e+00
0.000000e+00		0.000000e+00		0.000000e+00
0.000000e+00		0.000000e+00		0.000000e+00
0.000000e+00		0.000000e+00		0.000000e+00
0.000000e+00		0.000000e+00		0.000000e+00
0.000000e+00		0.000000e+00		0.000000e+00
0.000000e+00		0.000000e+00		0.000000e+00
0.000000e+00		0.000000e+00		0.000000e+00
0.000000e+00		0.000000e+00		0.000000e+00
0.000000e+00		0.000000e+00		0.000000e+00
0.000000e+00		0.000000e+00		0.000000e+00
0.000000e+00		0.000000e+00		0.000000e+00
0.000000e+00		0.000000e+00		0.000000e+00
0.000000e+00		0.000000e+00		0.000000e+00
0.000000e+00		0.000000e+00		0.000000e+00
0.000000e+00		0.000000e+00		0.000000e+00
0.000000e+00		0.000000e+00		0.000000e+00
0.000000e+00		0.000000e+00		0.000000e+00
0.000000e+00		0.000000e+00		0.000000e+00
0.000000e+00		0.000000e+00		0.000000e+00
0.000000e+00		0.000000e+00		0.000000e+00
0.000000e+00		0.000000e+00		0.000000e+00
0.000000e+00		0.000000e+00		0.000000e+00
0.000000e+00		0.000000e+00		0.000000e+00
0.000000e+00		0.000000e+00		0.000000e+00
0.000000e+00		0.000000e+00		0.000000e+00
0.000000e+00		0.000000e+00		0.000000e+00
0.000000e+00		0.000000e+00		0.000000e+00
0.000000e+00		0.000000e+00		0.000000e+00
0.000000e+00		0.000000e+00		0.000000e+00
0.000000e+00		0.000000e+00		0.000000e+00
0.000000e+00		0.000000e+00		0.000000e+00
0.000000e+00		0.000000e+00		0.000000e+00
0.000000e+00		0.000000e+00		0.000000e+00
0.000000e+00		0.000000e+00		0.000000e+00
0.000000e+00		0.000000e+00		0.000000e+00
0.000000e+00		0.000000e+00		0.000000e+00
0.000000e+00		0.000000e+00		0.000000e+00
0.000000e+00		0.000000e+00		0.000000e+00
0.000000e+00		0.000000e+00		0.000000e+00
0.000000e+00		0.000000e+00		0.000000e+00
0.000000e+00		0.000000e+00		0.000000e+00
0.000000e+00		0.000000e+00		0.000000e+00
0.000000e+00		0.000000e+00		0.000000e+00
0.000000e+00		0.000000e+00		0.000000e+00
0.000000e+00		0.000000e+00		0.000000e+00
0.000000e+00		0.000000e+00		0.000000e+00
0.000000e+00		0.000000e+00		0.000000e+00
0.000000e+00		0.000000e+00		0.000000e+00
0.000000e+00		0.000000e+00		0.000000e+00
0.000000e+00		0.000000e+00		0.000000e+00
0.000000e+00		0.000000e+00		0.000000e+00
0.000000e+00		0.000000e+00		0.000000e+00
0.000000e+00		0.000000e+00		0.000000e+00
0.000000e+00		0.000000e+00		0.000000e+00
0.000000e+00		0.000000e+00		0.000000e+00
0.000000e+00		0.000000e+00		0.000000e+00
0.000000e+00		0.000000e+00		0.000000e+00
0.000000e+00		0.000000e+00		0.000000e+00
0.000000e+00		0.000000e+00		0.000000e+00
0.000000e+00		0.000000e+00		0.000000e+00
0.000000e+00		0.000000e+00		0.000000e+00
0.000000e+00		0.000000e+00		0.000000e+00
0.000000e+00		0.000000e+00		0.000000e+00
0.000000e+00		0.000000e+00		0.000000e+00
0.000000e+00		0.000000e+00		0.000000e+00
0.000000e+00		0.000000e+00		0.000000e+00
0.000000e+00		0.000000e+00		0.000000e+00
0.000000e+00		0.000000e+00		0.000000e+00
0.000000e+00		0.000000e+00		0.000000e+00
0.000000e+00		0.000000e+00		0.000000e+00
0.000000e+00		0.000000e+00		0.000000e+00
0.000000e+00		0.000000e+00		0.000000e+00
0.000000e+00		0.000000e+00		0.000000e+00
0.000000e+00		0.000000e+00		0.000000e+00
0.000000e+00		0.000000e+00		0.000000e+00
0.000000e+00		0.000000e+00		0.000000e+00
0.000000e+00		0.000000e+00		0.000000e+00
0.000000e+00		0.000000e+00		0.000000e+00
0.000000e+00		0.000000e+00		0.000000e+00
0.000000e+00		0.000000e+00		0.000000e+00
0.000000e+00		0.000000e+00		0.000000e+00
0.000000e+00		0.000000e+00		0.000000e+00
0.000000e+00		0.000000e+00		0.000000e+00
0.000000e+00		0.000000e+00		0.000000e+00
0.000000e+00		0.000000e+00		0.000000e+00
0.000000e+00		0.000000e+00		0.000000e+00
0.000000e+00		0.000000e+00		0.000000e+00
0.000000e+00		0.000000e+00		0.000000e+00
0.000000e+00		0.000000e+00		0.000000e+00
0.000000e+00		0.000000e+00		0.000000e+00
0.000000e+00		0.000000e+00		0.000000e+00
0.000000e+00		0.000000e+00		0.000000e+00
TENSORS stress double
1.982855e+10		-5.526841e-05		9.507704e+09
-5.526841e-05		1.982855e+10		1.425327e+10
9.507704e+09		1.425327e+10		4.413451e+10
1.737529e+10		-1.425296e-05		1.132476e+10
-1.425296e-05		1.737529e+10		8.005119e+09
1.132476e+10		8.005119e+09		3.867402e+10
1.609538e+10		-2.699438e-05		1.244870e+10
-2.699438e-05		1.609538e+10		2.882994e+09
1.244870e+10		2.882994e+09		3.582521e+10
1.666608e+10		-2.060086e-05		1.299724e+10
-2.060086e-05		1.666608e+10		1.233976e+09
1.299724e+10		1.233976e+09		3.709548e+10
1.736116e+10		-8.016825e-06		1.317664e+10
-8.016825e-06		1.736116e+10		1.633763e-04
1.317664e+10		1.633763e-04		3.864259e+10
1.666608e+10		-1.372397e-05		1.299724e+10
-1.372397e-05		1.666608e+10		-1.233976e+09
1.299724e+10		-1.233976e+09		3.709548e+10
1.609538e+10		-1.523644e-06		1.244870e+10
-1.523644e-06		1.609538e+10		-2.882994e+09
1.244870e+10		-2.882994e+09		3.582521e+10
1.737529e+10		-1.540221e-05		1.132476e+10
-1.540221e-05		1.737529e+10		-8.005119e+09
1.132476e+10		-8.005119e+09		3.867402e+10
1.982855e+10		9.478256e-05		9.507704e+09
9.478256e-05		1.982855e+10		-1.425327e+10
9.507704e+09		-1.425327e+10		4.413451e+10
1.323881e+10		7.949769e-06		3.187260e+09
7.949769e-06		1.323881e+10		1.060566e+10
3.187260e+09		1.060566e+10		2.946703e+10
9.480577e+09		-8.474570e-06		6.109113e+09
-8.474570e-06		9.480577e+09		2.132042e+09
6.109113e+09		2.132042e+09		2.110193e+10
1.020607e+10		-1.310650e-05		6.538319e+09
-1.310650e-05		1.020607e+10		1.176391e-04
6.538319e+09		1.176391e-04		2.271674e+10
9.480577e+09		-1.696311e-05		6.109113e+09
-1.696311e-05		9.480577e+09		-2.132042e+09
6.109113e+09		-2.132042e+09		2.110193e+10
1.323881e+10		-1.420081e-05		3.187260e+09
-1.420081e-05		1.323881e+10		-1.060566e+10
3.187260e+09		-1.060566e+10		2.946703e+10
7.617683e+09		2.443790e-06		-1.590617e+09
2.443790e-06		7.617683e+09		7.003988e+09
-1.590617e+09		7.003988e+09		1.695549e+10
5.807516e+09		-8.434057e-06		4.989458e+08
-8.434057e-06		5.807516e+09		3.910174e+09
4.989458e+08		3.910174e+09		1.292641e+10
4.614208e+09		1.247972e-07		1.738279e+09
1.247972e-07		4.614208e+09		1.414637e+09
1.738279e+09		1.414637e+09		1.027033e+10
4.735005e+09		-2.872199e-06		1.960218e+09
-2.872199e-06		4.735005e+09		5.819406e+08
1.960218e+09		5.819406e+08		1.053920e+10
5.001333e+09		-2.928777e-06		1.920593e+09
-2.928777e-06		5.001333e+09		9.368267e-05
1.920593e+09		9.368267e-05		1.113200e+10
4.735005e+09		4.284084e-08		1.960218e+09
4.284084e-08		4.735005e+09		-5.819406e+08
1.960218e+09		-5.819406e+08		1.053920e+10
4.614208e+09		-4.382804e-06		1.738279e+09
-4.382804e-06		4.614208e+09		-1.414637e+09
1.738279e+09		-1.414637e+09		1.027033e+10
5.807516e+09		5.212612e-06		4.989458e+08
5.212612e-06		5.807516e+09		-3.910174e+09
4.989458e+08		-3.910174e+09		1.292641e+10
7.617683e+09		1.745299e-06		-1.590617e+09
1.745299e-06		7.617683e+09		-7.003988e+09
-1.590617e+09		-7.003988e+09		1.695549e+10
3.611583e+09		2.130866e-06		-2.029634e+09
2.130866e-06		3.611583e+09		3.551231e+09
-2.029634e+09		3.551231e+09		8.038684e+09
2.085509e+09		-4.643574e-06		1.300214e+09
-4.643574e-06		2.085509e+09		7.240979e+08
1.300214e+09		7.240979e+08		4.641940e+09
2.267537e+09		-4.467554e-06		1.503179e+09
-4.467554e-06		2.267537e+09		5.057128e-05
1.503179e+09		5.057128e-05		5.047099e+09
2.085509e+09		-6.217510e-06		1.300214e+09
-6.217510e-06		2.085509e+09		-7.240979e+08
1.300214e+09		-7.240979e+08		4.641940e+09
3.611583e+09		5.804002e-06		-2.029634e+09
5.804002e-06		3.611583e+09		-3.551231e+09
-2.029634e+09		-3.551231e+09		8.038684e+09
2.442375e-04		-1.572073e-06		-1.769455e+09
-1.572073e-06		2.473034e-04		1.938306e-04
-1.769455e+09		1.938306e-04		5.529523e-04
1.421794e-04		-2.510846e-06		4.235521e+08
-2.510846e-06		1.492351e-04		1.068916e-04
4.235521e+08		1.068916e-04		3.254116e-04
1.132526e-04		-6.665941e-07		1.594838e+09
-6.665941e-07		1.095757e-04		4.195736e-05
1.594838e+09		4.195736e-05		2.525300e-04
6.362051e-05		-4.282687e-06		1.854442e+09
-4.282687e-06		7.102266e-05		2.129353e-05
1.854442e+09		2.129353e-05		1.604706e-04
8.890405e-05		-1.801178e-06		1.882492e+09
-1.801178e-06		8.681603e-05		1.565157e-05
1.882492e+09		1.565157e-05		1.981705e-04
3.883988e-05		-3.244728e-06		1.854442e+09
-3.244728e-06		4.575774e-05		3.915280e-06
1.854442e+09		3.915280e-06		1.040101e-04
5.810149e-05		-2.276152e-06		1.594838e+09
-2.276152e-06		5.526608e-05		-7.601688e-06
1.594838e+09		-7.601688e-06		1.325235e-04
1.788698e-05		-5.025417e-06		4.235521e+08
-5.025417e-06		2.405886e-05		-1.216168e-05
4.235521e+08		-1.216168e-05		4.789233e-05
3.974512e-05		-7.733703e-06		-1.769455e+09
-7.733703e-06		3.291853e-05		-2.413150e-05
-1.769455e+09		-2.413150e-05		9.070337e-05
-3.611583e+09		-5.148351e-06		-2.029634e+09
-5.148351e-06		-3.611583e+09		-3.551231e+09
-2.029634e+09		-3.551231e+09		-8.038684e+09
-2.085509e+09		-7.513445e-06		1.300214e+09
-7.513445e-06		-2.085509e+09		-7.240979e+08
1.300214e+09		-7.240979e+08		-4.641940e+09
-2.267537e+09		-4.122499e-06		1.503179e+09
-4.122499e-06		-2.267537e+09		-2.521649e-05
1.503179e+09		-2.521649e-05		-5.047099e+09
-2.085509e+09		-2.428889e-06		1.300214e+09
-2.428889e-06		-2.085509e+09		7.240979e+08
1.300214e+09		7.240979e+08		-4.641940e+09
-3.611583e+09		7.085502e-06		-2.029634e+09
7.085502e-06		-3.611583e+09		3.551231e+09
-2.029634e+09		3.551231e+09		-8.038684e+09
-7.617683e+09		-2.506282e-05		-1.590617e+09
-2.506282e-05		-7.617683e+09		-7.003988e+09
-1.590617e+09		-7.003988e+09		-1.695549e+10
-5.807516e+09		4.940666e-06		4.989458e+08
4.940666e-06		-5.807516e+09		-3.910174e+09
4.989458e+08		-3.910174e+09		-1.292641e+10
-4.614208e+09		-2.925866e-06		1.738279e+09
-2.925866e-06		-4.614208e+09		-1.414637e+09
1.738279e+09		-1.414637e+09		-1.027033e+10
-4.735005e+09		-2.007000e-06		1.960218e+09
-2.007000e-06		-4.735005e+09		-5.819406e+08
1.960218e+09		-5.819406e+08		-1.053920e+10
-5.001333e+09		-3.477791e-06		1.920593e+09
-3.477791e-06		-5.001333e+09		-6.517395e-05
1.920593e+09		-6.517395e-05		-1.113200e+10
-4.735005e+09		-5.063601e-06		1.960218e+09
-5.063601e-06		-4.735005e+09		5.819406e+08
1.960218e+09		5.819406e+08		-1.053920e+10
-4.614208e+09		-3.352863e-06		1.738279e+09
-3.352863e-06		-4.614208e+09		1.414637e+09
1.738279e+09		1.414637e+09		-1.027033e+10
-5.807516e+09		-1.068390e-05		4.989458e+08
-1.068390e-05		-5.807516e+09		3.910174e+09
4.989458e+08		3.910174e+09		-1.292641e+10
-7.617683e+09		-7.126888e-06		-1.590617e+09
-7.126888e-06		-7.617683e+09		7.003988e+09
-1.590617e+09		7.003988e+09		-1.695549e+10
-1.323881e+10		-9.857118e-06		3.187260e+09
-9.857118e-06		-1.323881e+10		-1.060566e+10
3.187260e+09		-1.060566e+10		-2.946703e+10
-9.480577e+09		-1.488440e-05		6.109113e+09
-1.488440e-05		-9.480577e+09		-2.132042e+09
6.109113e+09		-2.132042e+09		-2.110193e+10
-1.020607e+10		-8.895528e-06		6.538319e+09
-8.895528e-06		-1.020607e+10		-9.957701e-05
6.538319e+09		-9.957701e-05		-2.271674e+10
-9.480577e+09		-1.981272e-06		6.109113e+09
-1.981272e-06		-9.480577e+09		2.132042e+09
6.109113e+09		2.132042e+09		-2.110193e+10
-1.323881e+10		-8.360366e-07		3.187260e+09
-8.360366e-07		-1.323881e+10		1.060566e+10
3.187260e+09		1.060566e+10		-2.946703e+10
-1.982855e+10		-7.248204e-05		9.507704e+09
-7.248204e-05		-1.982855e+10		-1.425327e+10
9.507704e+09		-1.425327e+10		-4.413451e+10
-1.737529e+10		2.342090e-05		1.132476e+10
2.342090e-05		-1.737529e+10		-8.005119e+09
1.132476e+10		-8.005119e+09		-3.867402e+10
-1.609538e+10		-3.921101e-06		1.244870e+10
-3.921101e-06		-1.609538e+10		-2.882994e+09
1.244870e+10		-2.882994e+09		-3.582521e+10
-1.666608e+10		2.630986e-06		1.299724e+10
2.630986e-06		-1.666608e+10		-1.233976e+09
1.299724e+10		-1.233976e+09		-3.709548e+10
-1.736116e+10		1.722155e-05		1.317664e+10
1.722155e-05		-1.736116e+10		-1.941137e-04
1.317664e+10		-1.941137e-04		-3.864259e+10
-1.666608e+10		-4.000962e-06		1.299724e+10
-4.000962e-06		-1.666608e+10		1.233976e+09
1.299724e+10		1.233976e+09		-3.709548e+10
-1.609538e+10		3.376708e-05		1.244870e+10
3.376708e-05		-1.609538e+10		2.882994e+09
1.244870e+10		2.882994e+09		-3.582521e+10
-1.737529e+10		-3.097428e-05		1.132476e+10
-3.097428e-05		-1.737529e+10		8.005119e+09
1.132476e+10		8.005119e+09		-3.867402e+10
-1.982855e+10		9.002048e-05		9.507704e+09
9.002048e-05		-1.982855e+10		1.425327e+10
9.507704e+09		1.425327e+10		-4.413451e+10
5.522716e+09		-5.637649e+08		3.015738e+09
-5.637649e+08		5.671664e+09		5.865282e+09
3.015738e+09		5.865282e+09		3.187625e+10
5.516959e+09		-2.141117e+07		5.393952e+09
-2.141117e+07		8.516471e+09		3.219753e+09
5.393952e+09		3.219753e+09		3.091540e+10
5.998012e+09		-1.557823e-05		5.627118e+09
-1.557823e-05		1.038314e+10		1.793504e-04
5.627118e+09		1.793504e-04		3.146299e+10
5.516959e+09		2.141117e+07		5.393952e+09
2.141117e+07		8.516471e+09		-3.219753e+09
5.393952e+09		-3.219753e+09		3.091540e+10
5.522716e+09		5.637649e+08		3.015738e+09
5.637649e+08		5.671664e+09		-5.865282e+09
3.015738e+09		-5.865282e+09		3.187625e+10
3.205159e+09		-4.524591e+08		6.905992e+08
-4.524591e+08		2.367328e+09		2.795110e+09
6.905992e+08		2.795110e+09		1.424930e+10
3.446112e+09		-2.065728e+08		3.902018e+09
-2.065728e+08		3.715200e+09		1.382144e+09
3.902018e+09		1.382144e+09		1.311672e+10
3.612888e+09		6.053597e-06		4.346080e+09
6.053597e-06		4.609487e+09		1.159385e-04
4.346080e+09		1.159385e-04		1.311269e+10
3.446112e+09		2.065728e+08		3.902018e+09
2.065728e+08		3.715200e+09		-1.382144e+09
3.902018e+09		-1.382144e+09		1.311672e+10
3.205159e+09		4.524591e+08		6.905992e+08
4.524591e+08		2.367328e+09		-2.795110e+09
6.905992e+08		-2.795110e+09		1.424930e+10
1.470447e-04		-4.772170e+08		2.435753e+08
-4.772170e+08		8.693337e-05		6.252341e-05
2.435753e+08		6.252341e-05		4.069656e-04
9.715557e-05		-3.485559e+08		3.567178e+09
-3.485559e+08		7.687509e-05		5.797727e-05
3.567178e+09		5.797727e-05		2.648681e-04
6.973743e-05		-1.521781e-06		3.956382e+09
-1.521781e-06		6.414950e-05		2.693804e-05
3.956382e+09		2.693804e-05		1.749694e-04
3.761053e-05		3.485559e+08		3.567178e+09
3.485559e+08		3.523380e-05		4.885253e-06
3.567178e+09		4.885253e-06		1.052022e-04
3.844500e-06		4.772170e+08		2.435753e+08
4.772170e+08		8.910894e-06		1.335517e-06
2.435753e+08		1.335517e-06		4.208088e-05
-3.205159e+09		-4.524591e+08		6.905992e+08
-4.524591e+08		-2.367328e+09		-2.795110e+09
6.905992e+08		-2.795110e+09		-1.424930e+10
-3.446112e+09		-2.065728e+08		3.902018e+09
-2.065728e+08		-3.715200e+09		-1.382144e+09
3.902018e+09		-1.382144e+09		-1.311672e+10
-3.612888e+09		6.567687e-06		4.346080e+09
6.567687e-06		-4.609487e+09		-5.635619e-05
4.346080e+09		-5.635619e-05		-1.311269e+10
-3.446112e+09		2.065728e+08		3.902018e+09
2.065728e+08		-3.715200e+09		1.382144e+09
3.902018e+09		1.382144e+09		-1.311672e+10
-3.205159e+09		4.524591e+08		6.905992e+08
4.524591e+08		-2.367328e+09		2.795110e+09
6.905992e+08		2.795110e+09		-1.424930e+10
-5.522716e+09		-5.637649e+08		3.015738e+09
-5.637649e+08		-5.671664e+09		-5.865282e+09
3.015738e+09		-5.865282e+09		-3.187625e+10
-5.516959e+09		-2.141117e+07		5.393952e+09
-2.141117e+07		-8.516471e+09		-3.219753e+09
5.393952e+09		-3.219753e+09		-3.091540e+10
-5.998012e+09		2.367143e-05		5.627118e+09
2.367143e-05		-1.038314e+10		-2.010465e-04
5.627118e+09		-2.010465e-04		-3.146299e+10
-5.516959e+09		2.141117e+07		5.393952e+09
2.141117e+07		-8.516471e+09		3.219753e+09
5.393952e+09		3.219753e+09		-3.091540e+10
-5.522716e+09		5.637649e+08		3.015738e+09
5.637649e+08		-5.671664e+09		5.865282e+09
3.015738e+09		5.865282e+09		-3.187625e+10
-2.085232e+09		3.283319e+08		-1.627790e+09
3.283319e+08		-1.970407e+09		-7.156574e+08
-1.627790e+09		-7.156574e+08		2.280041e+10
-1.136261e+09		3.892859e+08		-7.820599e+08
3.892859e+08		1.542932e+09		1.662213e+09
-7.820599e+08		1.662213e+09		2.502757e+10
-8.924265e+08		-6.424945e+07		-8.542000e+08
-6.424945e+07		4.049369e+09		3.178250e+09
-8.542000e+08		3.178250e+09		2.655609e+10
-1.374029e+09		-8.713675e+06		-6.357199e+08
-8.713675e+06		4.018863e+09		1.215325e+09
-6.357199e+08		1.215325e+09		2.577692e+10
-1.318299e+09		-2.129935e-05		-6.759185e+08
-2.129935e-05		4.869918e+09		1.650229e-04
-6.759185e+08		1.650229e-04		2.545986e+10
-1.374029e+09		8.713675e+06		-6.357199e+08
8.713675e+06		4.018863e+09		-1.215325e+09
-6.357199e+08		-1.215325e+09		2.577692e+10
-8.924265e+08		6.424945e+07		-8.542000e+08
6.424945e+07		4.049369e+09		-3.178250e+09
-8.542000e+08		-3.178250e+09		2.655609e+10
-1.136261e+09		-3.892859e+08		-7.820599e+08
-3.892859e+08		1.542932e+09		-1.662213e+09
-7.820599e+08		-1.662213e+09		2.502757e+10
-2.085232e+09		-3.283319e+08		-1.627790e+09
-3.283319e+08		-1.970407e+09		7.156574e+08
-1.627790e+09		7.156574e+08		2.280041e+10
-1.936224e+07		2.305315e+07		6.755187e+08
2.305315e+07		-1.078930e+09		-1.032249e+09
6.755187e+08		-1.032249e+09		1.739828e+10
1.786964e+09		-4.333925e+08		2.491742e+09
-4.333925e+08		4.039650e+09		1.998005e+09
2.491742e+09		1.998005e+09		2.094685e+10
1.545680e+09		-3.688037e-07		3.016379e+09
-3.688037e-07		4.794902e+09		1.354311e-04
3.016379e+09		1.354311e-04		2.013586e+10
1.786964e+09		4.333925e+08		2.491742e+09
4.333925e+08		4.039650e+09		-1.998005e+09
2.491742e+09		-1.998005e+09		2.094685e+10
-1.936224e+07		-2.305315e+07		6.755187e+08
-2.305315e+07		-1.078930e+09		1.032249e+09
6.755187e+08		1.032249e+09		1.739828e+10
1.235417e+09		-1.359549e+08		2.845057e+09
-1.359549e+08		-4.095906e+08		-5.314500e+08
2.845057e+09		-5.314500e+08		1.213558e+10
2.656169e+09		-2.663709e+08		4.602690e+09
-2.663709e+08		1.959401e+09		6.173662e+08
4.602690e+09		6.173662e+08		1.402266e+10
3.551043e+09		-6.484759e+08		5.364906e+09
-6.484759e+08		3.739057e+09		1.335458e+09
5.364906e+09		1.335458e+09		1.539782e+10
3.335583e+09		-1.290746e+08		5.896836e+09
-1.290746e+08		3.845801e+09		5.007594e+08
5.896836e+09		5.007594e+08		1.500437e+10
3.417034e+09		-2.966728e-06		6.162150e+09
-2.966728e-06		4.394779e+09		1.208968e-04
6.162150e+09		1.208968e-04		1.487728e+10
3.335583e+09		1.290746e+08		5.896836e+09
1.290746e+08		3.845801e+09		-5.007594e+08
5.896836e+09		-5.007594e+08		1.500437e+10
3.551043e+09		6.484759e+08		5.364906e+09
6.484759e+08		3.739057e+09		-1.335458e+09
5.364906e+09		-1.335458e+09		1.539782e+10
2.656169e+09		2.663709e+08		4.602690e+09
2.663709e+08		1.959401e+09		-6.173662e+08
4.602690e+09		-6.173662e+08		1.402266e+10
1.235417e+09		1.359549e+08		2.845057e+09
1.359549e+08		-4.095906e+08		5.314500e+08
2.845057e+09		5.314500e+08		1.213558e+10
-4.394308e+07		-3.777661e+08		2.343404e+09
-3.777661e+08		-5.774200e+08		-2.616135e+08
2.343404e+09		-2.616135e+08		5.644993e+09
1.152091e+09		-8.765319e+08		4.564812e+09
-8.765319e+08		1.522014e+09		6.613558e+08
4.564812e+09		6.613558e+08		7.290501e+09
1.067293e+09		4.526228e-07		5.227407e+09
4.526228e-07		1.848307e+09		7.407647e-05
5.227407e+09		7.407647e-05		7.014566e+09
1.152091e+09		8.765319e+08		4.564812e+09
8.765319e+08		1.522014e+09		-6.613558e+08
4.564812e+09		-6.613558e+08		7.290501e+09
-4.394308e+07		3.777661e+08		2.343404e+09
3.777661e+08		-5.774200e+08		2.616135e+08
2.343404e+09		2.616135e+08		5.644993e+09
8.799881e-05		-3.718356e+08		2.555082e+09
-3.718356e+08		-1.490116e-08		-2.680381e-05
2.555082e+09		-2.680381e-05		3.024116e-04
8.031726e-05		-5.857259e+08		4.287394e+09
-5.857259e+08		3.488921e-05		4.074280e-05
4.287394e+09		4.074280e-05		2.922937e-04
9.321608e-05		-1.011982e+09		4.907442e+09
-1.011982e+09		6.457698e-05		7.284794e-05
4.907442e+09		7.284794e-05		2.946891e-04
7.160380e-05		-2.701249e+08		5.394696e+09
-2.701249e+08		4.818290e-05		4.535451e-05
5.394696e+09		4.535451e-05		2.327040e-04
6.377697e-05		-1.056306e-05		5.553131e+09
-1.056306e-05		4.561245e-05		3.564763e-05
5.553131e+09		3.564763e-05		1.890212e-04
5.980209e-05		2.701249e+08		5.394696e+09
2.701249e+08		4.185922e-05		1.962262e-05
5.394696e+09		1.962262e-05		1.583174e-04
3.058277e-05		1.011982e+09		4.907442e+09
1.011982e+09		1.848768e-05		1.568127e-05
4.907442e+09		1.568127e-05		1.002625e-04
1.424551e-05		5.857259e+08		4.287394e+09
5.857259e+08		1.171045e-05		6.251968e-06
4.287394e+09		6.251968e-06		7.509813e-05
-3.693812e-05		3.718356e+08		2.555082e+09
3.718356e+08		-1.257751e-05		2.645957e-05
2.555082e+09		2.645957e-05		3.710389e-05
4.394308e+07		-3.777661e+08		2.343404e+09
-3.777661e+08		5.774200e+08		2.616135e+08
2.343404e+09		2.616135e+08		-5.644993e+09
-1.152091e+09		-8.765319e+08		4.564812e+09
-8.765319e+08		-1.522014e+09		-6.613558e+08
4.564812e+09		-6.613558e+08		-7.290501e+09
-1.067293e+09		3.717840e-06		5.227407e+09
3.717840e-06		-1.848307e+09		-9.969808e-06
5.227407e+09		-9.969808e-06		-7.014566e+09
-1.152091e+09		8.765319e+08		4.564812e+09
8.765319e+08		-1.522014e+09		6.613558e+08
4.564812e+09		6.613558e+08		-7.290501e+09
4.394308e+07		3.777661e+08		2.343404e+09
3.777661e+08		5.774200e+08		-2.616135e+08
2.343404e+09		-2.616135e+08		-5.644993e+09
-1.235417e+09		-1.359549e+08		2.845057e+09
-1.359549e+08		4.095906e+08		5.314500e+08
2.845057e+09		5.314500e+08		-1.213558e+10
-2.656169e+09		-2.663709e+08		4.602690e+09
-2.663709e+08		-1.959401e+09		-6.173662e+08
4.602690e+09		-6.173662e+08		-1.402266e+10
-3.551043e+09		-6.484759e+08		5.364906e+09
-6.484759e+08		-3.739057e+09		-1.335458e+09
5.364906e+09		-1.335458e+09		-1.539782e+10
-3.335583e+09		-1.290746e+08		5.896836e+09
-1.290746e+08		-3.845801e+09		-5.007594e+08
5.896836e+09		-5.007594e+08		-1.500437e+10
-3.417034e+09		-6.011687e-06		6.162150e+09
-6.011687e-06		-4.394779e+09		-3.275834e-05
6.162150e+09		-3.275834e-05		-1.487728e+10
-3.335583e+09		1.290746e+08		5.896836e+09
1.290746e+08		-3.845801e+09		5.007594e+08
5.896836e+09		5.007594e+08		-1.500437e+10
-3.551043e+09		6.484759e+08		5.364906e+09
6.484759e+08		-3.739057e+09		1.335458e+09
5.364906e+09		1.335458e+09		-1.539782e+10
-2.656169e+09		2.663709e+08		4.602690e+09
2.663709e+08		-1.959401e+09		6.173662e+08
4.602690e+09		6.173662e+08		-1.402266e+10
-1.235417e+09		1.359549e+08		2.845057e+09
1.359549e+08		4.095906e+08		-5.314500e+08
2.845057e+09		-5.314500e+08		-1.213558e+10
1.936224e+07		2.305315e+07		6.755187e+08
2.305315e+07		1.078930e+09		1.032249e+09
6.755187e+08		1.032249e+09		-1.739828e+10
-1.786964e+09		-4.333925e+08		2.491742e+09
-4.333925e+08		-4.039650e+09		-1.998005e+09
2.491742e+09		-1.998005e+09		-2.094685e+10
-1.545680e+09		1.199543e-06		3.016379e+09
1.199543e-06		-4.794902e+09		-1.019635e-04
3.016379e+09		-1.019635e-04		-2.013586e+10
-1.786964e+09		4.333925e+08		2.491742e+09
4.333925e+08		-4.039650e+09		1.998005e+09
2.491742e+09		1.998005e+09		-2.094685e+10
1.936224e+07		-2.305315e+07		6.755187e+08
-2.305315e+07		1.078930e+09		-1.032249e+09
6.755187e+08		-1.032249e+09		-1.739828e+10
2.085232e+09		3.283319e+08		-1.627790e+09
3.283319e+08		1.970407e+09		7.156574e+08
-1.627790e+09		7.156574e+08		-2.280041e+10
1.136261e+09		3.892859e+08		-7.820599e+08
3.892859e+08		-1.542932e+09		-1.662213e+09
-7.820599e+08		-1.662213e+09		-2.502757e+10
8.924265e+08		-6.424945e+07		-8.542000e+08
-6.424945e+07		-4.049369e+09		-3.178250e+09
-8.542000e+08		-3.178250e+09		-2.655609e+10
1.374029e+09		-8.713675e+06		-6.357199e+08
-8.713675e+06		-4.018863e+09		-1.215325e+09
-6.357199e+08		-1.215325e+09		-2.577692e+10
1.318299e+09		1.950096e-05		-6.759185e+08
1.950096e-05		-4.869918e+09		-1.943111e-04
-6.759185e+08		-1.943111e-04		-2.545986e+10
1.374029e+09		8.713675e+06		-6.357199e+08
8.713675e+06		-4.018863e+09		1.215325e+09
-6.357199e+08		1.215325e+09		-2.577692e+10
8.924265e+08		6.424945e+07		-8.542000e+08
6.424945e+07		-4.049369e+09		3.178250e+09
-8.542000e+08		3.178250e+09		-2.655609e+10
1.136261e+09		-3.892859e+08		-7.820599e+08
-3.892859e+08		-1.542932e+09		1.662213e+09
-7.820599e+08		1.662213e+09		-2.502757e+10
2.085232e+09		-3.283319e+08		-1.627790e+09
-3.283319e+08		1.970407e+09		-7.156574e+08
-1.627790e+09		-7.156574e+08		-2.280041e+10
-1.999905e+09		2.482249e+08		-9.177045e+08
2.482249e+08		-2.073002e+09		-5.841934e+08
-9.177045e+08		-5.841934e+08		1.932860e+10
-1.779114e+09		7.467092e+07		-9.802942e+08
7.467092e+07		1.112523e+09		1.118811e+09
-9.802942e+08		1.118811e+09		2.178673e+10
-1.624911e+09		-3.127754e-05		-9.537944e+08
-3.127754e-05		2.577118e+09		2.224669e-04
-9.537944e+08		2.224669e-04		2.228076e+10
-1.779114e+09		-7.467092e+07		-9.802942e+08
-7.467092e+07		1.112523e+09		-1.118811e+09
-9.802942e+08		-1.118811e+09		2.178673e+10
-1.999905e+09		-2.482249e+08		-9.177045e+08
-2.482249e+08		-2.073002e+09		5.841934e+08
-9.177045e+08		5.841934e+08		1.932860e+10
-5.347785e+08		-2.890368e+08		2.642202e+09
-2.890368e+08		-1.036381e+09		-6.617677e+08
2.642202e+09		-6.617677e+08		9.706473e+09
8.083521e+08		-6.231438e+08		4.233930e+09
-6.231438e+08		1.291485e+09		2.812321e+08
4.233930e+09		2.812321e+08		1.218347e+10
9.737548e+08		-5.653128e-06		4.648769e+09
-5.653128e-06		2.292794e+09		1.061787e-04
4.648769e+09		1.061787e-04		1.268558e+10
8.083521e+08		6.231438e+08		4.233930e+09
6.231438e+08		1.291485e+09		-2.812321e+08
4.233930e+09		-2.812321e+08		1.218347e+10
-5.347785e+08		2.890368e+08		2.642202e+09
2.890368e+08		-1.036381e+09		6.617677e+08
2.642202e+09		6.617677e+08		9.706473e+09
1.227856e-05		-4.757915e+08		3.911697e+09
-4.757915e+08		-3.156811e-05		-3.688107e-05
3.911697e+09		-3.688107e-05		2.380610e-04
6.199256e-05		-1.028700e+09		5.456756e+09
-1.028700e+09		3.487989e-05		4.087438e-05
5.456756e+09		4.087438e-05		2.453476e-04
5.089026e-05		-2.539530e-05		5.949007e+09
-2.539530e-05		8.942559e-06		4.573607e-05
5.949007e+09		4.573607e-05		1.826733e-04
-2.332963e-05		1.028700e+09		5.456756e+09
1.028700e+09		-2.478249e-06		1.556446e-05
5.456756e+09		1.556446e-05		9.202957e-05
9.760261e-06		4.757915e+08		3.911697e+09
4.757915e+08		-5.282462e-06		1.200382e-05
3.911697e+09		1.200382e-05		5.000830e-05
5.347785e+08		-2.890368e+08		2.642202e+09
-2.890368e+08		1.036381e+09		6.617677e+08
2.642202e+09		6.617677e+08		-9.706473e+09
-8.083521e+08		-6.231438e+08		4.233930e+09
-6.231438e+08		-1.291485e+09		-2.812321e+08
4.233930e+09		-2.812321e+08		-1.218347e+10
-9.737548e+08		-2.738927e-05		4.648769e+09
-2.738927e-05		-2.292794e+09		-4.751561e-05
4.648769e+09		-4.751561e-05		-1.268558e+10
-8.083521e+08		6.231438e+08		4.233930e+09
6.231438e+08		-1.291485e+09		2.812321e+08
4.233930e+09		2.812321e+08		-1.218347e+10
5.347785e+08		2.890368e+08		2.642202e+09
2.890368e+08		1.036381e+09		-6.617677e+08
2.642202e+09		-6.617677e+08		-9.706473e+09
1.999905e+09		2.482249e+08		-9.177045e+08
2.482249e+08		2.073002e+09		5.841934e+08
-9.177045e+08		5.841934e+08		-1.932860e+10
1.779114e+09		7.467092e+07		-9.802942e+08
7.467092e+07		-1.112523e+09		-1.118811e+09
-9.802942e+08		-1.118811e+09		-2.178673e+10
1.624911e+09		-1.547486e-05		-9.537944e+08
-1.547486e-05		-2.577118e+09		-1.523606e-04
-9.537944e+08		-1.523606e-04		-2.228076e+10
1.779114e+09		-7.467092e+07		-9.802942e+08
-7.467092e+07		-1.112523e+09		1.118811e+09
-9.802942e+08		1.118811e+09		-2.178673e+10
1.999905e+09		-2.482249e+08		-9.177045e+08
-2.482249e+08		2.073002e+09		-5.841934e+08
-9.177045e+08		-5.841934e+08		-1.932860e+10
1.612847e+08		1.367985e+08		-9.114824e+05
1.367985e+08		8.105996e+07		-3.876623e+08
-9.114824e+05		-3.876623e+08		1.877953e+10
4.517309e+08		1.201650e+08		-8.715549e+07
1.201650e+08		5.407797e+08		-9.323592e+07
-8.715549e+07		-9.323592e+07		2.057525e+10
1.430915e+08		8.575279e+07		-1.207919e+08
8.575279e+07		8.507407e+08		-5.612568e+07
-1.207919e+08		-5.612568e+07		2.092026e+10
2.627521e+08		4.486688e+07		-1.321868e+08
4.486688e+07		1.798882e+09		1.641878e+08
-1.321868e+08		1.641878e+08		2.126575e+10
2.728707e+08		-2.456084e-05		-1.920299e+08
-2.456084e-05		2.130230e+09		2.554059e-04
-1.920299e+08		2.554059e-04		2.129782e+10
2.627521e+08		-4.486688e+07		-1.321868e+08
-4.486688e+07		1.798882e+09		-1.641878e+08
-1.321868e+08		-1.641878e+08		2.126575e+10
1.430915e+08		-8.575279e+07		-1.207919e+08
-8.575279e+07		8.507407e+08		5.612568e+07
-1.207919e+08		5.612568e+07		2.092026e+10
4.517309e+08		-1.201650e+08		-8.715549e+07
-1.201650e+08		5.407797e+08		9.323592e+07
-8.715549e+07		9.323592e+07		2.057525e+10
1.612847e+08		-1.367985e+08		-9.114824e+05
-1.367985e+08		8.105996e+07		3.876623e+08
-9.114824e+05		3.876623e+08		1.877953e+10
-4.016887e+08		-8.227762e+07		1.890140e+09
-8.227762e+07		-2.411492e+07		-3.125805e+08
1.890140e+09		-3.125805e+08		1.419337e+10
3.781173e+07		-2.322520e+08		2.112960e+09
-2.322520e+08		8.457556e+08		-1.374832e+08
2.112960e+09		-1.374832e+08		1.668974e+10
2.033138e+08		5.895272e-06		2.238446e+09
5.895272e-06		1.975636e+09		1.719519e-04
2.238446e+09		1.719519e-04		1.727805e+10
3.781173e+07		2.322520e+08		2.112960e+09
2.322520e+08		8.457556e+08		1.374832e+08
2.112960e+09		1.374832e+08		1.668974e+10
-4.016887e+08		8.227762e+07		1.890140e+09
8.227762e+07		-2.411492e+07		3.125805e+08
1.890140e+09		3.125805e+08		1.419337e+10
-7.755313e+08		-1.819389e+08		3.590780e+09
-1.819389e+08		-8.374514e+07		-2.886555e+08
3.590780e+09		-2.886555e+08		9.536697e+09
-2.774518e+08		-3.845868e+08		3.709503e+09
-3.845868e+08		2.465095e+08		-2.117867e+08
3.709503e+09		-2.117867e+08		1.086341e+10
-2.063737e+08		-5.183453e+08		4.037175e+09
-5.183453e+08		4.697430e+08		-2.386532e+08
4.037175e+09		-2.386532e+08		1.139415e+10
-1.046569e+08		-2.375689e+08		4.237513e+09
-2.375689e+08		1.096077e+09		2.164836e+07
4.237513e+09		2.164836e+07		1.180365e+10
-8.883963e+07		1.621433e-05		4.331969e+09
1.621433e-05		1.338805e+09		9.132875e-05
4.331969e+09		9.132875e-05		1.193936e+10
-1.046569e+08		2.375689e+08		4.237513e+09
2.375689e+08		1.096077e+09		-2.164836e+07
4.237513e+09		-2.164836e+07		1.180365e+10
-2.063737e+08		5.183453e+08		4.037175e+09
5.183453e+08		4.697430e+08		2.386532e+08
4.037175e+09		2.386532e+08		1.139415e+10
-2.774518e+08		3.845868e+08		3.709503e+09
3.845868e+08		2.465095e+08		2.117867e+08
3.709503e+09		2.117867e+08		1.086341e+10
-7.755313e+08		1.819389e+08		3.590780e+09
1.819389e+08		-8.374514e+07		2.886555e+08
3.590780e+09		2.886555e+08		9.536697e+09
-3.024817e+08		-2.500331e+08		4.528083e+09
-2.500331e+08		-2.854274e+07		-1.689791e+08
4.528083e+09		-1.689791e+08		4.850736e+09
1.545795e+08		-7.731942e+08		5.022521e+09
-7.731942e+08		3.408848e+08		-1.303858e+08
5.022521e+09		-1.303858e+08		5.888796e+09
2.914734e+08		1.993030e-05		5.377781e+09
1.993030e-05		8.195324e+08		9.166542e-05
5.377781e+09		9.166542e-05		6.208420e+09
1.545795e+08		7.731942e+08		5.022521e+09
7.731942e+08		3.408848e+08		1.303858e+08
5.022521e+09		1.303858e+08		5.888796e+09
-3.024817e+08		2.500331e+08		4.528083e+09
2.500331e+08		-2.854274e+07		1.689791e+08
4.528083e+09		1.689791e+08		4.850736e+09
4.706159e-05		-2.825988e+08		5.130487e+09
-2.825988e+08		1.891144e-05		-3.151724e-05
5.130487e+09		-3.151724e-05		2.568811e-04
3.163144e-05		-7.013943e+08		5.179598e+09
-7.013943e+08		1.005270e-05		2.213684e-05
5.179598e+09		2.213684e-05		2.453513e-04
3.675930e-05		-9.447715e+08		5.607562e+09
-9.447715e+08		2.399948e-05		3.567521e-05
5.607562e+09		3.567521e-05		2.151635e-04
5.202368e-05		-4.163372e+08		5.886251e+09
-4.163372e+08		1.654495e-05		4.476065e-05
5.886251e+09		4.476065e-05		2.158545e-04
8.344650e-05		2.401322e-05		6.022986e+09
2.401322e-05		-2.374873e-07		6.837343e-05
6.022986e+09		6.837343e-05		2.117231e-04
4.513189e-06		4.163372e+08		5.886251e+09
4.163372e+08		-6.388873e-07		3.273366e-05
5.886251e+09		3.273366e-05		1.647472e-04
2.868474e-06		9.447715e+08		5.607562e+09
9.447715e+08		2.143718e-05		1.443954e-05
5.607562e+09		1.443954e-05		1.497213e-04
2.414361e-05		7.013943e+08		5.179598e+09
7.013943e+08		9.791926e-06		1.912995e-05
5.179598e+09		1.912995e-05		1.090355e-04
5.496666e-05		2.825988e+08		5.130487e+09
2.825988e+08		3.147870e-07		2.938090e-06
5.130487e+09		2.938090e-06		8.619577e-05
3.024817e+08		-2.500331e+08		4.528083e+09
-2.500331e+08		2.854274e+07		1.689791e+08
4.528083e+09		1.689791e+08		-4.850736e+09
-1.545795e+08		-7.731942e+08		5.022521e+09
-7.731942e+08		-3.408848e+08		1.303858e+08
5.022521e+09		1.303858e+08		-5.888796e+09
-2.914734e+08		-6.094575e-06		5.377781e+09
-6.094575e-06		-8.195324e+08		2.577342e-05
5.377781e+09		2.577342e-05		-6.208420e+09
-1.545795e+08		7.731942e+08		5.022521e+09
7.731942e+08		-3.408848e+08		-1.303858e+08
5.022521e+09		-1.303858e+08		-5.888796e+09
3.024817e+08		2.500331e+08		4.528083e+09
2.500331e+08		2.854274e+07		-1.689791e+08
4.528083e+09		-1.689791e+08		-4.850736e+09
7.755313e+08		-1.819389e+08		3.590780e+09
-1.819389e+08		8.374514e+07		2.886555e+08
3.590780e+09		2.886555e+08		-9.536697e+09
2.774518e+08		-3.845868e+08		3.709503e+09
-3.845868e+08		-2.465095e+08		2.117867e+08
3.709503e+09		2.117867e+08		-1.086341e+10
2.063737e+08		-5.183453e+08		4.037175e+09
-5.183453e+08		-4.697430e+08		2.386532e+08
4.037175e+09		2.386532e+08		-1.139415e+10
1.046569e+08		-2.375689e+08		4.237513e+09
-2.375689e+08		-1.096077e+09		-2.164836e+07
4.237513e+09		-2.164836e+07		-1.180365e+10
8.883963e+07		-9.931624e-06		4.331969e+09
-9.931624e-06		-1.338805e+09		-4.602177e-05
4.331969e+09		-4.602177e-05		-1.193936e+10
1.046569e+08		2.375689e+08		4.237513e+09
2.375689e+08		-1.096077e+09		2.164836e+07
4.237513e+09		2.164836e+07		-1.180365e+10
2.063737e+08		5.183453e+08		4.037175e+09
5.183453e+08		-4.697430e+08		-2.386532e+08
4.037175e+09		-2.386532e+08		-1.139415e+10
2.774518e+08		3.845868e+08		3.709503e+09
3.845868e+08		-2.465095e+08		-2.117867e+08
3.709503e+09		-2.117867e+08		-1.086341e+10
7.755313e+08		1.819389e+08		3.590780e+09
1.819389e+08		8.374514e+07		-2.886555e+08
3.590780e+09		-2.886555e+08		-9.536697e+09
4.016887e+08		-8.227762e+07		1.890140e+09
-8.227762e+07		2.411492e+07		3.125805e+08
1.890140e+09		3.125805e+08		-1.419337e+10
-3.781173e+07		-2.322520e+08		2.112960e+09
-2.322520e+08		-8.457556e+08		1.374832e+08
2.112960e+09		1.374832e+08		-1.668974e+10
-2.033138e+08		7.485971e-06		2.238446e+09
7.485971e-06		-1.975636e+09		-1.039468e-04
2.238446e+09		-1.039468e-04		-1.727805e+10
-3.781173e+07		2.322520e+08		2.112960e+09
2.322520e+08		-8.457556e+08		-1.374832e+08
2.112960e+09		-1.374832e+08		-1.668974e+10
4.016887e+08		8.227762e+07		1.890140e+09
8.227762e+07		2.411492e+07		-3.125805e+08
1.890140e+09		-3.125805e+08		-1.419337e+10
-1.612847e+08		1.367985e+08		-9.114824e+05
1.367985e+08		-8.105996e+07		3.876623e+08
-9.114824e+05		3.876623e+08		-1.877953e+10
-4.517309e+08		1.201650e+08		-8.715549e+07
1.201650e+08		-5.407797e+08		9.323592e+07
-8.715549e+07		9.323592e+07		-2.057525e+10
-1.430915e+08		8.575279e+07		-1.207919e+08
8.575279e+07		-8.507407e+08		5.612568e+07
-1.207919e+08		5.612568e+07		-2.092026e+10
-2.627521e+08		4.486688e+07		-1.321868e+08
4.486688e+07		-1.798882e+09		-1.641878e+08
-1.321868e+08		-1.641878e+08		-2.126575e+10
-2.728707e+08		2.468005e-06		-1.920299e+08
2.468005e-06		-2.130230e+09		-2.046097e-04
-1.920299e+08		-2.046097e-04		-2.129782e+10
-2.627521e+08		-4.486688e+07		-1.321868e+08
-4.486688e+07		-1.798882e+09		1.641878e+08
-1.321868e+08		1.641878e+08		-2.126575e+10
-1.430915e+08		-8.575279e+07		-1.207919e+08
-8.575279e+07		-8.507407e+08		-5.612568e+07
-1.207919e+08		-5.612568e+07		-2.092026e+10
-4.517309e+08		-1.201650e+08		-8.715549e+07
-1.201650e+08		-5.407797e+08		-9.323592e+07
-8.715549e+07		-9.323592e+07		-2.057525e+10
-1.612847e+08		-1.367985e+08		-9.114824e+05
-1.367985e+08		-8.105996e+07		-3.876623e+08
-9.114824e+05		-3.876623e+08		-1.877953e+10
1.868641e+08		1.669816e+07		3.292490e+08
1.669816e+07		1.369169e+08		-1.318305e+08
3.292490e+08		-1.318305e+08		1.810529e+10
1.892729e+08		2.345663e+07		1.796809e+08
2.345663e+07		7.131587e+08		-3.935542e+08
1.796809e+08		-3.935542e+08		1.949176e+10
2.146788e+08		-4.101917e-05		1.659539e+08
-4.101917e-05		1.470240e+09		2.220795e-04
1.659539e+08		2.220795e-04		1.983977e+10
1.892729e+08		-2.345663e+07		1.796809e+08
-2.345663e+07		7.131587e+08		3.935542e+08
1.796809e+08		3.935542e+08		1.949176e+10
1.868641e+08		-1.669816e+07		3.292490e+08
-1.669816e+07		1.369169e+08		1.318305e+08
3.292490e+08		1.318305e+08		1.810529e+10
-4.285207e+08		-1.131019e+08		4.026956e+09
-1.131019e+08		6.691499e+07		4.632365e+06
4.026956e+09		4.632365e+06		9.084319e+09
-1.605416e+08		-4.485842e+08		3.798016e+09
-4.485842e+08		2.989303e+08		-2.459444e+08
3.798016e+09		-2.459444e+08		1.011630e+10
-1.482765e+08		6.302260e-05		3.948672e+09
6.302260e-05		7.540951e+08		1.410507e-04
3.948672e+09		1.410507e-04		1.046823e+10
-1.605416e+08		4.485842e+08		3.798016e+09
4.485842e+08		2.989303e+08		2.459444e+08
3.798016e+09		2.459444e+08		1.011630e+10
-4.285207e+08		1.131019e+08		4.026956e+09
1.131019e+08		6.691499e+07		-4.632365e+06
4.026956e+09		-4.632365e+06		9.084319e+09
5.736947e-06		-1.721267e+08		5.512647e+09
-1.721267e+08		1.319498e-05		-7.874332e-06
5.512647e+09		-7.874332e-06		2.426282e-04
3.978983e-05		-7.754554e+08		5.278348e+09
-7.754554e+08		1.311582e-05		4.889292e-05
5.278348e+09		4.889292e-05		1.984648e-04
3.231876e-05		1.838524e-05		5.504772e+09
1.838524e-05		-2.070889e-05		6.636209e-05
5.504772e+09		6.636209e-05		1.924597e-04
5.016476e-05		7.754554e+08		5.278348e+09
7.754554e+08		5.891547e-06		2.600520e-05
5.278348e+09		2.600520e-05		1.390614e-04
-3.884733e-05		1.721267e+08		5.512647e+09
1.721267e+08		-2.606213e-05		1.541246e-05
5.512647e+09		1.541246e-05		3.761053e-05
4.285207e+08		-1.131019e+08		4.026956e+09
-1.131019e+08		-6.691499e+07		-4.632365e+06
4.026956e+09		-4.632365e+06		-9.084319e+09
1.605416e+08		-4.485842e+08		3.798016e+09
-4.485842e+08		-2.989303e+08		2.459444e+08
3.798016e+09		2.459444e+08		-1.011630e+10
1.482765e+08		5.221833e-05		3.948672e+09
5.221833e-05		-7.540951e+08		-5.695596e-05
3.948672e+09		-5.695596e-05		-1.046823e+10
1.605416e+08		4.485842e+08		3.798016e+09
4.485842e+08		-2.989303e+08		-2.459444e+08
3.798016e+09		-2.459444e+08		-1.011630e+10
4.285207e+08		1.131019e+08		4.026956e+09
1.131019e+08		-6.691499e+07		4.632365e+06
4.026956e+09		4.632365e+06		-9.084319e+09
-1.868641e+08		1.669816e+07		3.292490e+08
1.669816e+07		-1.369169e+08		1.318305e+08
3.292490e+08		1.318305e+08		-1.810529e+10
-1.892729e+08		2.345663e+07		1.796809e+08
2.345663e+07		-7.131587e+08		3.935542e+08
1.796809e+08		3.935542e+08		-1.949176e+10
-2.146788e+08		-1.211464e-05		1.659539e+08
-1.211464e-05		-1.470240e+09		-1.600683e-04
1.659539e+08		-1.600683e-04		-1.983977e+10
-1.892729e+08		-2.345663e+07		1.796809e+08
-2.345663e+07		-7.131587e+08		-3.935542e+08
1.796809e+08		-3.935542e+08		-1.949176e+10
-1.868641e+08		-1.669816e+07		3.292490e+08
-1.669816e+07		-1.369169e+08		-1.318305e+08
3.292490e+08		-1.318305e+08		-1.810529e+10
-1.299588e+08		-2.953066e+05		5.243998e+08
-2.953066e+05		-1.519886e+08		-3.644875e+08
5.243998e+08		-3.644875e+08		1.652177e+10
-1.084428e+07		3.306335e+07		2.362236e+08
3.306335e+07		2.062597e+08		-6.503122e+08
2.362236e+08		-6.503122e+08		1.707940e+10
-7.007781e+07		9.481833e+06		2.373224e+08
9.481833e+06		4.562827e+08		-8.238482e+08
2.373224e+08		-8.238482e+08		1.738614e+10
-6.733336e+07		2.324574e+07		1.981420e+08
2.324574e+07		7.040391e+08		-3.578718e+08
1.981420e+08		-3.578718e+08		1.765465e+10
-3.332249e+07		2.582441e-05		2.055715e+08
2.582441e-05		9.118011e+08		2.929512e-04
2.055715e+08		2.929512e-04		1.784299e+10
-6.733336e+07		-2.324574e+07		1.981420e+08
-2.324574e+07		7.040391e+08		3.578718e+08
1.981420e+08		3.578718e+08		1.765465e+10
-7.007781e+07		-9.481833e+06		2.373224e+08
-9.481833e+06		4.562827e+08		8.238482e+08
2.373224e+08		8.238482e+08		1.738614e+10
-1.084428e+07		-3.306335e+07		2.362236e+08
-3.306335e+07		2.062597e+08		6.503122e+08
2.362236e+08		6.503122e+08		1.707940e+10
-1.299588e+08		2.953066e+05		5.243998e+08
2.953066e+05		-1.519886e+08		3.644875e+08
5.243998e+08		3.644875e+08		1.652177e+10
-1.981173e+08		-5.615565e+07		2.609987e+09
-5.615565e+07		-1.252521e+08		-1.283731e+08
2.609987e+09		-1.283731e+08		1.217355e+10
-6.008556e+07		-1.891695e+08		2.065896e+09
-1.891695e+08		3.091969e+08		-5.217731e+08
2.065896e+09		-5.217731e+08		1.302108e+10
3.821895e+06		4.781131e-05		2.033200e+09
4.781131e-05		6.757521e+08		2.414028e-04
2.033200e+09		2.414028e-04		1.349012e+10
-6.008556e+07		1.891695e+08		2.065896e+09
1.891695e+08		3.091969e+08		5.217731e+08
2.065896e+09		5.217731e+08		1.302108e+10
-1.981173e+08		5.615565e+07		2.609987e+09
5.615565e+07		-1.252521e+08		1.283731e+08
2.609987e+09		1.283731e+08		1.217355e+10
-2.497061e+08		-6.421114e+07		4.643478e+09
-6.421114e+07		-4.598720e+07		-7.080836e+07
4.643478e+09		-7.080836e+07		8.105816e+09
-1.443122e+08		-2.121218e+08		4.085282e+09
-2.121218e+08		6.213465e+07		-2.304035e+08
4.085282e+09		-2.304035e+08		8.406966e+09
-1.053563e+08		-3.584184e+08		3.849656e+09
-3.584184e+08		1.537252e+08		-3.413845e+08
3.849656e+09		-3.413845e+08		8.703440e+09
-8.449422e+07		-1.721913e+08		3.833448e+09
-1.721913e+08		3.036420e+08		-1.575189e+08
3.833448e+09		-1.575189e+08		8.941485e+09
-6.215025e+07		5.284511e-05		3.820223e+09
5.284511e-05		4.134628e+08		1.856210e-04
3.820223e+09		1.856210e-04		9.066494e+09
-8.449422e+07		1.721913e+08		3.833448e+09
1.721913e+08		3.036420e+08		1.575189e+08
3.833448e+09		1.575189e+08		8.941485e+09
-1.053563e+08		3.584184e+08		3.849656e+09
3.584184e+08		1.537252e+08		3.413845e+08
3.849656e+09		3.413845e+08		8.703440e+09
-1.443122e+08		2.121218e+08		4.085282e+09
2.121218e+08		6.213465e+07		2.304035e+08
4.085282e+09		2.304035e+08		8.406966e+09
-2.497061e+08		6.421114e+07		4.643478e+09
6.421114e+07		-4.598720e+07		7.080836e+07
4.643478e+09		7.080836e+07		8.105816e+09
-2.013711e+08		-9.466943e+07		5.443372e+09
-9.466943e+07		-5.535566e+07		-5.252146e+07
5.443372e+09		-5.252146e+07		4.023230e+09
-7.583295e+07		-4.760621e+08		4.694088e+09
-4.760621e+08		6.550981e+07		-1.752888e+08
4.694088e+09		-1.752888e+08		4.363013e+09
-4.224689e+07		-7.087365e-06		4.712181e+09
-7.087365e-06		1.979161e+08		1.133396e-04
4.712181e+09		1.133396e-04		4.567305e+09
-7.583295e+07		4.760621e+08		4.694088e+09
4.760621e+08		6.550981e+07		1.752888e+08
4.694088e+09		1.752888e+08		4.363013e+09
-2.013711e+08		9.466943e+07		5.443372e+09
9.466943e+07		-5.535566e+07		5.252146e+07
5.443372e+09		5.252146e+07		4.023230e+09
-8.386932e-05		-9.525650e+07		6.149458e+09
-9.525650e+07		-4.271511e-05		-1.285179e-05
6.149458e+09		-1.285179e-05		1.188852e-04
-4.072674e-06		-3.438860e+08		5.559482e+09
-3.438860e+08		-1.377426e-05		2.704584e-05
5.559482e+09		2.704584e-05		1.781359e-04
3.748154e-05		-5.583700e+08		5.364221e+09
-5.583700e+08		5.659880e-06		5.475897e-05
5.364221e+09		5.475897e-05		2.228413e-04
2.592802e-06		-2.790739e+08		5.375926e+09
-2.790739e+08		-3.073481e-05		7.199204e-05
5.375926e+09		7.199204e-05		1.664273e-04
-4.385598e-05		2.523884e-07		5.391722e+09
2.523884e-07		-6.016018e-05		5.589687e-05
5.391722e+09		5.589687e-05		1.246966e-04
3.400818e-05		2.790739e+08		5.375926e+09
2.790739e+08		-1.686462e-05		2.847461e-05
5.375926e+09		2.847461e-05		1.367331e-04
3.781915e-05		5.583700e+08		5.364221e+09
5.583700e+08		-2.341717e-05		2.516253e-05
5.364221e+09		2.516253e-05		1.232103e-04
1.223478e-05		3.438860e+08		5.559482e+09
3.438860e+08		-1.400104e-05		2.076523e-05
5.559482e+09		2.076523e-05		8.770823e-05
-6.014295e-05		9.525650e+07		6.149458e+09
9.525650e+07		-1.604017e-05		2.833546e-05
6.149458e+09		2.833546e-05		6.587431e-05
2.013711e+08		-9.466943e+07		5.443372e+09
-9.466943e+07		5.535566e+07		5.252146e+07
5.443372e+09		5.252146e+07		-4.023230e+09
7.583295e+07		-4.760621e+08		4.694088e+09
-4.760621e+08		-6.550981e+07		1.752888e+08
4.694088e+09		1.752888e+08		-4.363013e+09
4.224689e+07		1.554377e-05		4.712181e+09
1.554377e-05		-1.979161e+08		2.017338e-05
4.712181e+09		2.017338e-05		-4.567305e+09
7.583295e+07		4.760621e+08		4.694088e+09
4.760621e+08		-6.550981e+07		-1.752888e+08
4.694088e+09		-1.752888e+08		-4.363013e+09
2.013711e+08		9.466943e+07		5.443372e+09
9.466943e+07		5.535566e+07		-5.252146e+07
5.443372e+09		-5.252146e+07		-4.023230e+09
2.497061e+08		-6.421114e+07		4.643478e+09
-6.421114e+07		4.598720e+07		7.080836e+07
4.643478e+09		7.080836e+07		-8.105816e+09
1.443122e+08		-2.121218e+08		4.085282e+09
-2.121218e+08		-6.213465e+07		2.304035e+08
4.085282e+09		2.304035e+08		-8.406966e+09
1.053563e+08		-3.584184e+08		3.849656e+09
-3.584184e+08		-1.537252e+08		3.413845e+08
3.849656e+09		3.413845e+08		-8.703440e+09
8.449422e+07		-1.721913e+08		3.833448e+09
-1.721913e+08		-3.036420e+08		1.575189e+08
3.833448e+09		1.575189e+08		-8.941485e+09
6.215025e+07		3.025681e-05		3.820223e+09
3.025681e-05		-4.134628e+08		-2.995506e-05
3.820223e+09		-2.995506e-05		-9.066494e+09
8.449422e+07		1.721913e+08		3.833448e+09
1.721913e+08		-3.036420e+08		-1.575189e+08
3.833448e+09		-1.575189e+08		-8.941485e+09
1.053563e+08		3.584184e+08		3.849656e+09
3.584184e+08		-1.537252e+08		-3.413845e+08
3.849656e+09		-3.413845e+08		-8.703440e+09
1.443122e+08		2.121218e+08		4.085282e+09
2.121218e+08		-6.213465e+07		-2.304035e+08
4.085282e+09		-2.304035e+08		-8.406966e+09
2.497061e+08		6.421114e+07		4.643478e+09
6.421114e+07		4.598720e+07		-7.080836e+07
4.643478e+09		-7.080836e+07		-8.105816e+09
1.981173e+08		-5.615565e+07		2.609987e+09
-5.615565e+07		1.252521e+08		1.283731e+08
2.609987e+09		1.283731e+08		-1.217355e+10
6.008556e+07		-1.891695e+08		2.065896e+09
-1.891695e+08		-3.091969e+08		5.217731e+08
2.065896e+09		5.217731e+08		-1.302108e+10
-3.821895e+06		4.377309e-05		2.033200e+09
4.377309e-05		-6.757521e+08		-1.071445e-04
2.033200e+09		-1.071445e-04		-1.349012e+10
6.008556e+07		1.891695e+08		2.065896e+09
1.891695e+08		-3.091969e+08		-5.217731e+08
2.065896e+09		-5.217731e+08		-1.302108e+10
1.981173e+08		5.615565e+07		2.609987e+09
5.615565e+07		1.252521e+08		-1.283731e+08
2.609987e+09		-1.283731e+08		-1.217355e+10
1.299588e+08		-2.953066e+05		5.243998e+08
-2.953066e+05		1.519886e+08		3.644875e+08
5.243998e+08		3.644875e+08		-1.652177e+10
1.084428e+07		3.306335e+07		2.362236e+08
3.306335e+07		-2.062597e+08		6.503122e+08
2.362236e+08		6.503122e+08		-1.707940e+10
7.007781e+07		9.481833e+06		2.373224e+08
9.481833e+06		-4.562827e+08		8.238482e+08
2.373224e+08		8.238482e+08		-1.738614e+10
6.733336e+07		2.324574e+07		1.981420e+08
2.324574e+07		-7.040391e+08		3.578718e+08
1.981420e+08		3.578718e+08		-1.765465e+10
3.332249e+07		2.301717e-05		2.055715e+08
2.301717e-05		-9.118011e+08		-1.797769e-04
2.055715e+08		-1.797769e-04		-1.784299e+10
6.733336e+07		-2.324574e+07		1.981420e+08
-2.324574e+07		-7.040391e+08		-3.578718e+08
1.981420e+08		-3.578718e+08		-1.765465e+10
7.007781e+07		-9.481833e+06		2.373224e+08
-9.481833e+06		-4.562827e+08		-8.238482e+08
2.373224e+08		-8.238482e+08		-1.738614e+10
1.084428e+07		-3.306335e+07		2.362236e+08
-3.306335e+07		-2.062597e+08		-6.503122e+08
2.362236e+08		-6.503122e+08		-1.707940e+10
1.299588e+08		2.953066e+05		5.243998e+08
2.953066e+05		1.519886e+08		-3.644875e+08
5.243998e+08		-3.644875e+08		-1.652177e+10
-5.404257e+07		1.790192e+06		4.259753e+08
1.790192e+06		-8.683877e+07		-4.020942e+08
4.259753e+08		-4.020942e+08		1.462554e+10
-4.024182e+07		-2.812574e+06		7.724432e+07
-2.812574e+06		2.651888e+08		-8.665215e+08
7.724432e+07		-8.665215e+08		1.518562e+10
-3.299822e+07		2.866657e-05		5.133763e+07
2.866657e-05		5.318526e+08		3.304668e-04
5.133763e+07		3.304668e-04		1.543701e+10
-4.024182e+07		2.812574e+06		7.724432e+07
2.812574e+06		2.651888e+08		8.665215e+08
7.724432e+07		8.665215e+08		1.518562e+10
-5.404257e+07		-1.790192e+06		4.259753e+08
-1.790192e+06		-8.683877e+07		4.020942e+08
4.259753e+08		4.020942e+08		1.462554e+10
-1.618984e+08		-4.408686e+07		4.763146e+09
-4.408686e+07		-3.737053e+07		-5.640491e+07
4.763146e+09		-5.640491e+07		7.139639e+09
-6.062607e+07		-2.603229e+08		3.693070e+09
-2.603229e+08		7.594223e+07		-2.830470e+08
3.693070e+09		-2.830470e+08		7.558148e+09
-4.742991e+07		2.245326e-05		3.540867e+09
2.245326e-05		2.104338e+08		1.684381e-04
3.540867e+09		1.684381e-04		7.765210e+09
-6.062607e+07		2.603229e+08		3.693070e+09
2.603229e+08		7.594223e+07		2.830470e+08
3.693070e+09		2.830470e+08		7.558148e+09
-1.618984e+08		4.408686e+07		4.763146e+09
4.408686e+07		-3.737053e+07		5.640491e+07
4.763146e+09		5.640491e+07		7.139639e+09
-9.275042e-05		-5.999416e+07		6.131573e+09
-5.999416e+07		1.760200e-06		-1.572212e-05
6.131573e+09		-1.572212e-05		9.512901e-05
-3.871508e-05		-3.952239e+08		5.033740e+09
-3.952239e+08		-5.266559e-05		4.883409e-05
5.033740e+09		4.883409e-05		1.798235e-04
-1.401640e-06		-2.052169e-06		4.877707e+09
-2.052169e-06		-2.926495e-05		5.579751e-05
4.877707e+09		5.579751e-05		1.542866e-04
6.466731e-05		3.952239e+08		5.033740e+09
3.952239e+08		6.381422e-06		2.360443e-05
5.033740e+09		2.360443e-05		2.005547e-04
5.988404e-06		5.999416e+07		6.131573e+09
5.999416e+07		4.279427e-06		1.339475e-05
6.131573e+09		1.339475e-05		4.233420e-05
1.618984e+08		-4.408686e+07		4.763146e+09
-4.408686e+07		3.737053e+07		5.640491e+07
4.763146e+09		5.640491e+07		-7.139639e+09
6.062607e+07		-2.603229e+08		3.693070e+09
-2.603229e+08		-7.594223e+07		2.830470e+08
3.693070e+09		2.830470e+08		-7.558148e+09
4.742991e+07		4.102383e-05		3.540867e+09
4.102383e-05		-2.104338e+08		-1.213886e-05
3.540867e+09		-1.213886e-05		-7.765210e+09
6.062607e+07		2.603229e+08		3.693070e+09
2.603229e+08		-7.594223e+07		-2.830470e+08
3.693070e+09		-2.830470e+08		-7.558148e+09
1.618984e+08		4.408686e+07		4.763146e+09
4.408686e+07		3.737053e+07		-5.640491e+07
4.763146e+09		-5.640491e+07		-7.139639e+09
5.404257e+07		1.790192e+06		4.259753e+08
1.790192e+06		8.683877e+07		4.020942e+08
4.259753e+08		4.020942e+08		-1.462554e+10
4.024182e+07		-2.812574e+06		7.724432e+07
-2.812574e+06		-2.651888e+08		8.665215e+08
7.724432e+07		8.665215e+08		-1.518562e+10
3.299822e+07		2.380903e-05		5.133763e+07
2.380903e-05		-5.318526e+08		-1.427792e-04
5.133763e+07		-1.427792e-04		-1.543701e+10
4.024182e+07		2.812574e+06		7.724432e+07
2.812574e+06		-2.651888e+08		-8.665215e+08
7.724432e+07		-8.665215e+08		-1.518562e+10
5.404257e+07		-1.790192e+06		4.259753e+08
-1.790192e+06		8.683877e+07		-4.020942e+08
4.259753e+08		-4.020942e+08		-1.462554e+10
2.265687e+07		1.405785e+07		6.501872e+08
1.405785e+07		1.395941e+07		-4.623071e+08
6.501872e+08		-4.623071e+08		1.272879e+10
3.777566e+07		1.251129e+07		2.657729e+08
1.251129e+07		9.276125e+07		-7.613302e+08
2.657729e+08		-7.613302e+08		1.293244e+10
7.809988e+06		-1.480137e+06		2.683638e+08
-1.480137e+06		1.736397e+08		-9.572017e+08
2.683638e+08		-9.572017e+08		1.305026e+10
2.315109e+07		3.631381e+06		2.083739e+08
3.631381e+06		2.935084e+08		-4.428737e+08
2.083739e+08		-4.428737e+08		1.317763e+10
6.171128e+06		6.738375e-05		2.491373e+08
6.738375e-05		3.253551e+08		3.881119e-04
2.491373e+08		3.881119e-04		1.319098e+10
2.315109e+07		-3.631381e+06		2.083739e+08
-3.631381e+06		2.935084e+08		4.428737e+08
2.083739e+08		4.428737e+08		1.317763e+10
7.809988e+06		1.480137e+06		2.683638e+08
1.480137e+06		1.736397e+08		9.572017e+08
2.683638e+08		9.572017e+08		1.305026e+10
3.777566e+07		-1.251129e+07		2.657729e+08
-1.251129e+07		9.276125e+07		7.613302e+08
2.657729e+08		7.613302e+08		1.293244e+10
2.265687e+07		-1.405785e+07		6.501872e+08
-1.405785e+07		1.395941e+07		4.623071e+08
6.501872e+08		4.623071e+08		1.272879e+10
-4.742948e+07		-2.434041e+07		3.023631e+09
-2.434041e+07		-1.189703e+07		-1.179506e+08
3.023631e+09		-1.179506e+08		9.404602e+09
-1.083390e+07		-9.367072e+07		2.133979e+09
-9.367072e+07		1.043049e+08		-5.287645e+08
2.133979e+09		-5.287645e+08		9.746434e+09
-1.134408e+07		-4.238589e-05		1.996597e+09
-4.238589e-05		2.015176e+08		2.460619e-04
1.996597e+09		2.460619e-04		9.890016e+09
-1.083390e+07		9.367072e+07		2.133979e+09
9.367072e+07		1.043049e+08		5.287645e+08
2.133979e+09		5.287645e+08		9.746434e+09
-4.742948e+07		2.434041e+07		3.023631e+09
2.434041e+07		-1.189703e+07		1.179506e+08
3.023631e+09		1.179506e+08		9.404602e+09
-6.162111e+07		-3.805490e+07		5.192188e+09
-3.805490e+07		5.247540e+06		-6.437548e+07
5.192188e+09		-6.437548e+07		6.226738e+09
-2.504917e+07		-1.079118e+08		4.336604e+09
-1.079118e+08		2.447572e+07		-1.809006e+08
4.336604e+09		-1.809006e+08		6.353718e+09
-1.371459e+07		-1.731034e+08		3.867171e+09
-1.731034e+08		4.589493e+07		-2.729179e+08
3.867171e+09		-2.729179e+08		6.460410e+09
-6.673600e+06		-8.927634e+07		3.679419e+09
-8.927634e+07		9.467686e+07		-1.443189e+08
3.679419e+09		-1.443189e+08		6.556492e+09
-2.252295e+07		8.519273e-06		3.613112e+09
8.519273e-06		9.315347e+07		1.613116e-04
3.613112e+09		1.613116e-04		6.565783e+09
-6.673600e+06		8.927634e+07		3.679419e+09
8.927634e+07		9.467686e+07		1.443189e+08
3.679419e+09		1.443189e+08		6.556492e+09
-1.371459e+07		1.731034e+08		3.867171e+09
1.731034e+08		4.589493e+07		2.729179e+08
3.867171e+09		2.729179e+08		6.460410e+09
-2.504917e+07		1.079118e+08		4.336604e+09
1.079118e+08		2.447572e+07		1.809006e+08
4.336604e+09		1.809006e+08		6.353718e+09
-6.162111e+07		3.805490e+07		5.192188e+09
3.805490e+07		5.247540e+06		6.437548e+07
5.192188e+09		6.437548e+07		6.226738e+09
-5.684393e+07		-4.534732e+07		5.885712e+09
-4.534732e+07		-7.318386e+06		-2.141160e+07
5.885712e+09		-2.141160e+07		3.104669e+09
-1.736685e+07		-2.175621e+08		4.602330e+09
-2.175621e+08		1.830985e+07		-1.282987e+08
4.602330e+09		-1.282987e+08		3.235273e+09
-1.472705e+07		-9.339303e-06		4.335179e+09
-9.339303e-06		4.457150e+07		1.022206e-04
4.335179e+09		1.022206e-04		3.301588e+09
-1.736685e+07		2.175621e+08		4.602330e+09
2.175621e+08		1.830985e+07		1.282987e+08
4.602330e+09		1.282987e+08		3.235273e+09
-5.684393e+07		4.534732e+07		5.885712e+09
4.534732e+07		-7.318386e+06		2.141160e+07
5.885712e+09		2.141160e+07		3.104669e+09
9.601936e-06		-4.788226e+07		6.485195e+09
-4.788226e+07		1.084972e-04		2.466398e-05
6.485195e+09		2.466398e-05		1.653768e-04
4.954636e-06		-1.600535e+08		5.618381e+09
-1.600535e+08		1.917128e-05		6.355497e-05
5.618381e+09		6.355497e-05		1.717638e-04
-5.194824e-05		-2.514122e+08		5.131806e+09
-2.514122e+08		-9.044912e-05		5.664171e-05
5.131806e+09		5.664171e-05		1.530349e-04
1.883321e-05		-1.336057e+08		4.899288e+09
-1.336057e+08		-6.476417e-06		3.883282e-05
4.899288e+09		3.883282e-05		2.124496e-04
5.598739e-05		-3.626011e-05		4.824017e+09
-3.626011e-05		4.764111e-05		6.210477e-05
4.824017e+09		6.210477e-05		2.786731e-04
2.393499e-06		1.336057e+08		4.899288e+09
1.336057e+08		-8.441508e-06		5.772378e-05
4.899288e+09		5.772378e-05		2.241153e-04
-4.126690e-05		2.514122e+08		5.131806e+09
2.514122e+08		-1.870375e-05		3.935731e-05
5.131806e+09		3.935731e-05		1.782579e-04
3.476255e-05		1.600535e+08		5.618381e+09
1.600535e+08		4.087528e-05		1.728843e-05
5.618381e+09		1.728843e-05		1.604576e-04
-9.889156e-05		4.788226e+07		6.485195e+09
4.788226e+07		-1.389254e-05		1.100848e-05
6.485195e+09		1.100848e-05		6.131828e-05
5.684393e+07		-4.534732e+07		5.885712e+09
-4.534732e+07		7.318386e+06		2.141160e+07
5.885712e+09		2.141160e+07		-3.104669e+09
1.736685e+07		-2.175621e+08		4.602330e+09
-2.175621e+08		-1.830985e+07		1.282987e+08
4.602330e+09		1.282987e+08		-3.235273e+09
1.472705e+07		6.807782e-05		4.335179e+09
6.807782e-05		-4.457150e+07		1.293141e-05
4.335179e+09		1.293141e-05		-3.301588e+09
1.736685e+07		2.175621e+08		4.602330e+09
2.175621e+08		-1.830985e+07		-1.282987e+08
4.602330e+09		-1.282987e+08		-3.235273e+09
5.684393e+07		4.534732e+07		5.885712e+09
4.534732e+07		7.318386e+06		-2.141160e+07
5.885712e+09		-2.141160e+07		-3.104669e+09
6.162111e+07		-3.805490e+07		5.192188e+09
-3.805490e+07		-5.247540e+06		6.437548e+07
5.192188e+09		6.437548e+07		-6.226738e+09
2.504917e+07		-1.079118e+08		4.336604e+09
-1.079118e+08		-2.447572e+07		1.809006e+08
4.336604e+09		1.809006e+08		-6.353718e+09
1.371459e+07		-1.731034e+08		3.867171e+09
-1.731034e+08		-4.589493e+07		2.729179e+08
3.867171e+09		2.729179e+08		-6.460410e+09
6.673600e+06		-8.927634e+07		3.679419e+09
-8.927634e+07		-9.467686e+07		1.443189e+08
3.679419e+09		1.443189e+08		-6.556492e+09
2.252295e+07		3.721146e-05		3.613112e+09
3.721146e-05		-9.315347e+07		-4.664995e-05
3.613112e+09		-4.664995e-05		-6.565783e+09
6.673600e+06		8.927634e+07		3.679419e+09
8.927634e+07		-9.467686e+07		-1.443189e+08
3.679419e+09		-1.443189e+08		-6.556492e+09
1.371459e+07		1.731034e+08		3.867171e+09
1.731034e+08		-4.589493e+07		-2.729179e+08
3.867171e+09		-2.729179e+08		-6.460410e+09
2.504917e+07		1.079118e+08		4.336604e+09
1.079118e+08		-2.447572e+07		-1.809006e+08
4.336604e+09		-1.809006e+08		-6.353718e+09
6.162111e+07		3.805490e+07		5.192188e+09
3.805490e+07		-5.247540e+06		-6.437548e+07
5.192188e+09		-6.437548e+07		-6.226738e+09
4.742948e+07		-2.434041e+07		3.023631e+09
-2.434041e+07		1.189703e+07		1.179506e+08
3.023631e+09		1.179506e+08		-9.404602e+09
1.083390e+07		-9.367072e+07		2.133979e+09
-9.367072e+07		-1.043049e+08		5.287645e+08
2.133979e+09		5.287645e+08		-9.746434e+09
1.134408e+07		3.796071e-05		1.996597e+09
3.796071e-05		-2.015176e+08		-7.803738e-05
1.996597e+09		-7.803738e-05		-9.890016e+09
1.083390e+07		9.367072e+07		2.133979e+09
9.367072e+07		-1.043049e+08		-5.287645e+08
2.133979e+09		-5.287645e+08		-9.746434e+09
4.742948e+07		2.434041e+07		3.023631e+09
2.434041e+07		1.189703e+07		-1.179506e+08
3.023631e+09		-1.179506e+08		-9.404602e+09
-2.265687e+07		1.405785e+07		6.501872e+08
1.405785e+07		-1.395941e+07		4.623071e+08
6.501872e+08		4.623071e+08		-1.272879e+10
-3.777566e+07		1.251129e+07		2.657729e+08
1.251129e+07		-9.276125e+07		7.613302e+08
2.657729e+08		7.613302e+08		-1.293244e+10
-7.809988e+06		-1.480137e+06		2.683638e+08
-1.480137e+06		-1.736397e+08		9.572017e+08
2.683638e+08		9.572017e+08		-1.305026e+10
-2.315109e+07		3.631381e+06		2.083739e+08
3.631381e+06		-2.935084e+08		4.428737e+08
2.083739e+08		4.428737e+08		-1.317763e+10
-6.171128e+06		-2.240948e-05		2.491373e+08
-2.240948e-05		-3.253551e+08		-9.466335e-05
2.491373e+08		-9.466335e-05		-1.319098e+10
-2.315109e+07		-3.631381e+06		2.083739e+08
-3.631381e+06		-2.935084e+08		-4.428737e+08
2.083739e+08		-4.428737e+08		-1.317763e+10
-7.809988e+06		1.480137e+06		2.683638e+08
1.480137e+06		-1.736397e+08		-9.572017e+08
2.683638e+08		-9.572017e+08		-1.305026e+10
-3.777566e+07		-1.251129e+07		2.657729e+08
-1.251129e+07		-9.276125e+07		-7.613302e+08
2.657729e+08		-7.613302e+08		-1.293244e+10
-2.265687e+07		-1.405785e+07		6.501872e+08
-1.405785e+07		-1.395941e+07		-4.623071e+08
6.501872e+08		-4.623071e+08		-1.272879e+10
-4.699445e+06		6.099987e+06		5.002998e+08
6.099987e+06		-1.571229e+07		-4.395176e+08
5.002998e+08		-4.395176e+08		1.063145e+10
2.982974e+06		-3.106127e+06		1.016132e+08
-3.106127e+06		1.016139e+08		-9.535026e+08
1.016132e+08		-9.535026e+08		1.086140e+10
9.814925e+06		-1.364062e-05		8.238596e+07
-1.364062e-05		2.083076e+08		4.064366e-04
8.238596e+07		4.064366e-04		1.096248e+10
2.982974e+06		3.106127e+06		1.016132e+08
3.106127e+06		1.016139e+08		9.535026e+08
1.016132e+08		9.535026e+08		1.086140e+10
-4.699445e+06		-6.099987e+06		5.002998e+08
-6.099987e+06		-1.571229e+07		4.395176e+08
5.002998e+08		4.395176e+08		1.063145e+10
-3.610082e+07		-2.039799e+07		5.135998e+09
-2.039799e+07		-1.114052e+06		-4.225264e+07
5.135998e+09		-4.225264e+07		5.233955e+09
8.380727e+06		-1.167580e+08		3.692380e+09
-1.167580e+08		3.326914e+07		-2.410050e+08
3.692380e+09		-2.410050e+08		5.403314e+09
1.251495e+07		3.622845e-07		3.385918e+09
3.622845e-07		7.063447e+07		1.710355e-04
3.385918e+09		1.710355e-04		5.483201e+09
8.380727e+06		1.167580e+08		3.692380e+09
1.167580e+08		3.326914e+07		2.410050e+08
3.692380e+09		2.410050e+08		5.403314e+09
-3.610082e+07		2.039799e+07		5.135998e+09
2.039799e+07		-1.114052e+06		4.225264e+07
5.135998e+09		4.225264e+07		5.233955e+09
-3.955141e-05		-2.640703e+07		6.434858e+09
-2.640703e+07		-4.968466e-05		2.283789e-05
6.434858e+09		2.283789e-05		-5.610287e-06
9.926246e-05		-1.685118e+08		4.952514e+09
-1.685118e+08		2.507027e-05		1.234446e-05
4.952514e+09		1.234446e-05		1.925696e-04
3.595022e-05		1.210510e-05		4.569150e+09
1.210510e-05		1.538033e-05		5.837755e-05
4.569150e+09		5.837755e-05		1.903027e-04
-3.102073e-05		1.685118e+08		4.952514e+09
1.685118e+08		1.708267e-05		2.404769e-05
4.952514e+09		2.404769e-05		1.669619e-04
4.895125e-05		2.640703e+07		6.434858e+09
2.640703e+07		5.207490e-05		-1.202407e-05
6.434858e+09		-1.202407e-05		1.814961e-04
3.610082e+07		-2.039799e+07		5.135998e+09
-2.039799e+07		1.114052e+06		4.225264e+07
5.135998e+09		4.225264e+07		-5.233955e+09
-8.380727e+06		-1.167580e+08		3.692380e+09
-1.167580e+08		-3.326914e+07		2.410050e+08
3.692380e+09		2.410050e+08		-5.403314e+09
-1.251495e+07		3.004982e-05		3.385918e+09
3.004982e-05		-7.063447e+07		-7.252023e-05
3.385918e+09		-7.252023e-05		-5.483201e+09
-8.380727e+06		1.167580e+08		3.692380e+09
1.167580e+08		-3.326914e+07		-2.410050e+08
3.692380e+09		-2.410050e+08		-5.403314e+09
3.610082e+07		2.039799e+07		5.135998e+09
2.039799e+07		1.114052e+06		-4.225264e+07
5.135998e+09		-4.225264e+07		-5.233955e+09
4.699445e+06		6.099987e+06		5.002998e+08
6.099987e+06		1.571229e+07		4.395176e+08
5.002998e+08		4.395176e+08		-1.063145e+10
-2.982974e+06		-3.106127e+06		1.016132e+08
-3.106127e+06		-1.016139e+08		9.535026e+08
1.016132e+08		9.535026e+08		-1.086140e+10
-9.814925e+06		-9.476650e-05		8.238596e+07
-9.476650e-05		-2.083076e+08		-7.279217e-05
8.238596e+07		-7.279217e-05		-1.096248e+10
-2.982974e+06		3.106127e+06		1.016132e+08
3.106127e+06		-1.016139e+08		-9.535026e+08
1.016132e+08		-9.535026e+08		-1.086140e+10
4.699445e+06		-6.099987e+06		5.002998e+08
-6.099987e+06		1.571229e+07		-4.395176e+08
5.002998e+08		-4.395176e+08		-1.063145e+10
-2.807688e+06		2.254927e+06		6.837434e+08
2.254927e+06		-7.950323e+06		-4.649818e+08
6.837434e+08		-4.649818e+08		8.565626e+09
8.331557e+06		4.335719e+06		2.691587e+08
4.335719e+06		2.762083e+07		-7.927343e+08
2.691587e+08		-7.927343e+08		8.637240e+09
-2.856361e+06		-1.530589e+06		2.708663e+08
-1.530589e+06		5.834440e+07		-9.915974e+08
2.708663e+08		-9.915974e+08		8.676152e+09
-7.071274e+05		5.966398e+05		2.012979e+08
5.966398e+05		9.993403e+07		-4.636149e+08
2.012979e+08		-4.636149e+08		8.712275e+09
-4.362259e+06		6.013899e-06		2.506344e+08
6.013899e-06		1.199218e+08		3.940687e-04
2.506344e+08		3.940687e-04		8.723913e+09
-7.071274e+05		-5.966398e+05		2.012979e+08
-5.966398e+05		9.993403e+07		4.636149e+08
2.012979e+08		4.636149e+08		8.712275e+09
-2.856361e+06		1.530589e+06		2.708663e+08
1.530589e+06		5.834440e+07		9.915974e+08
2.708663e+08		9.915974e+08		8.676152e+09
8.331557e+06		-4.335719e+06		2.691587e+08
-4.335719e+06		2.762083e+07		7.927343e+08
2.691587e+08		7.927343e+08		8.637240e+09
-2.807688e+06		-2.254927e+06		6.837434e+08
-2.254927e+06		-7.950323e+06		4.649818e+08
6.837434e+08		4.649818e+08		8.565626e+09
-1.533734e+07		-9.428091e+06		3.156047e+09
-9.428091e+06		-9.473332e+06		-9.817141e+07
3.156047e+09		-9.817141e+07		6.374786e+09
2.030898e+06		-3.910475e+07		2.127159e+09
-3.910475e+07		3.667845e+07		-5.149230e+08
2.127159e+09		-5.149230e+08		6.494106e+09
3.174883e+06		2.932618e-05		1.934434e+09
2.932618e-05		7.546438e+07		2.407525e-04
1.934434e+09		2.407525e-04		6.545117e+09
2.030898e+06		3.910475e+07		2.127159e+09
3.910475e+07		3.667845e+07		5.149230e+08
2.127159e+09		5.149230e+08		6.494106e+09
-1.533734e+07		9.428091e+06		3.156047e+09
9.428091e+06		-9.473332e+06		9.817141e+07
3.156047e+09		9.817141e+07		6.374786e+09
-1.329030e+07		-1.424290e+07		5.407813e+09
-1.424290e+07		4.463937e+05		-5.050655e+07
5.407813e+09		-5.050655e+07		4.233676e+09
4.277746e+06		-4.392829e+07		4.438263e+09
-4.392829e+07		1.150498e+07		-1.548955e+08
4.438263e+09		-1.548955e+08		4.281111e+09
8.608188e+06		-7.175440e+07		3.857632e+09
-7.175440e+07		1.874704e+07		-2.365384e+08
3.857632e+09		-2.365384e+08		4.319358e+09
1.009136e+07		-3.726707e+07		3.597113e+09
-3.726707e+07		3.336266e+07		-1.294340e+08
3.597113e+09		-1.294340e+08		4.347969e+09
7.005691e+06		-2.915133e-05		3.499541e+09
-2.915133e-05		3.651969e+07		1.356639e-04
3.499541e+09		1.356639e-04		4.354299e+09
1.009136e+07		3.726707e+07		3.597113e+09
3.726707e+07		3.336266e+07		1.294340e+08
3.597113e+09		1.294340e+08		4.347969e+09
8.608188e+06		7.175440e+07		3.857632e+09
7.175440e+07		1.874704e+07		2.365384e+08
3.857632e+09		2.365384e+08		4.319358e+09
4.277746e+06		4.392829e+07		4.438263e+09
4.392829e+07		1.150498e+07		1.548955e+08
4.438263e+09		1.548955e+08		4.281111e+09
-1.329030e+07		1.424290e+07		5.407813e+09
1.424290e+07		4.463937e+05		5.050655e+07
5.407813e+09		5.050655e+07		4.233676e+09
-1.416987e+07		-1.824370e+07		6.092072e+09
-1.824370e+07		-5.250759e+06		-7.832969e+06
6.092072e+09		-7.832969e+06		2.104597e+09
3.170766e+06		-8.910002e+07		4.574203e+09
-8.910002e+07		5.773230e+06		-1.041519e+08
4.574203e+09		-1.041519e+08		2.152953e+09
4.269311e+06		5.563721e-05		4.177493e+09
5.563721e-05		1.440759e+07		1.185285e-04
4.177493e+09		1.185285e-04		2.173572e+09
3.170766e+06		8.910002e+07		4.574203e+09
8.910002e+07		5.773230e+06		1.041519e+08
4.574203e+09		1.041519e+08		2.152953e+09
-1.416987e+07		1.824370e+07		6.092072e+09
1.824370e+07		-5.250759e+06		7.832969e+06
6.092072e+09		7.832969e+06		2.104597e+09
1.643104e-04		-1.859820e+07		6.711205e+09
-1.859820e+07		-6.907796e-05		-7.495400e-06
6.711205e+09		-7.495400e-06		-3.835931e-05
-1.528254e-05		-6.456088e+07		5.732251e+09
-6.456088e+07		-6.705918e-05		1.694332e-05
5.732251e+09		1.694332e-05		-2.026185e-05
-1.319649e-05		-1.025557e+08		5.115464e+09
-1.025557e+08		-1.462293e-06		-6.753809e-06
5.115464e+09		-6.753809e-06		-1.081917e-05
6.876886e-06		-5.408013e+07		4.782030e+09
-5.408013e+07		-9.807758e-06		2.525173e-05
4.782030e+09		2.525173e-05		5.204696e-05
1.090909e-04		6.557861e-05		4.664137e+09
6.557861e-05		2.396828e-05		8.988415e-05
4.664137e+09		8.988415e-05		1.032781e-04
-6.254856e-05		5.408013e+07		4.782030e+09
5.408013e+07		1.817825e-06		7.187179e-05
4.782030e+09		7.187179e-05		9.062048e-05
1.461887e-04		1.025557e+08		5.115464e+09
1.025557e+08		1.293569e-04		2.787665e-05
5.115464e+09		2.787665e-05		2.732603e-04
-1.056246e-04		6.456088e+07		5.732251e+09
6.456088e+07		-2.101483e-05		-2.047565e-05
5.732251e+09		-2.047565e-05		1.543760e-04
2.134356e-05		1.859820e+07		6.711205e+09
1.859820e+07		-1.137964e-05		-3.926187e-05
6.711205e+09		-3.926187e-05		1.744824e-04
1.416987e+07		-1.824370e+07		6.092072e+09
-1.824370e+07		5.250759e+06		7.832969e+06
6.092072e+09		7.832969e+06		-2.104597e+09
-3.170766e+06		-8.910002e+07		4.574203e+09
-8.910002e+07		-5.773230e+06		1.041519e+08
4.574203e+09		1.041519e+08		-2.152953e+09
-4.269311e+06		-2.549542e-05		4.177493e+09
-2.549542e-05		-1.440759e+07		6.787945e-06
4.177493e+09		6.787945e-06		-2.173572e+09
-3.170766e+06		8.910002e+07		4.574203e+09
8.910002e+07		-5.773230e+06		-1.041519e+08
4.574203e+09		-1.041519e+08		-2.152953e+09
1.416987e+07		1.824370e+07		6.092072e+09
1.824370e+07		5.250759e+06		-7.832969e+06
6.092072e+09		-7.832969e+06		-2.104597e+09
1.329030e+07		-1.424290e+07		5.407813e+09
-1.424290e+07		-4.463937e+05		5.050655e+07
5.407813e+09		5.050655e+07		-4.233676e+09
-4.277746e+06		-4.392829e+07		4.438263e+09
-4.392829e+07		-1.150498e+07		1.548955e+08
4.438263e+09		1.548955e+08		-4.281111e+09
-8.608188e+06		-7.175440e+07		3.857632e+09
-7.175440e+07		-1.874704e+07		2.365384e+08
3.857632e+09		2.365384e+08		-4.319358e+09
-1.009136e+07		-3.726707e+07		3.597113e+09
-3.726707e+07		-3.336266e+07		1.294340e+08
3.597113e+09		1.294340e+08		-4.347969e+09
-7.005691e+06		3.376277e-05		3.499541e+09
3.376277e-05		-3.651969e+07		-6.783940e-05
3.499541e+09		-6.783940e-05		-4.354299e+09
-1.009136e+07		3.726707e+07		3.597113e+09
3.726707e+07		-3.336266e+07		-1.294340e+08
3.597113e+09		-1.294340e+08		-4.347969e+09
-8.608188e+06		7.175440e+07		3.857632e+09
7.175440e+07		-1.874704e+07		-2.365384e+08
3.857632e+09		-2.365384e+08		-4.319358e+09
-4.277746e+06		4.392829e+07		4.438263e+09
4.392829e+07		-1.150498e+07		-1.548955e+08
4.438263e+09		-1.548955e+08		-4.281111e+09
1.329030e+07		1.424290e+07		5.407813e+09
1.424290e+07		-4.463937e+05		-5.050655e+07
5.407813e+09		-5.050655e+07		-4.233676e+09
1.533734e+07		-9.428091e+06		3.156047e+09
-9.428091e+06		9.473332e+06		9.817141e+07
3.156047e+09		9.817141e+07		-6.374786e+09
-2.030898e+06		-3.910475e+07		2.127159e+09
-3.910475e+07		-3.667845e+07		5.149230e+08
2.127159e+09		5.149230e+08		-6.494106e+09
-3.174883e+06		-2.894085e-05		1.934434e+09
-2.894085e-05		-7.546438e+07		-3.971672e-05
1.934434e+09		-3.971672e-05		-6.545117e+09
-2.030898e+06		3.910475e+07		2.127159e+09
3.910475e+07		-3.667845e+07		-5.149230e+08
2.127159e+09		-5.149230e+08		-6.494106e+09
1.533734e+07		9.428091e+06		3.156047e+09
9.428091e+06		9.473332e+06		-9.817141e+07
3.156047e+09		-9.817141e+07		-6.374786e+09
2.807688e+06		2.254927e+06		6.837434e+08
2.254927e+06		7.950323e+06		4.649818e+08
6.837434e+08		4.649818e+08		-8.565626e+09
-8.331557e+06		4.335719e+06		2.691587e+08
4.335719e+06		-2.762083e+07		7.927343e+08
2.691587e+08		7.927343e+08		-8.637240e+09
2.856361e+06		-1.530589e+06		2.708663e+08
-1.530589e+06		-5.834440e+07		9.915974e+08
2.708663e+08		9.915974e+08		-8.676152e+09
7.071274e+05		5.966398e+05		2.012979e+08
5.966398e+05		-9.993403e+07		4.636149e+08
2.012979e+08		4.636149e+08		-8.712275e+09
4.362259e+06		-1.283697e-04		2.506344e+08
-1.283697e-04		-1.199218e+08		-4.257262e-05
2.506344e+08		-4.257262e-05		-8.723913e+09
7.071274e+05		-5.966398e+05		2.012979e+08
-5.966398e+05		-9.993403e+07		-4.636149e+08
2.012979e+08		-4.636149e+08		-8.712275e+09
2.856361e+06		1.530589e+06		2.708663e+08
1.530589e+06		-5.834440e+07		-9.915974e+08
2.708663e+08		-9.915974e+08		-8.676152e+09
-8.331557e+06		-4.335719e+06		2.691587e+08
-4.335719e+06		-2.762083e+07		-7.927343e+08
2.691587e+08		-7.927343e+08		-8.637240e+09
2.807688e+06		-2.254927e+06		6.837434e+08
-2.254927e+06		7.950323e+06		-4.649818e+08
6.837434e+08		-4.649818e+08		-8.565626e+09
-5.942070e+06		2.272094e+06		5.118928e+08
2.272094e+06		-9.505995e+06		-4.578715e+08
5.118928e+08		-4.578715e+08		6.427334e+09
-2.779981e+06		-1.030805e+06		9.475390e+07
-1.030805e+06		3.233193e+07		-9.916275e+08
9.475390e+07		-9.916275e+08		6.498632e+09
-1.736485e+06		1.553418e-04		7.466839e+07
1.553418e-04		7.235177e+07		2.857819e-04
7.466839e+07		2.857819e-04		6.529151e+09
-2.779981e+06		1.030805e+06		9.475390e+07
1.030805e+06		3.233193e+07		9.916275e+08
9.475390e+07		9.916275e+08		6.498632e+09
-5.942070e+06		-2.272094e+06		5.118928e+08
-2.272094e+06		-9.505995e+06		4.578715e+08
5.118928e+08		4.578715e+08		6.427334e+09
-1.058666e+07		-6.396750e+06		5.267778e+09
-6.396750e+06		-2.471304e+06		-4.352936e+07
5.267778e+09		-4.352936e+07		3.183246e+09
7.594083e+06		-4.505702e+07		3.676959e+09
-4.505702e+07		1.088382e+07		-2.246382e+08
3.676959e+09		-2.246382e+08		3.240548e+09
9.623397e+06		1.018429e-04		3.298032e+09
1.018429e-04		2.428178e+07		1.349114e-04
3.298032e+09		1.349114e-04		3.266027e+09
7.594083e+06		4.505702e+07		3.676959e+09
4.505702e+07		1.088382e+07		2.246382e+08
3.676959e+09		2.246382e+08		3.240548e+09
-1.058666e+07		6.396750e+06		5.267778e+09
6.396750e+06		-2.471304e+06		4.352936e+07
5.267778e+09		4.352936e+07		3.183246e+09
3.050290e-04		-9.151669e+06		6.585293e+09
-9.151669e+06		1.009487e-05		1.361861e-05
6.585293e+09		1.361861e-05		5.140901e-06
-4.673656e-05		-6.463734e+07		4.942038e+09
-6.463734e+07		1.139112e-05		-2.453933e-06
4.942038e+09		-2.453933e-06		-1.130477e-04
-1.586741e-06		1.759944e-05		4.464218e+09
1.759944e-05		2.485607e-05		5.847217e-05
4.464218e+09		5.847217e-05		4.736241e-05
-1.470535e-05		6.463734e+07		4.942038e+09
6.463734e+07		1.065993e-04		8.140317e-05
4.942038e+09		8.140317e-05		2.080742e-04
-2.747140e-05		9.151669e+06		6.585293e+09
9.151669e+06		-6.956398e-05		8.844621e-06
6.585293e+09		8.844621e-06		2.117604e-04
1.058666e+07		-6.396750e+06		5.267778e+09
-6.396750e+06		2.471304e+06		4.352936e+07
5.267778e+09		4.352936e+07		-3.183246e+09
-7.594083e+06		-4.505702e+07		3.676959e+09
-4.505702e+07		-1.088382e+07		2.246382e+08
3.676959e+09		2.246382e+08		-3.240548e+09
-9.623397e+06		1.533743e-04		3.298032e+09
1.533743e-04		-2.428178e+07		-3.615394e-06
3.298032e+09		-3.615394e-06		-3.266027e+09
-7.594083e+06		4.505702e+07		3.676959e+09
4.505702e+07		-1.088382e+07		-2.246382e+08
3.676959e+09		-2.246382e+08		-3.240548e+09
1.058666e+07		6.396750e+06		5.267778e+09
6.396750e+06		2.471304e+06		-4.352936e+07
5.267778e+09		-4.352936e+07		-3.183246e+09
5.942070e+06		2.272094e+06		5.118928e+08
2.272094e+06		9.505995e+06		4.578715e+08
5.118928e+08		4.578715e+08		-6.427334e+09
2.779981e+06		-1.030805e+06		9.475390e+07
-1.030805e+06		-3.233193e+07		9.916275e+08
9.475390e+07		9.916275e+08		-6.498632e+09
1.736485e+06		6.467805e-05		7.466839e+07
6.467805e-05		-7.235177e+07		-3.753603e-05
7.466839e+07		-3.753603e-05		-6.529151e+09
2.779981e+06		1.030805e+06		9.475390e+07
1.030805e+06		-3.233193e+07		-9.916275e+08
9.475390e+07		-9.916275e+08		-6.498632e+09
5.942070e+06		-2.272094e+06		5.118928e+08
-2.272094e+06		9.505995e+06		-4.578715e+08
5.118928e+08		-4.578715e+08		-6.427334e+09
9.719567e+05		1.238761e+06		6.878989e+08
1.238761e+06		-5.326810e+05		-4.656826e+08
6.878989e+08		-4.656826e+08		4.299144e+09
3.481093e+06		1.494980e+06		2.675279e+08
1.494980e+06		8.491619e+06		-7.996895e+08
2.675279e+08		-7.996895e+08		4.317858e+09
-3.768485e+05		-4.223123e+05		2.666801e+08
-4.223123e+05		1.733417e+07		-1.003151e+09
2.666801e+08		-1.003151e+09		4.328019e+09
7.101279e+05		8.415794e+04		1.923505e+08
8.415794e+04		3.197978e+07		-4.715776e+08
1.923505e+08		-4.715776e+08		4.339426e+09
-1.061631e+06		5.816628e-05		2.455327e+08
5.816628e-05		3.807402e+07		2.558976e-04
2.455327e+08		2.558976e-04		4.340440e+09
7.101279e+05		-8.415794e+04		1.923505e+08
-8.415794e+04		3.197978e+07		4.715776e+08
1.923505e+08		4.715776e+08		4.339426e+09
-3.768485e+05		4.223123e+05		2.666801e+08
4.223123e+05		1.733417e+07		1.003151e+09
2.666801e+08		1.003151e+09		4.328019e+09
3.481093e+06		-1.494980e+06		2.675279e+08
-1.494980e+06		8.491619e+06		7.996895e+08
2.675279e+08		7.996895e+08		4.317858e+09
9.719567e+05		-1.238761e+06		6.878989e+08
-1.238761e+06		-5.326810e+05		4.656826e+08
6.878989e+08		4.656826e+08		4.299144e+09
-4.135624e+06		-3.014104e+06		3.196230e+09
-3.014104e+06		-1.841482e+06		-9.027185e+07
3.196230e+09		-9.027185e+07		3.210361e+09
1.326015e+06		-1.292245e+07		2.119025e+09
-1.292245e+07		1.104840e+07		-5.064867e+08
2.119025e+09		-5.064867e+08		3.244205e+09
1.706813e+06		1.190311e-04		1.903731e+09
1.190311e-04		2.409487e+07		2.402132e-04
1.903731e+09		2.402132e-04		3.259261e+09
1.326015e+06		1.292245e+07		2.119025e+09
1.292245e+07		1.104840e+07		5.064867e+08
2.119025e+09		5.064867e+08		3.244205e+09
-4.135624e+06		3.014104e+06		3.196230e+09
3.014104e+06		-1.841482e+06		9.027185e+07
3.196230e+09		9.027185e+07		3.210361e+09
-2.564557e+06		-4.949024e+06		5.476551e+09
-4.949024e+06		1.591256e+06		-4.582433e+07
5.476551e+09		-4.582433e+07		2.137460e+09
3.791532e+06		-1.463355e+07		4.468174e+09
-1.463355e+07		4.737139e+06		-1.424316e+08
4.468174e+09		-1.424316e+08		2.151040e+09
5.546558e+06		-2.410893e+07		3.847357e+09
-2.410893e+07		6.804224e+06		-2.209690e+08
3.847357e+09		-2.209690e+08		2.162028e+09
6.424309e+06		-1.274149e+07		3.555783e+09
-1.274149e+07		1.183463e+07		-1.222131e+08
3.555783e+09		-1.222131e+08		2.171608e+09
5.088039e+06		7.348321e-05		3.447560e+09
7.348321e-05		1.231022e+07		1.546182e-04
3.447560e+09		1.546182e-04		2.172421e+09
6.424309e+06		1.274149e+07		3.555783e+09
1.274149e+07		1.183463e+07		1.222131e+08
3.555783e+09		1.222131e+08		2.171608e+09
5.546558e+06		2.410893e+07		3.847357e+09
2.410893e+07		6.804224e+06		2.209690e+08
3.847357e+09		2.209690e+08		2.162028e+09
3.791532e+06		1.463355e+07		4.468174e+09
1.463355e+07		4.737139e+06		1.424316e+08
4.468174e+09		1.424316e+08		2.151040e+09
-2.564557e+06		4.949024e+06		5.476551e+09
4.949024e+06		1.591256e+06		4.582433e+07
5.476551e+09		4.582433e+07		2.137460e+09
-3.887376e+06		-6.315954e+06		6.175263e+09
-6.315954e+06		-1.374188e+06		-3.509904e+06
6.175263e+09		-3.509904e+06		1.064693e+09
2.387780e+06		-3.017344e+07		4.573542e+09
-3.017344e+07		1.998160e+06		-9.423663e+07
4.573542e+09		-9.423663e+07		1.078843e+09
3.026481e+06		9.645242e-06		4.128730e+09
9.645242e-06		4.893115e+06		8.307118e-05
4.128730e+09		8.307118e-05		1.085244e+09
2.387780e+06		3.017344e+07		4.573542e+09
3.017344e+07		1.998160e+06		9.423663e+07
4.573542e+09		9.423663e+07		1.078843e+09
-3.887376e+06		6.315954e+06		6.175263e+09
6.315954e+06		-1.374188e+06		3.509904e+06
6.175263e+09		3.509904e+06		1.064693e+09
3.175640e-04		-7.067373e+06		6.805332e+09
-7.067373e+06		-4.381058e-06		9.179069e-05
6.805332e+09		9.179069e-05		-1.002231e-04
5.833333e-05		-2.231742e+07		5.786004e+09
-2.231742e+07		5.227208e-05		-1.612329e-05
5.786004e+09		-1.612329e-05		-6.240571e-05
-1.411352e-04		-3.504139e+07		5.120955e+09
-3.504139e+07		4.627110e-05		-2.715936e-05
5.120955e+09		-2.715936e-05		-7.010519e-05
-1.354488e-04		-1.857610e+07		4.748396e+09
-1.857610e+07		7.958785e-06		4.939666e-05
4.748396e+09		4.939666e-05		-5.111156e-05
-6.472539e-05		1.451778e-04		4.617334e+09
1.451778e-04		2.003396e-05		1.070756e-05
4.617334e+09		1.070756e-05		-6.719097e-05
3.521045e-05		1.857610e+07		4.748396e+09
1.857610e+07		7.791447e-05		1.124649e-04
4.748396e+09		1.124649e-04		3.011746e-05
-6.400426e-05		3.504139e+07		5.120955e+09
3.504139e+07		1.025165e-04		1.289082e-04
5.120955e+09		1.289082e-04		1.545937e-05
1.908338e-06		2.231742e+07		5.786004e+09
2.231742e+07		6.679335e-05		4.616206e-05
5.786004e+09		4.616206e-05		1.811489e-04
-9.829493e-05		7.067373e+06		6.805332e+09
7.067373e+06		-7.297914e-05		1.479287e-05
6.805332e+09		1.479287e-05		2.863337e-04
3.887376e+06		-6.315954e+06		6.175263e+09
-6.315954e+06		1.374188e+06		3.509904e+06
6.175263e+09		3.509904e+06		-1.064693e+09
-2.387780e+06		-3.017344e+07		4.573542e+09
-3.017344e+07		-1.998160e+06		9.423663e+07
4.573542e+09		9.423663e+07		-1.078843e+09
-3.026481e+06		1.538037e-04		4.128730e+09
1.538037e-04		-4.893115e+06		3.089197e-06
4.128730e+09		3.089197e-06		-1.085244e+09
-2.387780e+06		3.017344e+07		4.573542e+09
3.017344e+07		-1.998160e+06		-9.423663e+07
4.573542e+09		-9.423663e+07		-1.078843e+09
3.887376e+06		6.315954e+06		6.175263e+09
6.315954e+06		1.374188e+06		-3.509904e+06
6.175263e+09		-3.509904e+06		-1.064693e+09
2.564557e+06		-4.949024e+06		5.476551e+09
-4.949024e+06		-1.591256e+06		4.582433e+07
5.476551e+09		4.582433e+07		-2.137460e+09
-3.791532e+06		-1.463355e+07		4.468174e+09
-1.463355e+07		-4.737139e+06		1.424316e+08
4.468174e+09		1.424316e+08		-2.151040e+09
-5.546558e+06		-2.410893e+07		3.847357e+09
-2.410893e+07		-6.804224e+06		2.209690e+08
3.847357e+09		2.209690e+08		-2.162028e+09
-6.424309e+06		-1.274149e+07		3.555783e+09
-1.274149e+07		-1.183463e+07		1.222131e+08
3.555783e+09		1.222131e+08		-2.171608e+09
-5.088039e+06		1.937958e-04		3.447560e+09
1.937958e-04		-1.231022e+07		1.348834e-05
3.447560e+09		1.348834e-05		-2.172421e+09
-6.424309e+06		1.274149e+07		3.555783e+09
1.274149e+07		-1.183463e+07		-1.222131e+08
3.555783e+09		-1.222131e+08		-2.171608e+09
-5.546558e+06		2.410893e+07		3.847357e+09
2.410893e+07		-6.804224e+06		-2.209690e+08
3.847357e+09		-2.209690e+08		-2.162028e+09
-3.791532e+06		1.463355e+07		4.468174e+09
1.463355e+07		-4.737139e+06		-1.424316e+08
4.468174e+09		-1.424316e+08		-2.151040e+09
2.564557e+06		4.949024e+06		5.476551e+09
4.949024e+06		-1.591256e+06		-4.582433e+07
5.476551e+09		-4.582433e+07		-2.137460e+09
4.135624e+06		-3.014104e+06		3.196230e+09
-3.014104e+06		1.841482e+06		9.027185e+07
3.196230e+09		9.027185e+07		-3.210361e+09
-1.326015e+06		-1.292245e+07		2.119025e+09
-1.292245e+07		-1.104840e+07		5.064867e+08
2.119025e+09		5.064867e+08		-3.244205e+09
-1.706813e+06		1.245383e-04		1.903731e+09
1.245383e-04		-2.409487e+07		-8.176919e-05
1.903731e+09		-8.176919e-05		-3.259261e+09
-1.326015e+06		1.292245e+07		2.119025e+09
1.292245e+07		-1.104840e+07		-5.064867e+08
2.119025e+09		-5.064867e+08		-3.244205e+09
4.135624e+06		3.014104e+06		3.196230e+09
3.014104e+06		1.841482e+06		-9.027185e+07
3.196230e+09		-9.027185e+07		-3.210361e+09
-9.719567e+05		1.238761e+06		6.878989e+08
1.238761e+06		5.326810e+05		4.656826e+08
6.878989e+08		4.656826e+08		-4.299144e+09
-3.481093e+06		1.494980e+06		2.675279e+08
1.494980e+06		-8.491619e+06		7.996895e+08
2.675279e+08		7.996895e+08		-4.317858e+09
3.768485e+05		-4.223123e+05		2.666801e+08
-4.223123e+05		-1.733417e+07		1.003151e+09
2.666801e+08		1.003151e+09		-4.328019e+09
-7.101279e+05		8.415794e+04		1.923505e+08
8.415794e+04		-3.197978e+07		4.715776e+08
1.923505e+08		4.715776e+08		-4.339426e+09
1.061631e+06		2.927444e-05		2.455327e+08
2.927444e-05		-3.807402e+07		-1.566894e-04
2.455327e+08		-1.566894e-04		-4.340440e+09
-7.101279e+05		-8.415794e+04		1.923505e+08
-8.415794e+04		-3.197978e+07		-4.715776e+08
1.923505e+08		-4.715776e+08		-4.339426e+09
3.768485e+05		4.223123e+05		2.666801e+08
4.223123e+05		-1.733417e+07		-1.003151e+09
2.666801e+08		-1.003151e+09		-4.328019e+09
-3.481093e+06		-1.494980e+06		2.675279e+08
-1.494980e+06		-8.491619e+06		-7.996895e+08
2.675279e+08		-7.996895e+08		-4.317858e+09
-9.719567e+05		-1.238761e+06		6.878989e+08
-1.238761e+06		5.326810e+05		-4.656826e+08
6.878989e+08		-4.656826e+08		-4.299144e+09
-1.266734e+06		7.826440e+05		5.158873e+08
7.826440e+05		-1.912895e+06		-4.621455e+08
5.158873e+08		-4.621455e+08		2.147672e+09
-2.994333e+05		-1.573975e+05		9.438658e+07
-1.573975e+05		7.651338e+06		-1.002405e+09
9.438658e+07		-1.002405e+09		2.163842e+09
2.718478e+05		4.531218e-05		7.407673e+07
4.531218e-05		1.817627e+07		1.427904e-04
7.407673e+07		1.427904e-04		2.170978e+09
-2.994333e+05		1.573975e+05		9.438658e+07
1.573975e+05		7.651338e+06		1.002405e+09
9.438658e+07		1.002405e+09		2.163842e+09
-1.266734e+06		-7.826440e+05		5.158873e+08
-7.826440e+05		-1.912895e+06		4.621455e+08
5.158873e+08		4.621455e+08		2.147672e+09
-2.619165e+06		-1.572183e+06		5.310177e+09
-1.572183e+06		-5.390905e+05		-4.280814e+07
5.310177e+09		-4.280814e+07		1.067296e+09
2.531184e+06		-1.122087e+07		3.671708e+09
-1.122087e+07		2.801417e+06		-2.172467e+08
3.671708e+09		-2.172467e+08		1.080722e+09
3.206891e+06		1.217135e-04		3.267221e+09
1.217135e-04		6.185733e+06		8.437783e-05
3.267221e+09		8.437783e-05		1.086920e+09
2.531184e+06		1.122087e+07		3.671708e+09
1.122087e+07		2.801417e+06		2.172467e+08
3.671708e+09		2.172467e+08		1.080722e+09
-2.619165e+06		1.572183e+06		5.310177e+09
1.572183e+06		-5.390905e+05		4.280814e+07
5.310177e+09		4.280814e+07		1.067296e+09
1.594280e-04		-2.496917e+06		6.641030e+09
-2.496917e+06		9.887974e-05		6.187207e-05
6.641030e+09		6.187207e-05		-5.480344e-05
8.748502e-05		-1.634678e+07		4.945315e+09
-1.634678e+07		1.307216e-04		-2.527353e-05
4.945315e+09		-2.527353e-05		4.414294e-05
-3.108889e-04		6.408346e-05		4.435443e+09
6.408346e-05		-1.715649e-06		2.132967e-05
4.435443e+09		2.132967e-05		-1.451269e-04
-1.263753e-04		1.634678e+07		4.945315e+09
1.634678e+07		1.334413e-04		7.138157e-05
4.945315e+09		7.138157e-05		1.086921e-04
-6.488850e-05		2.496917e+06		6.641030e+09
2.496917e+06		-1.106778e-05		9.814429e-05
6.641030e+09		9.814429e-05		3.691092e-04
2.619165e+06		-1.572183e+06		5.310177e+09
-1.572183e+06		5.390905e+05		4.280814e+07
5.310177e+09		4.280814e+07		-1.067296e+09
-2.531184e+06		-1.122087e+07		3.671708e+09
-1.122087e+07		-2.801417e+06		2.172467e+08
3.671708e+09		2.172467e+08		-1.080722e+09
-3.206891e+06		2.706208e-04		3.267221e+09
2.706208e-04		-6.185733e+06		-4.458055e-05
3.267221e+09		-4.458055e-05		-1.086920e+09
-2.531184e+06		1.122087e+07		3.671708e+09
1.122087e+07		-2.801417e+06		-2.172467e+08
3.671708e+09		-2.172467e+08		-1.080722e+09
2.619165e+06		1.572183e+06		5.310177e+09
1.572183e+06		5.390905e+05		-4.280814e+07
5.310177e+09		-4.280814e+07		-1.067296e+09
1.266734e+06		7.826440e+05		5.158873e+08
7.826440e+05		1.912895e+06		4.621455e+08
5.158873e+08		4.621455e+08		-2.147672e+09
2.994333e+05		-1.573975e+05		9.438658e+07
-1.573975e+05		-7.651338e+06		1.002405e+09
9.438658e+07		1.002405e+09		-2.163842e+09
-2.718478e+05		-4.327793e-05		7.407673e+07
-4.327793e-05		-1.817627e+07		-1.793206e-04
7.407673e+07		-1.793206e-04		-2.170978e+09
2.994333e+05		1.573975e+05		9.438658e+07
1.573975e+05		-7.651338e+06		-1.002405e+09
9.438658e+07		-1.002405e+09		-2.163842e+09
1.266734e+06		-7.826440e+05		5.158873e+08
-7.826440e+05		1.912895e+06		-4.621455e+08
5.158873e+08		-4.621455e+08		-2.147672e+09
3.616028e-04		6.391606e-05		6.893685e+08
6.391606e-05		4.586391e-04		-4.654792e+08
6.893685e+08		-4.654792e+08		-6.863400e-04
1.100991e-04		1.502199e-04		2.677521e+08
1.502199e-04		2.468266e-04		-8.016162e+08
2.677521e+08		-8.016162e+08		-7.868186e-04
-8.732006e-04		1.632009e-04		2.663214e+08
1.632009e-04		-3.066813e-04		-1.006499e+09
2.663214e+08		-1.006499e+09		-1.104679e-03
-6.847456e-04		-7.946351e-05		1.907148e+08
-7.946351e-05		-5.283793e-04		-4.737877e+08
1.907148e+08		-4.737877e+08		-1.197066e-03
-3.724094e-04		1.022056e-05		2.451085e+08
1.022056e-05		-4.528682e-04		4.966184e-05
2.451085e+08		4.966184e-05		-9.882897e-04
-3.009606e-04		-4.869519e-05		1.907148e+08
-4.869519e-05		-1.231991e-04		4.737877e+08
1.907148e+08		4.737877e+08		-9.329561e-04
-3.881264e-04		-1.909774e-05		2.663214e+08
-1.909774e-05		6.878842e-05		1.006499e+09
2.663214e+08		1.006499e+09		-7.906035e-04
-4.457301e-04		-6.675922e-05		2.677521e+08
-6.675922e-05		2.133939e-05		8.016162e+08
2.677521e+08		8.016162e+08		-7.231310e-04
-3.140969e-04		-1.004042e-04		6.893685e+08
-1.004042e-04		1.543704e-04		4.654792e+08
6.893685e+08		4.654792e+08		-1.801550e-04
-1.541418e-04		-2.417559e-04		3.204872e+09
-2.417559e-04		-1.038928e-04		-8.821076e+07
3.204872e+09		-8.821076e+07		-6.896500e-04
-2.224082e-04		1.351042e-04		2.116155e+09
1.351042e-04		1.409091e-06		-5.043506e+08
2.116155e+09		-5.043506e+08		-5.554408e-04
-1.562261e-04		1.213258e-04		1.895027e+09
1.213258e-04		-1.022764e-04		6.595510e-05
1.895027e+09		6.595510e-05		-7.007150e-04
2.655829e-05		-5.368662e-05		2.116155e+09
-5.368662e-05		1.325940e-04		5.043506e+08
2.116155e+09		5.043506e+08		-3.342275e-04
-4.667039e-04		-2.362519e-04		3.204872e+09
-2.362519e-04		-6.738631e-05		8.821076e+07
3.204872e+09		8.821076e+07		-1.882091e-04
-2.569915e-04		7.474242e-05		5.493093e+09
7.474242e-05		-4.943728e-05		-4.439345e+07
5.493093e+09		-4.439345e+07		-2.954733e-04
-8.725037e-05		4.065195e-05		4.476078e+09
4.065195e-05		1.258221e-04		-1.391625e+08
4.476078e+09		-1.391625e+08		-3.244812e-04
-2.888187e-04		3.297513e-05		3.845065e+09
3.297513e-05		1.575635e-05		-2.170465e+08
3.845065e+09		-2.170465e+08		-5.353512e-04
-3.193825e-04		3.101915e-04		3.545974e+09
3.101915e-04		-5.889451e-05		-1.203115e+08
3.545974e+09		-1.203115e+08		-4.414739e-04
-2.022677e-04		1.868977e-04		3.434636e+09
1.868977e-04		1.034203e-04		7.387809e-05
3.434636e+09		7.387809e-05		-3.812849e-04
-2.586459e-04		-5.478777e-05		3.545974e+09
-5.478777e-05		2.082973e-05		1.203115e+08
3.545974e+09		1.203115e+08		-4.090741e-04
-2.112143e-04		1.271010e-04		3.845065e+09
1.271010e-04		-8.761312e-05		2.170465e+08
3.845065e+09		2.170465e+08		-4.357938e-04
-1.810101e-04		-2.110888e-04		4.476078e+09
-2.110888e-04		3.938680e-06		1.391625e+08
4.476078e+09		1.391625e+08		-2.159346e-04
-1.108139e-04		-5.278140e-04		5.493093e+09
-5.278140e-04		9.551621e-05		4.439345e+07
5.493093e+09		4.439345e+07		4.157238e-05
1.203559e-04		7.397370e-05		6.195305e+09
7.397370e-05		1.922552e-04		-2.551693e+06
6.195305e+09		-2.551693e+06		-2.131797e-06
-2.585179e-04		1.249251e-04		4.573343e+09
1.249251e-04		1.575617e-05		-9.169743e+07
4.573343e+09		-9.169743e+07		-2.578232e-04
-8.225463e-04		2.946449e-04		4.116347e+09
2.946449e-04		-9.506394e-05		7.582875e-05
4.116347e+09		7.582875e-05		-3.493121e-04
-2.016748e-04		8.703086e-06		4.573343e+09
8.703086e-06		5.151692e-05		9.169743e+07
4.573343e+09		9.169743e+07		-1.466367e-05
1.908056e-04		-4.630238e-04		6.195305e+09
-4.630238e-04		1.380435e-04		2.551693e+06
6.195305e+09		2.551693e+06		3.599208e-04
3.521834e-05		-3.884266e-05		6.828817e+09
-3.884266e-05		2.805859e-04		6.417948e-05
6.828817e+09		6.417948e-05		1.608776e-04
7.518509e-05		3.596183e-05		5.800243e+09
3.596183e-05		1.827419e-04		1.925899e-05
5.800243e+09		1.925899e-05		2.561742e-05
1.107474e-04		2.168365e-04		5.123141e+09
2.168365e-04		9.353765e-05		9.459900e-06
5.123141e+09		9.459900e-06		-4.143181e-05
-1.134323e-04		-5.547058e-05		4.741103e+09
-5.547058e-05		1.362382e-04		-2.049608e-06
4.741103e+09		-2.049608e-06		-1.622317e-05
-4.894823e-04		2.768311e-04		4.606529e+09
2.768311e-04		6.669948e-05		3.975848e-05
4.606529e+09		3.975848e-05		4.668778e-05
-2.357808e-04		2.143035e-04		4.741103e+09
2.143035e-04		9.084081e-05		9.731087e-05
4.741103e+09		9.731087e-05		2.265479e-04
-3.840756e-05		-1.047391e-05		5.123141e+09
-1.047391e-05		2.721405e-04		1.680408e-05
5.123141e+09		1.680408e-05		4.609362e-04
-1.050941e-04		1.305676e-05		5.800243e+09
1.305676e-05		1.336483e-04		6.504300e-05
5.800243e+09		6.504300e-05		3.638989e-04
-1.338399e-04		-4.012405e-04		6.828817e+09
-4.012405e-04		-4.646044e-05		1.237710e-04
6.828817e+09		1.237710e-04		2.992824e-04
-3.727910e-05		-6.714607e-05		6.195305e+09
-6.714607e-05		1.239961e-04		2.551693e+06
6.195305e+09		2.551693e+06		1.333244e-04
1.229774e-04		1.798488e-04		4.573343e+09
1.798488e-04		1.495901e-04		9.169743e+07
4.573343e+09		9.169743e+07		2.351329e-04
1.166960e-04		1.376572e-05		4.116347e+09
1.376572e-05		2.416100e-04		4.851259e-06
4.116347e+09		4.851259e-06		2.555847e-04
-3.933538e-04		4.757070e-05		4.573343e+09
4.757070e-05		-4.285364e-06		-9.169743e+07
4.573343e+09		-9.169743e+07		2.050418e-04
1.436149e-04		6.145881e-05		6.195305e+09
6.145881e-05		2.185020e-04		-2.551693e+06
6.195305e+09		-2.551693e+06		5.612224e-04
-2.843593e-04		-1.490155e-04		5.493093e+09
-1.490155e-04		-5.054451e-05		4.439345e+07
5.493093e+09		4.439345e+07		1.195222e-04
-1.666179e-04		1.406570e-04		4.476078e+09
1.406570e-04		2.084067e-05		1.391625e+08
4.476078e+09		1.391625e+08		2.842434e-04
-3.083337e-04		2.283786e-05		3.845065e+09
2.283786e-05		7.465540e-05		2.170465e+08
3.845065e+09		2.170465e+08		3.399933e-04
-3.730998e-04		-3.540708e-05		3.545974e+09
-3.540708e-05		-2.304523e-05		1.203115e+08
3.545974e+09		1.203115e+08		1.727641e-04
-2.715008e-04		3.722992e-04		3.434636e+09
3.722992e-04		-2.154836e-05		-9.237882e-05
3.434636e+09		-9.237882e-05		4.177447e-05
-1.418864e-04		3.117898e-05		3.545974e+09
3.117898e-05		1.991563e-05		-1.203115e+08
3.545974e+09		-1.203115e+08		1.593716e-04
5.689141e-05		-5.089575e-05		3.845065e+09
-5.089575e-05		3.253302e-05		-2.170465e+08
3.845065e+09		-2.170465e+08		3.129556e-04
1.601211e-05		7.071160e-05		4.476078e+09
7.071160e-05		1.671776e-04		-1.391625e+08
4.476078e+09		-1.391625e+08		4.196912e-04
2.991380e-04		1.007820e-04		5.493093e+09
1.007820e-04		4.106840e-04		-4.439345e+07
5.493093e+09		-4.439345e+07		7.584058e-04
-2.177572e-04		7.081050e-05		3.204872e+09
7.081050e-05		-5.786866e-05		8.821076e+07
3.204872e+09		8.821076e+07		3.997087e-04
-5.233367e-04		3.673327e-05		2.116155e+09
3.673327e-05		-5.363254e-05		5.043506e+08
2.116155e+09		5.043506e+08		3.112778e-04
-8.088350e-05		1.102475e-04		1.895027e+09
1.102475e-04		9.798398e-05		1.084199e-05
1.895027e+09		1.084199e-05		3.881827e-04
7.935942e-04		2.199090e-05		2.116155e+09
2.199090e-05		2.765730e-04		-5.043506e+08
2.116155e+09		-5.043506e+08		8.322597e-04
-5.919319e-04		8.178128e-05		3.204872e+09
8.178128e-05		-1.671473e-04		-8.821076e+07
3.204872e+09		-8.821076e+07		5.917698e-04
-1.428472e-04		2.495135e-05		6.893685e+08
2.495135e-05		1.938045e-04		4.654792e+08
6.893685e+08		4.654792e+08		6.996766e-04
4.517818e-04		-2.642905e-04		2.677521e+08
-2.642905e-04		4.441720e-04		8.016162e+08
2.677521e+08		8.016162e+08		8.766949e-04
-1.730300e-04		-1.145053e-04		2.663214e+08
-1.145053e-04		1.174826e-04		1.006499e+09
2.663214e+08		1.006499e+09		5.850792e-04
1.724688e-04		2.906690e-04		1.907148e+08
2.906690e-04		1.457119e-04		4.737877e+08
1.907148e+08		4.737877e+08		6.068647e-04
2.929294e-04		-7.382871e-05		2.451085e+08
-7.382871e-05		2.583424e-04		-2.007559e-05
2.451085e+08		-2.007559e-05		7.995050e-04
4.461454e-04		4.306722e-04		1.907148e+08
4.306722e-04		3.666021e-04		-4.737877e+08
1.907148e+08		-4.737877e+08		1.002833e-03
7.090713e-04		2.050268e-04		2.663214e+08
2.050268e-04		4.529133e-04		-1.006499e+09
2.663214e+08		-1.006499e+09		1.172325e-03
2.407013e-04		-1.834074e-04		2.677521e+08
-1.834074e-04		3.669830e-04		-8.016162e+08
2.677521e+08		-8.016162e+08		1.200333e-03
-1.775334e-04		2.092297e-04		6.893685e+08
2.092297e-04		2.181195e-04		-4.654792e+08
6.893685e+08		-4.654792e+08		1.049250e-03
1.266734e+06		-7.826440e+05		5.158873e+08
-7.826440e+05		1.912895e+06		-4.621455e+08
5.158873e+08		-4.621455e+08		-2.147672e+09
2.994333e+05		1.573975e+05		9.438658e+07
1.573975e+05		-7.651338e+06		-1.002405e+09
9.438658e+07		-1.002405e+09		-2.163842e+09
-2.718478e+05		2.540884e-04		7.407673e+07
2.540884e-04		-1.817627e+07		6.813556e-05
7.407673e+07		6.813556e-05		-2.170978e+09
2.994333e+05		-1.573975e+05		9.438658e+07
-1.573975e+05		-7.651338e+06		1.002405e+09
9.438658e+07		1.002405e+09		-2.163842e+09
1.266734e+06		7.826440e+05		5.158873e+08
7.826440e+05		1.912895e+06		4.621455e+08
5.158873e+08		4.621455e+08		-2.147672e+09
2.619165e+06		1.572183e+06		5.310177e+09
1.572183e+06		5.390905e+05		-4.280814e+07
5.310177e+09		-4.280814e+07		-1.067296e+09
-2.531184e+06		1.122087e+07		3.671708e+09
1.122087e+07		-2.801417e+06		-2.172467e+08
3.671708e+09		-2.172467e+08		-1.080722e+09
-3.206891e+06		4.780554e-05		3.267221e+09
4.780554e-05		-6.185733e+06		1.393259e-06
3.267221e+09		1.393259e-06		-1.086920e+09
-2.531184e+06		-1.122087e+07		3.671708e+09
-1.122087e+07		-2.801417e+06		2.172467e+08
3.671708e+09		2.172467e+08		-1.080722e+09
2.619165e+06		-1.572183e+06		5.310177e+09
-1.572183e+06		5.390905e+05		4.280814e+07
5.310177e+09		4.280814e+07		-1.067296e+09
3.359513e-06		2.496917e+06		6.641030e+09
2.496917e+06		1.867307e-04		1.977058e-05
6.641030e+09		1.977058e-05		6.962568e-05
-2.884655e-04		1.634678e+07		4.945315e+09
1.634678e+07		5.524117e-05		-2.227807e-06
4.945315e+09		-2.227807e-06		-1.962669e-05
-2.684196e-04		1.256343e-04		4.435443e+09
1.256343e-04		9.419712e-05		6.164022e-05
4.435443e+09		6.164022e-05		1.999568e-04
-6.833127e-05		-1.634678e+07		4.945315e+09
-1.634678e+07		2.888978e-04		2.703737e-05
4.945315e+09		2.703737e-05		3.157854e-04
-3.098836e-05		-2.496917e+06		6.641030e+09
-2.496917e+06		8.422649e-08		9.051667e-05
6.641030e+09		9.051667e-05		3.687367e-04
-2.619165e+06		1.572183e+06		5.310177e+09
1.572183e+06		-5.390905e+05		4.280814e+07
5.310177e+09		4.280814e+07		1.067296e+09
2.531184e+06		1.122087e+07		3.671708e+09
1.122087e+07		2.801417e+06		2.172467e+08
3.671708e+09		2.172467e+08		1.080722e+09
3.206891e+06		2.451109e-04		3.267221e+09
2.451109e-04		6.185733e+06		-3.076158e-05
3.267221e+09		-3.076158e-05		1.086920e+09
2.531184e+06		-1.122087e+07		3.671708e+09
-1.122087e+07		2.801417e+06		-2.172467e+08
3.671708e+09		-2.172467e+08		1.080722e+09
-2.619165e+06		-1.572183e+06		5.310177e+09
-1.572183e+06		-5.390905e+05		-4.280814e+07
5.310177e+09		-4.280814e+07		1.067296e+09
-1.266734e+06		-7.826440e+05		5.158873e+08
-7.826440e+05		-1.912895e+06		4.621455e+08
5.158873e+08		4.621455e+08		2.147672e+09
-2.994333e+05		1.573975e+05		9.438658e+07
1.573975e+05		7.651338e+06		1.002405e+09
9.438658e+07		1.002405e+09		2.163842e+09
2.718478e+05		5.219584e-05		7.407673e+07
5.219584e-05		1.817627e+07		1.524612e-04
7.407673e+07		1.524612e-04		2.170978e+09
-2.994333e+05		-1.573975e+05		9.438658e+07
-1.573975e+05		7.651338e+06		-1.002405e+09
9.438658e+07		-1.002405e+09		2.163842e+09
-1.266734e+06		7.826440e+05		5.158873e+08
7.826440e+05		-1.912895e+06		-4.621455e+08
5.158873e+08		-4.621455e+08		2.147672e+09
-9.719567e+05		-1.238761e+06		6.878989e+08
-1.238761e+06		5.326810e+05		-4.656826e+08
6.878989e+08		-4.656826e+08		-4.299144e+09
-3.481093e+06		-1.494980e+06		2.675279e+08
-1.494980e+06		-8.491619e+06		-7.996895e+08
2.675279e+08		-7.996895e+08		-4.317858e+09
3.768485e+05		4.223123e+05		2.666801e+08
4.223123e+05		-1.733417e+07		-1.003151e+09
2.666801e+08		-1.003151e+09		-4.328019e+09
-7.101279e+05		-8.415794e+04		1.923505e+08
-8.415794e+04		-3.197978e+07		-4.715776e+08
1.923505e+08		-4.715776e+08		-4.339426e+09
1.061631e+06		2.565554e-04		2.455327e+08
2.565554e-04		-3.807402e+07		-1.320876e-04
2.455327e+08		-1.320876e-04		-4.340440e+09
-7.101279e+05		8.415794e+04		1.923505e+08
8.415794e+04		-3.197978e+07		4.715776e+08
1.923505e+08		4.715776e+08		-4.339426e+09
3.768485e+05		-4.223123e+05		2.666801e+08
-4.223123e+05		-1.733417e+07		1.003151e+09
2.666801e+08		1.003151e+09		-4.328019e+09
-3.481093e+06		1.494980e+06		2.675279e+08
1.494980e+06		-8.491619e+06		7.996895e+08
2.675279e+08		7.996895e+08		-4.317858e+09
-9.719567e+05		1.238761e+06		6.878989e+08
1.238761e+06		5.326810e+05		4.656826e+08
6.878989e+08		4.656826e+08		-4.299144e+09
4.135624e+06		3.014104e+06		3.196230e+09
3.014104e+06		1.841482e+06		-9.027185e+07
3.196230e+09		-9.027185e+07		-3.210361e+09
-1.326015e+06		1.292245e+07		2.119025e+09
1.292245e+07		-1.104840e+07		-5.064867e+08
2.119025e+09		-5.064867e+08		-3.244205e+09
-1.706813e+06		1.089573e-04		1.903731e+09
1.089573e-04		-2.409487e+07		-6.128894e-05
1.903731e+09		-6.128894e-05		-3.259261e+09
-1.326015e+06		-1.292245e+07		2.119025e+09
-1.292245e+07		-1.104840e+07		5.064867e+08
2.119025e+09		5.064867e+08		-3.244205e+09
4.135624e+06		-3.014104e+06		3.196230e+09
-3.014104e+06		1.841482e+06		9.027185e+07
3.196230e+09		9.027185e+07		-3.210361e+09
2.564557e+06		4.949024e+06		5.476551e+09
4.949024e+06		-1.591256e+06		-4.582433e+07
5.476551e+09		-4.582433e+07		-2.137460e+09
-3.791532e+06		1.463355e+07		4.468174e+09
1.463355e+07		-4.737139e+06		-1.424316e+08
4.468174e+09		-1.424316e+08		-2.151040e+09
-5.546558e+06		2.410893e+07		3.847357e+09
2.410893e+07		-6.804224e+06		-2.209690e+08
3.847357e+09		-2.209690e+08		-2.162028e+09
-6.424309e+06		1.274149e+07		3.555783e+09
1.274149e+07		-1.183463e+07		-1.222131e+08
3.555783e+09		-1.222131e+08		-2.171608e+09
-5.088039e+06		2.919557e-05		3.447560e+09
2.919557e-05		-1.231022e+07		-6.127264e-05
3.447560e+09		-6.127264e-05		-2.172421e+09
-6.424309e+06		-1.274149e+07		3.555783e+09
-1.274149e+07		-1.183463e+07		1.222131e+08
3.555783e+09		1.222131e+08		-2.171608e+09
-5.546558e+06		-2.410893e+07		3.847357e+09
-2.410893e+07		-6.804224e+06		2.209690e+08
3.847357e+09		2.209690e+08		-2.162028e+09
-3.791532e+06		-1.463355e+07		4.468174e+09
-1.463355e+07		-4.737139e+06		1.424316e+08
4.468174e+09		1.424316e+08		-2.151040e+09
2.564557e+06		-4.949024e+06		5.476551e+09
-4.949024e+06		-1.591256e+06		4.582433e+07
5.476551e+09		4.582433e+07		-2.137460e+09
3.887376e+06		6.315954e+06		6.175263e+09
6.315954e+06		1.374188e+06		-3.509904e+06
6.175263e+09		-3.509904e+06		-1.064693e+09
-2.387780e+06		3.017344e+07		4.573542e+09
3.017344e+07		-1.998160e+06		-9.423663e+07
4.573542e+09		-9.423663e+07		-1.078843e+09
-3.026481e+06		1.599011e-05		4.128730e+09
1.599011e-05		-4.893115e+06		-2.005650e-05
4.128730e+09		-2.005650e-05		-1.085244e+09
-2.387780e+06		-3.017344e+07		4.573542e+09
-3.017344e+07		-1.998160e+06		9.423663e+07
4.573542e+09		9.423663e+07		-1.078843e+09
3.887376e+06		-6.315954e+06		6.175263e+09
-6.315954e+06		1.374188e+06		3.509904e+06
6.175263e+09		3.509904e+06		-1.064693e+09
-1.492833e-04		7.067373e+06		6.805332e+09
7.067373e+06		7.540628e-06		3.953424e-05
6.805332e+09		3.953424e-05		-1.662197e-04
-2.747158e-04		2.231742e+07		5.786004e+09
2.231742e+07		4.683709e-05		7.922738e-05
5.786004e+09		7.922738e-05		-6.397441e-05
-3.650375e-04		3.504139e+07		5.120955e+09
3.504139e+07		1.214038e-04		-1.964770e-06
5.120955e+09		-1.964770e-06		3.606873e-05
-3.973695e-04		1.857610e+07		4.748396e+09
1.857610e+07		6.951683e-06		8.199517e-05
4.748396e+09		8.199517e-05		5.144626e-06
-1.727316e-04		3.420033e-04		4.617334e+09
3.420033e-04		-1.878994e-05		8.394552e-05
4.617334e+09		8.394552e-05		8.175941e-05
-6.644381e-05		-1.857610e+07		4.748396e+09
-1.857610e+07		1.749755e-04		-4.013244e-06
4.748396e+09		-4.013244e-06		1.437254e-04
4.073523e-05		-3.504139e+07		5.120955e+09
-3.504139e+07		3.710392e-04		7.622483e-05
5.120955e+09		7.622483e-05		2.146661e-04
3.293395e-05		-2.231742e+07		5.786004e+09
-2.231742e+07		2.227330e-04		6.696589e-05
5.786004e+09		6.696589e-05		3.387816e-04
-8.940639e-05		-7.067373e+06		6.805332e+09
-7.067373e+06		2.769782e-05		1.032748e-04
6.805332e+09		1.032748e-04		3.989395e-04
-3.887376e+06		6.315954e+06		6.175263e+09
6.315954e+06		-1.374188e+06		3.509904e+06
6.175263e+09		3.509904e+06		1.064693e+09
2.387780e+06		3.017344e+07		4.573542e+09
3.017344e+07		1.998160e+06		9.423663e+07
4.573542e+09		9.423663e+07		1.078843e+09
3.026481e+06		1.885538e-04		4.128730e+09
1.885538e-04		4.893115e+06		6.625894e-05
4.128730e+09		6.625894e-05		1.085244e+09
2.387780e+06		-3.017344e+07		4.573542e+09
-3.017344e+07		1.998160e+06		-9.423663e+07
4.573542e+09		-9.423663e+07		1.078843e+09
-3.887376e+06		-6.315954e+06		6.175263e+09
-6.315954e+06		-1.374188e+06		-3.509904e+06
6.175263e+09		-3.509904e+06		1.064693e+09
-2.564557e+06		4.949024e+06		5.476551e+09
4.949024e+06		1.591256e+06		4.582433e+07
5.476551e+09		4.582433e+07		2.137460e+09
3.791532e+06		1.463355e+07		4.468174e+09
1.463355e+07		4.737139e+06		1.424316e+08
4.468174e+09		1.424316e+08		2.151040e+09
5.546558e+06		2.410893e+07		3.847357e+09
2.410893e+07		6.804224e+06		2.209690e+08
3.847357e+09		2.209690e+08		2.162028e+09
6.424309e+06		1.274149e+07		3.555783e+09
1.274149e+07		1.183463e+07		1.222131e+08
3.555783e+09		1.222131e+08		2.171608e+09
5.088039e+06		8.710852e-05		3.447560e+09
8.710852e-05		1.231022e+07		6.285403e-05
3.447560e+09		6.285403e-05		2.172421e+09
6.424309e+06		-1.274149e+07		3.555783e+09
-1.274149e+07		1.183463e+07		-1.222131e+08
3.555783e+09		-1.222131e+08		2.171608e+09
5.546558e+06		-2.410893e+07		3.847357e+09
-2.410893e+07		6.804224e+06		-2.209690e+08
3.847357e+09		-2.209690e+08		2.162028e+09
3.791532e+06		-1.463355e+07		4.468174e+09
-1.463355e+07		4.737139e+06		-1.424316e+08
4.468174e+09		-1.424316e+08		2.151040e+09
-2.564557e+06		-4.949024e+06		5.476551e+09
-4.949024e+06		1.591256e+06		-4.582433e+07
5.476551e+09		-4.582433e+07		2.137460e+09
-4.135624e+06		3.014104e+06		3.196230e+09
3.014104e+06		-1.841482e+06		9.027185e+07
3.196230e+09		9.027185e+07		3.210361e+09
1.326015e+06		1.292245e+07		2.119025e+09
1.292245e+07		1.104840e+07		5.064867e+08
2.119025e+09		5.064867e+08		3.244205e+09
1.706813e+06		1.612108e-04		1.903731e+09
1.612108e-04		2.409487e+07		6.340165e-05
1.903731e+09		6.340165e-05		3.259261e+09
1.326015e+06		-1.292245e+07		2.119025e+09
-1.292245e+07		1.104840e+07		-5.064867e+08
2.119025e+09		-5.064867e+08		3.244205e+09
-4.135624e+06		-3.014104e+06		3.196230e+09
-3.014104e+06		-1.841482e+06		-9.027185e+07
3.196230e+09		-9.027185e+07		3.210361e+09
9.719567e+05		-1.238761e+06		6.878989e+08
-1.238761e+06		-5.326810e+05		4.656826e+08
6.878989e+08		4.656826e+08		4.299144e+09
3.481093e+06		-1.494980e+06		2.675279e+08
-1.494980e+06		8.491619e+06		7.996895e+08
2.675279e+08		7.996895e+08		4.317858e+09
-3.768485e+05		4.223123e+05		2.666801e+08
4.223123e+05		1.733417e+07		1.003151e+09
2.666801e+08		1.003151e+09		4.328019e+09
7.101279e+05		-8.415794e+04		1.923505e+08
-8.415794e+04		3.197978e+07		4.715776e+08
1.923505e+08		4.715776e+08		4.339426e+09
-1.061631e+06		1.545058e-05		2.455327e+08
1.545058e-05		3.807402e+07		2.116561e-04
2.455327e+08		2.116561e-04		4.340440e+09
7.101279e+05		8.415794e+04		1.923505e+08
8.415794e+04		3.197978e+07		-4.715776e+08
1.923505e+08		-4.715776e+08		4.339426e+09
-3.768485e+05		-4.223123e+05		2.666801e+08
-4.223123e+05		1.733417e+07		-1.003151e+09
2.666801e+08		-1.003151e+09		4.328019e+09
3.481093e+06		1.494980e+06		2.675279e+08
1.494980e+06		8.491619e+06		-7.996895e+08
2.675279e+08		-7.996895e+08		4.317858e+09
9.719567e+05		1.238761e+06		6.878989e+08
1.238761e+06		-5.326810e+05		-4.656826e+08
6.878989e+08		-4.656826e+08		4.299144e+09
5.942070e+06		-2.272094e+06		5.118928e+08
-2.272094e+06		9.505995e+06		-4.578715e+08
5.118928e+08		-4.578715e+08		-6.427334e+09
2.779981e+06		1.030805e+06		9.475390e+07
1.030805e+06		-3.233193e+07		-9.916275e+08
9.475390e+07		-9.916275e+08		-6.498632e+09
1.736485e+06		-1.483713e-05		7.466839e+07
-1.483713e-05		-7.235177e+07		-2.853423e-04
7.466839e+07		-2.853423e-04		-6.529151e+09
2.779981e+06		-1.030805e+06		9.475390e+07
-1.030805e+06		-3.233193e+07		9.916275e+08
9.475390e+07		9.916275e+08		-6.498632e+09
5.942070e+06		2.272094e+06		5.118928e+08
2.272094e+06		9.505995e+06		4.578715e+08
5.118928e+08		4.578715e+08		-6.427334e+09
1.058666e+07		6.396750e+06		5.267778e+09
6.396750e+06		2.471304e+06		-4.352936e+07
5.267778e+09		-4.352936e+07		-3.183246e+09
-7.594083e+06		4.505702e+07		3.676959e+09
4.505702e+07		-1.088382e+07		-2.246382e+08
3.676959e+09		-2.246382e+08		-3.240548e+09
-9.623397e+06		1.541013e-04		3.298032e+09
1.541013e-04		-2.428178e+07		-1.231320e-04
3.298032e+09		-1.231320e-04		-3.266027e+09
-7.594083e+06		-4.505702e+07		3.676959e+09
-4.505702e+07		-1.088382e+07		2.246382e+08
3.676959e+09		2.246382e+08		-3.240548e+09
1.058666e+07		-6.396750e+06		5.267778e+09
-6.396750e+06		2.471304e+06		4.352936e+07
5.267778e+09		4.352936e+07		-3.183246e+09
-1.722398e-04		9.151669e+06		6.585293e+09
9.151669e+06		-6.452634e-05		2.467391e-04
6.585293e+09		2.467391e-04		-2.917647e-04
-1.435871e-04		6.463734e+07		4.942038e+09
6.463734e+07		8.264557e-05		1.581772e-05
4.942038e+09		1.581772e-05		-5.520135e-05
-1.901733e-04		4.136923e-05		4.464218e+09
4.136923e-05		-4.624599e-06		1.018035e-04
4.464218e+09		1.018035e-04		-1.074746e-05
-5.724374e-05		-6.463734e+07		4.942038e+09
-6.463734e+07		3.125001e-04		5.153771e-05
4.942038e+09		5.153771e-05		2.258141e-04
2.045736e-04		-9.151669e+06		6.585293e+09
-9.151669e+06		1.289358e-04		6.517998e-05
6.585293e+09		6.517998e-05		4.218370e-04
-1.058666e+07		6.396750e+06		5.267778e+09
6.396750e+06		-2.471304e+06		4.352936e+07
5.267778e+09		4.352936e+07		3.183246e+09
7.594083e+06		4.505702e+07		3.676959e+09
4.505702e+07		1.088382e+07		2.246382e+08
3.676959e+09		2.246382e+08		3.240548e+09
9.623397e+06		1.464923e-04		3.298032e+09
1.464923e-04		2.428178e+07		1.282208e-04
3.298032e+09		1.282208e-04		3.266027e+09
7.594083e+06		-4.505702e+07		3.676959e+09
-4.505702e+07		1.088382e+07		-2.246382e+08
3.676959e+09		-2.246382e+08		3.240548e+09
-1.058666e+07		-6.396750e+06		5.267778e+09
-6.396750e+06		-2.471304e+06		-4.352936e+07
5.267778e+09		-4.352936e+07		3.183246e+09
-5.942070e+06		-2.272094e+06		5.118928e+08
-2.272094e+06		-9.505995e+06		4.578715e+08
5.118928e+08		4.578715e+08		6.427334e+09
-2.779981e+06		1.030805e+06		9.475390e+07
1.030805e+06		3.233193e+07		9.916275e+08
9.475390e+07		9.916275e+08		6.498632e+09
-1.736485e+06		-2.453075e-05		7.466839e+07
-2.453075e-05		7.235177e+07		6.604940e-05
7.466839e+07		6.604940e-05		6.529151e+09
-2.779981e+06		-1.030805e+06		9.475390e+07
-1.030805e+06		3.233193e+07		-9.916275e+08
9.475390e+07		-9.916275e+08		6.498632e+09
-5.942070e+06		2.272094e+06		5.118928e+08
2.272094e+06		-9.505995e+06		-4.578715e+08
5.118928e+08		-4.578715e+08		6.427334e+09
2.807688e+06		-2.254927e+06		6.837434e+08
-2.254927e+06		7.950323e+06		-4.649818e+08
6.837434e+08		-4.649818e+08		-8.565626e+09
-8.331557e+06		-4.335719e+06		2.691587e+08
-4.335719e+06		-2.762083e+07		-7.927343e+08
2.691587e+08		-7.927343e+08		-8.637240e+09
2.856361e+06		1.530589e+06		2.708663e+08
1.530589e+06		-5.834440e+07		-9.915974e+08
2.708663e+08		-9.915974e+08		-8.676152e+09
7.071274e+05		-5.966398e+05		2.012979e+08
-5.966398e+05		-9.993403e+07		-4.636149e+08
2.012979e+08		-4.636149e+08		-8.712275e+09
4.362259e+06		-6.796140e-05		2.506344e+08
-6.796140e-05		-1.199218e+08		-4.617721e-04
2.506344e+08		-4.617721e-04		-8.723913e+09
7.071274e+05		5.966398e+05		2.012979e+08
5.966398e+05		-9.993403e+07		4.636149e+08
2.012979e+08		4.636149e+08		-8.712275e+09
2.856361e+06		-1.530589e+06		2.708663e+08
-1.530589e+06		-5.834440e+07		9.915974e+08
2.708663e+08		9.915974e+08		-8.676152e+09
-8.331557e+06		4.335719e+06		2.691587e+08
4.335719e+06		-2.762083e+07		7.927343e+08
2.691587e+08		7.927343e+08		-8.637240e+09
2.807688e+06		2.254927e+06		6.837434e+08
2.254927e+06		7.950323e+06		4.649818e+08
6.837434e+08		4.649818e+08		-8.565626e+09
1.533734e+07		9.428091e+06		3.156047e+09
9.428091e+06		9.473332e+06		-9.817141e+07
3.156047e+09		-9.817141e+07		-6.374786e+09
-2.030898e+06		3.910475e+07		2.127159e+09
3.910475e+07		-3.667845e+07		-5.149230e+08
2.127159e+09		-5.149230e+08		-6.494106e+09
-3.174883e+06		1.763550e-04		1.934434e+09
1.763550e-04		-7.546438e+07		-2.528587e-04
1.934434e+09		-2.528587e-04		-6.545117e+09
-2.030898e+06		-3.910475e+07		2.127159e+09
-3.910475e+07		-3.667845e+07		5.149230e+08
2.127159e+09		5.149230e+08		-6.494106e+09
1.533734e+07		-9.428091e+06		3.156047e+09
-9.428091e+06		9.473332e+06		9.817141e+07
3.156047e+09		9.817141e+07		-6.374786e+09
1.329030e+07		1.424290e+07		5.407813e+09
1.424290e+07		-4.463937e+05		-5.050655e+07
5.407813e+09		-5.050655e+07		-4.233676e+09
-4.277746e+06		4.392829e+07		4.438263e+09
4.392829e+07		-1.150498e+07		-1.548955e+08
4.438263e+09		-1.548955e+08		-4.281111e+09
-8.608188e+06		7.175440e+07		3.857632e+09
7.175440e+07		-1.874704e+07		-2.365384e+08
3.857632e+09		-2.365384e+08		-4.319358e+09
-1.009136e+07		3.726707e+07		3.597113e+09
3.726707e+07		-3.336266e+07		-1.294340e+08
3.597113e+09		-1.294340e+08		-4.347969e+09
-7.005691e+06		1.634145e-05		3.499541e+09
1.634145e-05		-3.651969e+07		-9.727664e-05
3.499541e+09		-9.727664e-05		-4.354299e+09
-1.009136e+07		-3.726707e+07		3.597113e+09
-3.726707e+07		-3.336266e+07		1.294340e+08
3.597113e+09		1.294340e+08		-4.347969e+09
-8.608188e+06		-7.175440e+07		3.857632e+09
-7.175440e+07		-1.874704e+07		2.365384e+08
3.857632e+09		2.365384e+08		-4.319358e+09
-4.277746e+06		-4.392829e+07		4.438263e+09
-4.392829e+07		-1.150498e+07		1.548955e+08
4.438263e+09		1.548955e+08		-4.281111e+09
1.329030e+07		-1.424290e+07		5.407813e+09
-1.424290e+07		-4.463937e+05		5.050655e+07
5.407813e+09		5.050655e+07		-4.233676e+09
1.416987e+07		1.824370e+07		6.092072e+09
1.824370e+07		5.250759e+06		-7.832969e+06
6.092072e+09		-7.832969e+06		-2.104597e+09
-3.170766e+06		8.910002e+07		4.574203e+09
8.910002e+07		-5.773230e+06		-1.041519e+08
4.574203e+09		-1.041519e+08		-2.152953e+09
-4.269311e+06		-2.024416e-05		4.177493e+09
-2.024416e-05		-1.440759e+07		6.318814e-05
4.177493e+09		6.318814e-05		-2.173572e+09
-3.170766e+06		-8.910002e+07		4.574203e+09
-8.910002e+07		-5.773230e+06		1.041519e+08
4.574203e+09		1.041519e+08		-2.152953e+09
1.416987e+07		-1.824370e+07		6.092072e+09
-1.824370e+07		5.250759e+06		7.832969e+06
6.092072e+09		7.832969e+06		-2.104597e+09
-5.071385e-04		1.859820e+07		6.711205e+09
1.859820e+07		-2.261051e-04		2.451745e-04
6.711205e+09		2.451745e-04		-1.967996e-04
5.434966e-05		6.456088e+07		5.732251e+09
6.456088e+07		1.993310e-05		1.026987e-04
5.732251e+09		1.026987e-04		-3.226474e-05
2.596988e-04		1.025557e+08		5.115464e+09
1.025557e+08		1.340358e-04		4.130779e-05
5.115464e+09		4.130779e-05		-2.138037e-05
-8.882093e-05		5.408013e+07		4.782030e+09
5.408013e+07		1.176189e-04		3.568044e-05
4.782030e+09		3.568044e-05		-3.470108e-05
-3.364908e-04		2.486445e-05		4.664137e+09
2.486445e-05		-1.414830e-05		-5.032962e-06
4.664137e+09		-5.032962e-06		-9.942893e-05
-1.794759e-04		-5.408013e+07		4.782030e+09
-5.408013e+07		6.686908e-05		3.370584e-05
4.782030e+09		3.370584e-05		6.244332e-05
-1.762563e-05		-1.025557e+08		5.115464e+09
-1.025557e+08		2.668721e-04		3.269721e-06
5.115464e+09		3.269721e-06		2.493449e-04
4.878221e-05		-6.456088e+07		5.732251e+09
-6.456088e+07		1.188454e-04		3.917055e-05
5.732251e+09		3.917055e-05		2.023764e-04
5.618298e-04		-1.859820e+07		6.711205e+09
-1.859820e+07		1.722526e-04		6.754803e-05
6.711205e+09		6.754803e-05		3.398508e-04
-1.416987e+07		1.824370e+07		6.092072e+09
1.824370e+07		-5.250759e+06		7.832969e+06
6.092072e+09		7.832969e+06		2.104597e+09
3.170766e+06		8.910002e+07		4.574203e+09
8.910002e+07		5.773230e+06		1.041519e+08
4.574203e+09		1.041519e+08		2.152953e+09
4.269311e+06		-1.775892e-05		4.177493e+09
-1.775892e-05		1.440759e+07		3.634114e-05
4.177493e+09		3.634114e-05		2.173572e+09
3.170766e+06		-8.910002e+07		4.574203e+09
-8.910002e+07		5.773230e+06		-1.041519e+08
4.574203e+09		-1.041519e+08		2.152953e+09
-1.416987e+07		-1.824370e+07		6.092072e+09
-1.824370e+07		-5.250759e+06		-7.832969e+06
6.092072e+09		-7.832969e+06		2.104597e+09
-1.329030e+07		1.424290e+07		5.407813e+09
1.424290e+07		4.463937e+05		5.050655e+07
5.407813e+09		5.050655e+07		4.233676e+09
4.277746e+06		4.392829e+07		4.438263e+09
4.392829e+07		1.150498e+07		1.548955e+08
4.438263e+09		1.548955e+08		4.281111e+09
8.608188e+06		7.175440e+07		3.857632e+09
7.175440e+07		1.874704e+07		2.365384e+08
3.857632e+09		2.365384e+08		4.319358e+09
1.009136e+07		3.726707e+07		3.597113e+09
3.726707e+07		3.336266e+07		1.294340e+08
3.597113e+09		1.294340e+08		4.347969e+09
7.005691e+06		2.128433e-04		3.499541e+09
2.128433e-04		3.651969e+07		9.953883e-05
3.499541e+09		9.953883e-05		4.354299e+09
1.009136e+07		-3.726707e+07		3.597113e+09
-3.726707e+07		3.336266e+07		-1.294340e+08
3.597113e+09		-1.294340e+08		4.347969e+09
8.608188e+06		-7.175440e+07		3.857632e+09
-7.175440e+07		1.874704e+07		-2.365384e+08
3.857632e+09		-2.365384e+08		4.319358e+09
4.277746e+06		-4.392829e+07		4.438263e+09
-4.392829e+07		1.150498e+07		-1.548955e+08
4.438263e+09		-1.548955e+08		4.281111e+09
-1.329030e+07		-1.424290e+07		5.407813e+09
-1.424290e+07		4.463937e+05		-5.050655e+07
5.407813e+09		-5.050655e+07		4.233676e+09
-1.533734e+07		9.428091e+06		3.156047e+09
9.428091e+06		-9.473332e+06		9.817141e+07
3.156047e+09		9.817141e+07		6.374786e+09
2.030898e+06		3.910475e+07		2.127159e+09
3.910475e+07		3.667845e+07		5.149230e+08
2.127159e+09		5.149230e+08		6.494106e+09
3.174883e+06		-4.997756e-05		1.934434e+09
-4.997756e-05		7.546438e+07		1.035943e-04
1.934434e+09		1.035943e-04		6.545117e+09
2.030898e+06		-3.910475e+07		2.127159e+09
-3.910475e+07		3.667845e+07		-5.149230e+08
2.127159e+09		-5.149230e+08		6.494106e+09
-1.533734e+07		-9.428091e+06		3.156047e+09
-9.428091e+06		-9.473332e+06		-9.817141e+07
3.156047e+09		-9.817141e+07		6.374786e+09
-2.807688e+06		-2.254927e+06		6.837434e+08
-2.254927e+06		-7.950323e+06		4.649818e+08
6.837434e+08		4.649818e+08		8.565626e+09
8.331557e+06		-4.335719e+06		2.691587e+08
-4.335719e+06		2.762083e+07		7.927343e+08
2.691587e+08		7.927343e+08		8.637240e+09
-2.856361e+06		1.530589e+06		2.708663e+08
1.530589e+06		5.834440e+07		9.915974e+08
2.708663e+08		9.915974e+08		8.676152e+09
-7.071274e+05		-5.966398e+05		2.012979e+08
-5.966398e+05		9.993403e+07		4.636149e+08
2.012979e+08		4.636149e+08		8.712275e+09
-4.362259e+06		1.730745e-04		2.506344e+08
1.730745e-04		1.199218e+08		1.715571e-04
2.506344e+08		1.715571e-04		8.723913e+09
-7.071274e+05		5.966398e+05		2.012979e+08
5.966398e+05		9.993403e+07		-4.636149e+08
2.012979e+08		-4.636149e+08		8.712275e+09
-2.856361e+06		-1.530589e+06		2.708663e+08
-1.530589e+06		5.834440e+07		-9.915974e+08
2.708663e+08		-9.915974e+08		8.676152e+09
8.331557e+06		4.335719e+06		2.691587e+08
4.335719e+06		2.762083e+07		-7.927343e+08
2.691587e+08		-7.927343e+08		8.637240e+09
-2.807688e+06		2.254927e+06		6.837434e+08
2.254927e+06		-7.950323e+06		-4.649818e+08
6.837434e+08		-4.649818e+08		8.565626e+09
4.699445e+06		-6.099987e+06		5.002998e+08
-6.099987e+06		1.571229e+07		-4.395176e+08
5.002998e+08		-4.395176e+08		-1.063145e+10
-2.982974e+06		3.106127e+06		1.016132e+08
3.106127e+06		-1.016139e+08		-9.535026e+08
1.016132e+08		-9.535026e+08		-1.086140e+10
-9.814925e+06		2.647401e-05		8.238596e+07
2.647401e-05		-2.083076e+08		-3.710613e-04
8.238596e+07		-3.710613e-04		-1.096248e+10
-2.982974e+06		-3.106127e+06		1.016132e+08
-3.106127e+06		-1.016139e+08		9.535026e+08
1.016132e+08		9.535026e+08		-1.086140e+10
4.699445e+06		6.099987e+06		5.002998e+08
6.099987e+06		1.571229e+07		4.395176e+08
5.002998e+08		4.395176e+08		-1.063145e+10
3.610082e+07		2.039799e+07		5.135998e+09
2.039799e+07		1.114052e+06		-4.225264e+07
5.135998e+09		-4.225264e+07		-5.233955e+09
-8.380727e+06		1.167580e+08		3.692380e+09
1.167580e+08		-3.326914e+07		-2.410050e+08
3.692380e+09		-2.410050e+08		-5.403314e+09
-1.251495e+07		1.793867e-05		3.385918e+09
1.793867e-05		-7.063447e+07		-2.680495e-04
3.385918e+09		-2.680495e-04		-5.483201e+09
-8.380727e+06		-1.167580e+08		3.692380e+09
-1.167580e+08		-3.326914e+07		2.410050e+08
3.692380e+09		2.410050e+08		-5.403314e+09
3.610082e+07		-2.039799e+07		5.135998e+09
-2.039799e+07		1.114052e+06		4.225264e+07
5.135998e+09		4.225264e+07		-5.233955e+09
2.167542e-04		2.640703e+07		6.434858e+09
2.640703e+07		1.363973e-04		-1.031549e-04
6.434858e+09		-1.031549e-04		1.971722e-04
-1.816524e-04		1.685118e+08		4.952514e+09
1.685118e+08		-2.219377e-05		-1.782687e-05
4.952514e+09		-1.782687e-05		-2.451465e-04
-2.266821e-04		-2.683979e-05		4.569150e+09
-2.683979e-05		-3.259629e-09		-2.489582e-05
4.569150e+09		-2.489582e-05		-1.516826e-04
-1.313742e-04		-1.685118e+08		4.952514e+09
-1.685118e+08		1.228199e-04		-4.975371e-05
4.952514e+09		-4.975371e-05		-2.647191e-05
3.004866e-04		-2.640703e+07		6.434858e+09
-2.640703e+07		-5.929638e-05		-7.245806e-06
6.434858e+09		-7.245806e-06		-1.140237e-04
-3.610082e+07		2.039799e+07		5.135998e+09
2.039799e+07		-1.114052e+06		4.225264e+07
5.135998e+09		4.225264e+07		5.233955e+09
8.380727e+06		1.167580e+08		3.692380e+09
1.167580e+08		3.326914e+07		2.410050e+08
3.692380e+09		2.410050e+08		5.403314e+09
1.251495e+07		1.829825e-04		3.385918e+09
1.829825e-04		7.063447e+07		3.024749e-05
3.385918e+09		3.024749e-05		5.483201e+09
8.380727e+06		-1.167580e+08		3.692380e+09
-1.167580e+08		3.326914e+07		-2.410050e+08
3.692380e+09		-2.410050e+08		5.403314e+09
-3.610082e+07		-2.039799e+07		5.135998e+09
-2.039799e+07		-1.114052e+06		-4.225264e+07
5.135998e+09		-4.225264e+07		5.233955e+09
-4.699445e+06		-6.099987e+06		5.002998e+08
-6.099987e+06		-1.571229e+07		4.395176e+08
5.002998e+08		4.395176e+08		1.063145e+10
2.982974e+06		3.106127e+06		1.016132e+08
3.106127e+06		1.016139e+08		9.535026e+08
1.016132e+08		9.535026e+08		1.086140e+10
9.814925e+06		-4.830130e-05		8.238596e+07
-4.830130e-05		2.083076e+08		2.518818e-04
8.238596e+07		2.518818e-04		1.096248e+10
2.982974e+06		-3.106127e+06		1.016132e+08
-3.106127e+06		1.016139e+08		-9.535026e+08
1.016132e+08		-9.535026e+08		1.086140e+10
-4.699445e+06		6.099987e+06		5.002998e+08
6.099987e+06		-1.571229e+07		-4.395176e+08
5.002998e+08		-4.395176e+08		1.063145e+10
-2.265687e+07		-1.405785e+07		6.501872e+08
-1.405785e+07		-1.395941e+07		-4.623071e+08
6.501872e+08		-4.623071e+08		-1.272879e+10
-3.777566e+07		-1.251129e+07		2.657729e+08
-1.251129e+07		-9.276125e+07		-7.613302e+08
2.657729e+08		-7.613302e+08		-1.293244e+10
-7.809988e+06		1.480137e+06		2.683638e+08
1.480137e+06		-1.736397e+08		-9.572017e+08
2.683638e+08		-9.572017e+08		-1.305026e+10
-2.315109e+07		-3.631381e+06		2.083739e+08
-3.631381e+06		-2.935084e+08		-4.428737e+08
2.083739e+08		-4.428737e+08		-1.317763e+10
-6.171128e+06		4.033651e-05		2.491373e+08
4.033651e-05		-3.253551e+08		-3.481023e-04
2.491373e+08		-3.481023e-04		-1.319098e+10
-2.315109e+07		3.631381e+06		2.083739e+08
3.631381e+06		-2.935084e+08		4.428737e+08
2.083739e+08		4.428737e+08		-1.317763e+10
-7.809988e+06		-1.480137e+06		2.683638e+08
-1.480137e+06		-1.736397e+08		9.572017e+08
2.683638e+08		9.572017e+08		-1.305026e+10
-3.777566e+07		1.251129e+07		2.657729e+08
1.251129e+07		-9.276125e+07		7.613302e+08
2.657729e+08		7.613302e+08		-1.293244e+10
-2.265687e+07		1.405785e+07		6.501872e+08
1.405785e+07		-1.395941e+07		4.623071e+08
6.501872e+08		4.623071e+08		-1.272879e+10
4.742948e+07		2.434041e+07		3.023631e+09
2.434041e+07		1.189703e+07		-1.179506e+08
3.023631e+09		-1.179506e+08		-9.404602e+09
1.083390e+07		9.367072e+07		2.133979e+09
9.367072e+07		-1.043049e+08		-5.287645e+08
2.133979e+09		-5.287645e+08		-9.746434e+09
1.134408e+07		-7.489091e-05		1.996597e+09
-7.489091e-05		-2.015176e+08		-2.858788e-04
1.996597e+09		-2.858788e-04		-9.890016e+09
1.083390e+07		-9.367072e+07		2.133979e+09
-9.367072e+07		-1.043049e+08		5.287645e+08
2.133979e+09		5.287645e+08		-9.746434e+09
4.742948e+07		-2.434041e+07		3.023631e+09
-2.434041e+07		1.189703e+07		1.179506e+08
3.023631e+09		1.179506e+08		-9.404602e+09
6.162111e+07		3.805490e+07		5.192188e+09
3.805490e+07		-5.247540e+06		-6.437548e+07
5.192188e+09		-6.437548e+07		-6.226738e+09
2.504917e+07		1.079118e+08		4.336604e+09
1.079118e+08		-2.447572e+07		-1.809006e+08
4.336604e+09		-1.809006e+08		-6.353718e+09
1.371459e+07		1.731034e+08		3.867171e+09
1.731034e+08		-4.589493e+07		-2.729179e+08
3.867171e+09		-2.729179e+08		-6.460410e+09
6.673600e+06		8.927634e+07		3.679419e+09
8.927634e+07		-9.467686e+07		-1.443189e+08
3.679419e+09		-1.443189e+08		-6.556492e+09
2.252295e+07		1.579956e-04		3.613112e+09
1.579956e-04		-9.315347e+07		-2.176641e-04
3.613112e+09		-2.176641e-04		-6.565783e+09
6.673600e+06		-8.927634e+07		3.679419e+09
-8.927634e+07		-9.467686e+07		1.443189e+08
3.679419e+09		1.443189e+08		-6.556492e+09
1.371459e+07		-1.731034e+08		3.867171e+09
-1.731034e+08		-4.589493e+07		2.729179e+08
3.867171e+09		2.729179e+08		-6.460410e+09
2.504917e+07		-1.079118e+08		4.336604e+09
-1.079118e+08		-2.447572e+07		1.809006e+08
4.336604e+09		1.809006e+08		-6.353718e+09
6.162111e+07		-3.805490e+07		5.192188e+09
-3.805490e+07		-5.247540e+06		6.437548e+07
5.192188e+09		6.437548e+07		-6.226738e+09
5.684393e+07		4.534732e+07		5.885712e+09
4.534732e+07		7.318386e+06		-2.141160e+07
5.885712e+09		-2.141160e+07		-3.104669e+09
1.736685e+07		2.175621e+08		4.602330e+09
2.175621e+08		-1.830985e+07		-1.282987e+08
4.602330e+09		-1.282987e+08		-3.235273e+09
1.472705e+07		7.178076e-05		4.335179e+09
7.178076e-05		-4.457150e+07		-1.330054e-04
4.335179e+09		-1.330054e-04		-3.301588e+09
1.736685e+07		-2.175621e+08		4.602330e+09
-2.175621e+08		-1.830985e+07		1.282987e+08
4.602330e+09		1.282987e+08		-3.235273e+09
5.684393e+07		-4.534732e+07		5.885712e+09
-4.534732e+07		7.318386e+06		2.141160e+07
5.885712e+09		2.141160e+07		-3.104669e+09
4.968774e-04		4.788226e+07		6.485195e+09
4.788226e+07		8.814316e-05		-1.069549e-04
6.485195e+09		-1.069549e-04		-1.168661e-04
2.643988e-04		1.600535e+08		5.618381e+09
1.600535e+08		1.246966e-04		-8.608389e-05
5.618381e+09		-8.608389e-05		-1.810677e-04
-2.120761e-04		2.514122e+08		5.131806e+09
2.514122e+08		-1.619197e-05		-5.621863e-05
5.131806e+09		-5.621863e-05		-3.277436e-04
2.335310e-04		1.336057e+08		4.899288e+09
1.336057e+08		7.367413e-05		6.399048e-05
4.899288e+09		6.399048e-05		-1.139008e-04
1.790533e-04		-5.754037e-05		4.824017e+09
-5.754037e-05		1.109680e-04		6.568320e-05
4.824017e+09		6.568320e-05		-1.598690e-04
1.380797e-04		-1.336057e+08		4.899288e+09
-1.336057e+08		1.137946e-04		-5.111913e-06
4.899288e+09		-5.111913e-06		-1.936927e-04
3.660843e-05		-2.514122e+08		5.131806e+09
-2.514122e+08		5.435338e-05		-4.730492e-05
5.131806e+09		-4.730492e-05		-3.035851e-04
1.104921e-05		-1.600535e+08		5.618381e+09
-1.600535e+08		-6.157439e-05		-1.658829e-04
5.618381e+09		-1.658829e-04		-3.906377e-04
6.579105e-04		-4.788226e+07		6.485195e+09
-4.788226e+07		4.808046e-05		-1.672847e-04
6.485195e+09		-1.672847e-04		-1.905859e-04
-5.684393e+07		4.534732e+07		5.885712e+09
4.534732e+07		-7.318386e+06		2.141160e+07
5.885712e+09		2.141160e+07		3.104669e+09
-1.736685e+07		2.175621e+08		4.602330e+09
2.175621e+08		1.830985e+07		1.282987e+08
4.602330e+09		1.282987e+08		3.235273e+09
-1.472705e+07		9.467639e-05		4.335179e+09
9.467639e-05		4.457150e+07		1.577279e-04
4.335179e+09		1.577279e-04		3.301588e+09
-1.736685e+07		-2.175621e+08		4.602330e+09
-2.175621e+08		1.830985e+07		-1.282987e+08
4.602330e+09		-1.282987e+08		3.235273e+09
-5.684393e+07		-4.534732e+07		5.885712e+09
-4.534732e+07		-7.318386e+06		-2.141160e+07
5.885712e+09		-2.141160e+07		3.104669e+09
-6.162111e+07		3.805490e+07		5.192188e+09
3.805490e+07		5.247540e+06		6.437548e+07
5.192188e+09		6.437548e+07		6.226738e+09
-2.504917e+07		1.079118e+08		4.336604e+09
1.079118e+08		2.447572e+07		1.809006e+08
4.336604e+09		1.809006e+08		6.353718e+09
-1.371459e+07		1.731034e+08		3.867171e+09
1.731034e+08		4.589493e+07		2.729179e+08
3.867171e+09		2.729179e+08		6.460410e+09
-6.673600e+06		8.927634e+07		3.679419e+09
8.927634e+07		9.467686e+07		1.443189e+08
3.679419e+09		1.443189e+08		6.556492e+09
-2.252295e+07		-3.404496e-05		3.613112e+09
-3.404496e-05		9.315347e+07		1.951670e-04
3.613112e+09		1.951670e-04		6.565783e+09
-6.673600e+06		-8.927634e+07		3.679419e+09
-8.927634e+07		9.467686e+07		-1.443189e+08
3.679419e+09		-1.443189e+08		6.556492e+09
-1.371459e+07		-1.731034e+08		3.867171e+09
-1.731034e+08		4.589493e+07		-2.729179e+08
3.867171e+09		-2.729179e+08		6.460410e+09
-2.504917e+07		-1.079118e+08		4.336604e+09
-1.079118e+08		2.447572e+07		-1.809006e+08
4.336604e+09		-1.809006e+08		6.353718e+09
-6.162111e+07		-3.805490e+07		5.192188e+09
-3.805490e+07		5.247540e+06		-6.437548e+07
5.192188e+09		-6.437548e+07		6.226738e+09
-4.742948e+07		2.434041e+07		3.023631e+09
2.434041e+07		-1.189703e+07		1.179506e+08
3.023631e+09		1.179506e+08		9.404602e+09
-1.083390e+07		9.367072e+07		2.133979e+09
9.367072e+07		1.043049e+08		5.287645e+08
2.133979e+09		5.287645e+08		9.746434e+09
-1.134408e+07		-9.957980e-05		1.996597e+09
-9.957980e-05		2.015176e+08		2.381075e-04
1.996597e+09		2.381075e-04		9.890016e+09
-1.083390e+07		-9.367072e+07		2.133979e+09
-9.367072e+07		1.043049e+08		-5.287645e+08
2.133979e+09		-5.287645e+08		9.746434e+09
-4.742948e+07		-2.434041e+07		3.023631e+09
-2.434041e+07		-1.189703e+07		-1.179506e+08
3.023631e+09		-1.179506e+08		9.404602e+09
2.265687e+07		-1.405785e+07		6.501872e+08
-1.405785e+07		1.395941e+07		4.623071e+08
6.501872e+08		4.623071e+08		1.272879e+10
3.777566e+07		-1.251129e+07		2.657729e+08
-1.251129e+07		9.276125e+07		7.613302e+08
2.657729e+08		7.613302e+08		1.293244e+10
7.809988e+06		1.480137e+06		2.683638e+08
1.480137e+06		1.736397e+08		9.572017e+08
2.683638e+08		9.572017e+08		1.305026e+10
2.315109e+07		-3.631381e+06		2.083739e+08
-3.631381e+06		2.935084e+08		4.428737e+08
2.083739e+08		4.428737e+08		1.317763e+10
6.171128e+06		-3.969367e-05		2.491373e+08
-3.969367e-05		3.253551e+08		3.360063e-04
2.491373e+08		3.360063e-04		1.319098e+10
2.315109e+07		3.631381e+06		2.083739e+08
3.631381e+06		2.935084e+08		-4.428737e+08
2.083739e+08		-4.428737e+08		1.317763e+10
7.809988e+06		-1.480137e+06		2.683638e+08
-1.480137e+06		1.736397e+08		-9.572017e+08
2.683638e+08		-9.572017e+08		1.305026e+10
3.777566e+07		1.251129e+07		2.657729e+08
1.251129e+07		9.276125e+07		-7.613302e+08
2.657729e+08		-7.613302e+08		1.293244e+10
2.265687e+07		1.405785e+07		6.501872e+08
1.405785e+07		1.395941e+07		-4.623071e+08
6.501872e+08		-4.623071e+08		1.272879e+10
5.404257e+07		-1.790192e+06		4.259753e+08
-1.790192e+06		8.683877e+07		-4.020942e+08
4.259753e+08		-4.020942e+08		-1.462554e+10
4.024182e+07		2.812574e+06		7.724432e+07
2.812574e+06		-2.651888e+08		-8.665215e+08
7.724432e+07		-8.665215e+08		-1.518562e+10
3.299822e+07		1.374539e-05		5.133763e+07
1.374539e-05		-5.318526e+08		-4.010759e-04
5.133763e+07		-4.010759e-04		-1.543701e+10
4.024182e+07		-2.812574e+06		7.724432e+07
-2.812574e+06		-2.651888e+08		8.665215e+08
7.724432e+07		8.665215e+08		-1.518562e+10
5.404257e+07		1.790192e+06		4.259753e+08
1.790192e+06		8.683877e+07		4.020942e+08
4.259753e+08		4.020942e+08		-1.462554e+10
1.618984e+08		4.408686e+07		4.763146e+09
4.408686e+07		3.737053e+07		-5.640491e+07
4.763146e+09		-5.640491e+07		-7.139639e+09
6.062607e+07		2.603229e+08		3.693070e+09
2.603229e+08		-7.594223e+07		-2.830470e+08
3.693070e+09		-2.830470e+08		-7.558148e+09
4.742991e+07		-7.990748e-07		3.540867e+09
-7.990748e-07		-2.104338e+08		-5.026441e-05
3.540867e+09		-5.026441e-05		-7.765210e+09
6.062607e+07		-2.603229e+08		3.693070e+09
-2.603229e+08		-7.594223e+07		2.830470e+08
3.693070e+09		2.830470e+08		-7.558148e+09
1.618984e+08		-4.408686e+07		4.763146e+09
-4.408686e+07		3.737053e+07		5.640491e+07
4.763146e+09		5.640491e+07		-7.139639e+09
-2.029724e-05		5.999416e+07		6.131573e+09
5.999416e+07		-2.065049e-04		-1.108041e-05
6.131573e+09		-1.108041e-05		-4.266500e-04
-1.567509e-04		3.952239e+08		5.033740e+09
3.952239e+08		-1.199637e-04		4.412842e-05
5.033740e+09		4.412842e-05		-3.435500e-04
-1.400150e-04		-3.500064e-04		4.877707e+09
-3.500064e-04		1.443550e-06		1.007351e-04
4.877707e+09		1.007351e-04		-4.316717e-04
2.323836e-05		-3.952239e+08		5.033740e+09
-3.952239e+08		-6.903824e-05		-6.282522e-05
5.033740e+09		-6.282522e-05		-3.036596e-04
3.668815e-04		-5.999416e+07		6.131573e+09
-5.999416e+07		-1.411792e-05		-1.056590e-04
6.131573e+09		-1.056590e-04		-1.180172e-04
-1.618984e+08		4.408686e+07		4.763146e+09
4.408686e+07		-3.737053e+07		5.640491e+07
4.763146e+09		5.640491e+07		7.139639e+09
-6.062607e+07		2.603229e+08		3.693070e+09
2.603229e+08		7.594223e+07		2.830470e+08
3.693070e+09		2.830470e+08		7.558148e+09
-4.742991e+07		2.465518e-04		3.540867e+09
2.465518e-04		2.104338e+08		1.893966e-04
3.540867e+09		1.893966e-04		7.765210e+09
-6.062607e+07		-2.603229e+08		3.693070e+09
-2.603229e+08		7.594223e+07		-2.830470e+08
3.693070e+09		-2.830470e+08		7.558148e+09
-1.618984e+08		-4.408686e+07		4.763146e+09
-4.408686e+07		-3.737053e+07		-5.640491e+07
4.763146e+09		-5.640491e+07		7.139639e+09
-5.404257e+07		-1.790192e+06		4.259753e+08
-1.790192e+06		-8.683877e+07		4.020942e+08
4.259753e+08		4.020942e+08		1.462554e+10
-4.024182e+07		2.812574e+06		7.724432e+07
2.812574e+06		2.651888e+08		8.665215e+08
7.724432e+07		8.665215e+08		1.518562e+10
-3.299822e+07		-2.487025e-04		5.133763e+07
-2.487025e-04		5.318526e+08		3.950410e-04
5.133763e+07		3.950410e-04		1.543701e+10
-4.024182e+07		-2.812574e+06		7.724432e+07
-2.812574e+06		2.651888e+08		-8.665215e+08
7.724432e+07		-8.665215e+08		1.518562e+10
-5.404257e+07		1.790192e+06		4.259753e+08
1.790192e+06		-8.683877e+07		-4.020942e+08
4.259753e+08		-4.020942e+08		1.462554e+10
1.299588e+08		2.953066e+05		5.243998e+08
2.953066e+05		1.519886e+08		-3.644875e+08
5.243998e+08		-3.644875e+08		-1.652177e+10
1.084428e+07		-3.306335e+07		2.362236e+08
-3.306335e+07		-2.062597e+08		-6.503122e+08
2.362236e+08		-6.503122e+08		-1.707940e+10
7.007781e+07		-9.481833e+06		2.373224e+08
-9.481833e+06		-4.562827e+08		-8.238482e+08
2.373224e+08		-8.238482e+08		-1.738614e+10
6.733336e+07		-2.324574e+07		1.981420e+08
-2.324574e+07		-7.040391e+08		-3.578718e+08
1.981420e+08		-3.578718e+08		-1.765465e+10
3.332249e+07		4.264812e-04		2.055715e+08
4.264812e-04		-9.118011e+08		-3.388906e-04
2.055715e+08		-3.388906e-04		-1.784299e+10
6.733336e+07		2.324574e+07		1.981420e+08
2.324574e+07		-7.040391e+08		3.578718e+08
1.981420e+08		3.578718e+08		-1.765465e+10
7.007781e+07		9.481833e+06		2.373224e+08
9.481833e+06		-4.562827e+08		8.238482e+08
2.373224e+08		8.238482e+08		-1.738614e+10
1.084428e+07		3.306335e+07		2.362236e+08
3.306335e+07		-2.062597e+08		6.503122e+08
2.362236e+08		6.503122e+08		-1.707940e+10
1.299588e+08		-2.953066e+05		5.243998e+08
-2.953066e+05		1.519886e+08		3.644875e+08
5.243998e+08		3.644875e+08		-1.652177e+10
1.981173e+08		5.615565e+07		2.609987e+09
5.615565e+07		1.252521e+08		-1.283731e+08
2.609987e+09		-1.283731e+08		-1.217355e+10
6.008556e+07		1.891695e+08		2.065896e+09
1.891695e+08		-3.091969e+08		-5.217731e+08
2.065896e+09		-5.217731e+08		-1.302108e+10
-3.821895e+06		1.045689e-04		2.033200e+09
1.045689e-04		-6.757521e+08		-1.973526e-04
2.033200e+09		-1.973526e-04		-1.349012e+10
6.008556e+07		-1.891695e+08		2.065896e+09
-1.891695e+08		-3.091969e+08		5.217731e+08
2.065896e+09		5.217731e+08		-1.302108e+10
1.981173e+08		-5.615565e+07		2.609987e+09
-5.615565e+07		1.252521e+08		1.283731e+08
2.609987e+09		1.283731e+08		-1.217355e+10
2.497061e+08		6.421114e+07		4.643478e+09
6.421114e+07		4.598720e+07		-7.080836e+07
4.643478e+09		-7.080836e+07		-8.105816e+09
1.443122e+08		2.121218e+08		4.085282e+09
2.121218e+08		-6.213465e+07		-2.304035e+08
4.085282e+09		-2.304035e+08		-8.406966e+09
1.053563e+08		3.584184e+08		3.849656e+09
3.584184e+08		-1.537252e+08		-3.413845e+08
3.849656e+09		-3.413845e+08		-8.703440e+09
8.449422e+07		1.721913e+08		3.833448e+09
1.721913e+08		-3.036420e+08		-1.575189e+08
3.833448e+09		-1.575189e+08		-8.941485e+09
6.215025e+07		-2.233228e-04		3.820223e+09
-2.233228e-04		-4.134628e+08		-1.283125e-04
3.820223e+09		-1.283125e-04		-9.066494e+09
8.449422e+07		-1.721913e+08		3.833448e+09
-1.721913e+08		-3.036420e+08		1.575189e+08
3.833448e+09		1.575189e+08		-8.941485e+09
1.053563e+08		-3.584184e+08		3.849656e+09
-3.584184e+08		-1.537252e+08		3.413845e+08
3.849656e+09		3.413845e+08		-8.703440e+09
1.443122e+08		-2.121218e+08		4.085282e+09
-2.121218e+08		-6.213465e+07		2.304035e+08
4.085282e+09		2.304035e+08		-8.406966e+09
2.497061e+08		-6.421114e+07		4.643478e+09
-6.421114e+07		4.598720e+07		7.080836e+07
4.643478e+09		7.080836e+07		-8.105816e+09
2.013711e+08		9.466943e+07		5.443372e+09
9.466943e+07		5.535566e+07		-5.252146e+07
5.443372e+09		-5.252146e+07		-4.023230e+09
7.583295e+07		4.760621e+08		4.694088e+09
4.760621e+08		-6.550981e+07		-1.752888e+08
4.694088e+09		-1.752888e+08		-4.363013e+09
4.224689e+07		5.074777e-05		4.712181e+09
5.074777e-05		-1.979161e+08		-1.247339e-04
4.712181e+09		-1.247339e-04		-4.567305e+09
7.583295e+07		-4.760621e+08		4.694088e+09
-4.760621e+08		-6.550981e+07		1.752888e+08
4.694088e+09		1.752888e+08		-4.363013e+09
2.013711e+08		-9.466943e+07		5.443372e+09
-9.466943e+07		5.535566e+07		5.252146e+07
5.443372e+09		5.252146e+07		-4.023230e+09
2.972875e-04		9.525650e+07		6.149458e+09
9.525650e+07		-6.580260e-05		-3.405893e-05
6.149458e+09		-3.405893e-05		-1.762100e-04
2.413960e-04		3.438860e+08		5.559482e+09
3.438860e+08		-1.720153e-06		8.447096e-07
5.559482e+09		8.447096e-07		-7.480383e-05
1.649978e-05		5.583700e+08		5.364221e+09
5.583700e+08		-1.074960e-04		7.920242e-05
5.364221e+09		7.920242e-05		-1.440514e-04
-2.217591e-04		2.790739e+08		5.375926e+09
2.790739e+08		-3.669783e-05		-2.462819e-05
5.375926e+09		-2.462819e-05		-2.438948e-04
-3.073383e-04		-5.399063e-05		5.391722e+09
-5.399063e-05		7.253699e-05		9.087482e-06
5.391722e+09		9.087482e-06		-3.025308e-04
-2.054749e-04		-2.790739e+08		5.375926e+09
-2.790739e+08		-1.083715e-04		6.595807e-05
5.375926e+09		6.595807e-05		-2.317801e-04
3.589317e-06		-5.583700e+08		5.364221e+09
-5.583700e+08		-1.389338e-04		-1.228905e-04
5.364221e+09		-1.228905e-04		-1.208708e-04
1.106132e-05		-3.438860e+08		5.559482e+09
-3.438860e+08		-1.377915e-04		-8.582708e-05
5.559482e+09		-8.582708e-05		-1.677163e-04
-7.694308e-04		-9.525650e+07		6.149458e+09
-9.525650e+07		-5.120263e-04		4.303560e-05
6.149458e+09		4.303560e-05		-6.278157e-04
-2.013711e+08		9.466943e+07		5.443372e+09
9.466943e+07		-5.535566e+07		5.252146e+07
5.443372e+09		5.252146e+07		4.023230e+09
-7.583295e+07		4.760621e+08		4.694088e+09
4.760621e+08		6.550981e+07		1.752888e+08
4.694088e+09		1.752888e+08		4.363013e+09
-4.224689e+07		1.117960e-05		4.712181e+09
1.117960e-05		1.979161e+08		1.404900e-06
4.712181e+09		1.404900e-06		4.567305e+09
-7.583295e+07		-4.760621e+08		4.694088e+09
-4.760621e+08		6.550981e+07		-1.752888e+08
4.694088e+09		-1.752888e+08		4.363013e+09
-2.013711e+08		-9.466943e+07		5.443372e+09
-9.466943e+07		-5.535566e+07		-5.252146e+07
5.443372e+09		-5.252146e+07		4.023230e+09
-2.497061e+08		6.421114e+07		4.643478e+09
6.421114e+07		-4.598720e+07		7.080836e+07
4.643478e+09		7.080836e+07		8.105816e+09
-1.443122e+08		2.121218e+08		4.085282e+09
2.121218e+08		6.213465e+07		2.304035e+08
4.085282e+09		2.304035e+08		8.406966e+09
-1.053563e+08		3.584184e+08		3.849656e+09
3.584184e+08		1.537252e+08		3.413845e+08
3.849656e+09		3.413845e+08		8.703440e+09
-8.449422e+07		1.721913e+08		3.833448e+09
1.721913e+08		3.036420e+08		1.575189e+08
3.833448e+09		1.575189e+08		8.941485e+09
-6.215025e+07		2.119485e-04		3.820223e+09
2.119485e-04		4.134628e+08		7.217238e-05
3.820223e+09		7.217238e-05		9.066494e+09
-8.449422e+07		-1.721913e+08		3.833448e+09
-1.721913e+08		3.036420e+08		-1.575189e+08
3.833448e+09		-1.575189e+08		8.941485e+09
-1.053563e+08		-3.584184e+08		3.849656e+09
-3.584184e+08		1.537252e+08		-3.413845e+08
3.849656e+09		-3.413845e+08		8.703440e+09
-1.443122e+08		-2.121218e+08		4.085282e+09
-2.121218e+08		6.213465e+07		-2.304035e+08
4.085282e+09		-2.304035e+08		8.406966e+09
-2.497061e+08		-6.421114e+07		4.643478e+09
-6.421114e+07		-4.598720e+07		-7.080836e+07
4.643478e+09		-7.080836e+07		8.105816e+09
-1.981173e+08		5.615565e+07		2.609987e+09
5.615565e+07		-1.252521e+08		1.283731e+08
2.609987e+09		1.283731e+08		1.217355e+10
-6.008556e+07		1.891695e+08		2.065896e+09
1.891695e+08		3.091969e+08		5.217731e+08
2.065896e+09		5.217731e+08		1.302108e+10
3.821895e+06		1.801178e-05		2.033200e+09
1.801178e-05		6.757521e+08		1.358010e-04
2.033200e+09		1.358010e-04		1.349012e+10
-6.008556e+07		-1.891695e+08		2.065896e+09
-1.891695e+08		3.091969e+08		-5.217731e+08
2.065896e+09		-5.217731e+08		1.302108e+10
-1.981173e+08		-5.615565e+07		2.609987e+09
-5.615565e+07		-1.252521e+08		-1.283731e+08
2.609987e+09		-1.283731e+08		1.217355e+10
-1.299588e+08		2.953066e+05		5.243998e+08
2.953066e+05		-1.519886e+08		3.644875e+08
5.243998e+08		3.644875e+08		1.652177e+10
-1.084428e+07		-3.306335e+07		2.362236e+08
-3.306335e+07		2.062597e+08		6.503122e+08
2.362236e+08		6.503122e+08		1.707940e+10
-7.007781e+07		-9.481833e+06		2.373224e+08
-9.481833e+06		4.562827e+08		8.238482e+08
2.373224e+08		8.238482e+08		1.738614e+10
-6.733336e+07		-2.324574e+07		1.981420e+08
-2.324574e+07		7.040391e+08		3.578718e+08
1.981420e+08		3.578718e+08		1.765465e+10
-3.332249e+07		-3.330534e-04		2.055715e+08
-3.330534e-04		9.118011e+08		1.265975e-04
2.055715e+08		1.265975e-04		1.784299e+10
-6.733336e+07		2.324574e+07		1.981420e+08
2.324574e+07		7.040391e+08		-3.578718e+08
1.981420e+08		-3.578718e+08		1.765465e+10
-7.007781e+07		9.481833e+06		2.373224e+08
9.481833e+06		4.562827e+08		-8.238482e+08
2.373224e+08		-8.238482e+08		1.738614e+10
-1.084428e+07		3.306335e+07		2.362236e+08
3.306335e+07		2.062597e+08		-6.503122e+08
2.362236e+08		-6.503122e+08		1.707940e+10
-1.299588e+08		-2.953066e+05		5.243998e+08
-2.953066e+05		-1.519886e+08		-3.644875e+08
5.243998e+08		-3.644875e+08		1.652177e+10
-1.868641e+08		-1.669816e+07		3.292490e+08
-1.669816e+07		-1.369169e+08		-1.318305e+08
3.292490e+08		-1.318305e+08		-1.810529e+10
-1.892729e+08		-2.345663e+07		1.796809e+08
-2.345663e+07		-7.131587e+08		-3.935542e+08
1.796809e+08		-3.935542e+08		-1.949176e+10
-2.146788e+08		8.954387e-05		1.659539e+08
8.954387e-05		-1.470240e+09		-2.515614e-04
1.659539e+08		-2.515614e-04		-1.983977e+10
-1.892729e+08		2.345663e+07		1.796809e+08
2.345663e+07		-7.131587e+08		3.935542e+08
1.796809e+08		3.935542e+08		-1.949176e+10
-1.868641e+08		1.669816e+07		3.292490e+08
1.669816e+07		-1.369169e+08		1.318305e+08
3.292490e+08		1.318305e+08		-1.810529e+10
4.285207e+08		1.131019e+08		4.026956e+09
1.131019e+08		-6.691499e+07		4.632365e+06
4.026956e+09		4.632365e+06		-9.084319e+09
1.605416e+08		4.485842e+08		3.798016e+09
4.485842e+08		-2.989303e+08		-2.459444e+08
3.798016e+09		-2.459444e+08		-1.011630e+10
1.482765e+08		-3.139582e-05		3.948672e+09
-3.139582e-05		-7.540951e+08		-1.682639e-04
3.948672e+09		-1.682639e-04		-1.046823e+10
1.605416e+08		-4.485842e+08		3.798016e+09
-4.485842e+08		-2.989303e+08		2.459444e+08
3.798016e+09		2.459444e+08		-1.011630e+10
4.285207e+08		-1.131019e+08		4.026956e+09
-1.131019e+08		-6.691499e+07		-4.632365e+06
4.026956e+09		-4.632365e+06		-9.084319e+09
9.816885e-05		1.721267e+08		5.512647e+09
1.721267e+08		7.811189e-05		-4.531117e-05
5.512647e+09		-4.531117e-05		5.427003e-05
4.334189e-04		7.754554e+08		5.278348e+09
7.754554e+08		3.995374e-05		4.654547e-05
5.278348e+09		4.654547e-05		1.425296e-04
-3.646831e-04		1.479695e-04		5.504772e+09
1.479695e-04		6.076507e-05		1.848652e-05
5.504772e+09		1.848652e-05		-1.279414e-04
1.158603e-04		-7.754554e+08		5.278348e+09
-7.754554e+08		-4.272722e-05		-1.993089e-05
5.278348e+09		-1.993089e-05		-2.046227e-04
7.215142e-05		-1.721267e+08		5.512647e+09
-1.721267e+08		-1.849532e-04		1.269681e-04
5.512647e+09		1.269681e-04		-4.447699e-04
-4.285207e+08		1.131019e+08		4.026956e+09
1.131019e+08		6.691499e+07		-4.632365e+06
4.026956e+09		-4.632365e+06		9.084319e+09
-1.605416e+08		4.485842e+08		3.798016e+09
4.485842e+08		2.989303e+08		2.459444e+08
3.798016e+09		2.459444e+08		1.011630e+10
-1.482765e+08		1.227856e-05		3.948672e+09
1.227856e-05		7.540951e+08		1.066960e-04
3.948672e+09		1.066960e-04		1.046823e+10
-1.605416e+08		-4.485842e+08		3.798016e+09
-4.485842e+08		2.989303e+08		-2.459444e+08
3.798016e+09		-2.459444e+08		1.011630e+10
-4.285207e+08		-1.131019e+08		4.026956e+09
-1.131019e+08		6.691499e+07		4.632365e+06
4.026956e+09		4.632365e+06		9.084319e+09
1.868641e+08		-1.669816e+07		3.292490e+08
-1.669816e+07		1.369169e+08		1.318305e+08
3.292490e+08		1.318305e+08		1.810529e+10
1.892729e+08		-2.345663e+07		1.796809e+08
-2.345663e+07		7.131587e+08		3.935542e+08
1.796809e+08		3.935542e+08		1.949176e+10
2.146788e+08		-1.043300e-04		1.659539e+08
-1.043300e-04		1.470240e+09		1.873896e-04
1.659539e+08		1.873896e-04		1.983977e+10
1.892729e+08		2.345663e+07		1.796809e+08
2.345663e+07		7.131587e+08		-3.935542e+08
1.796809e+08		-3.935542e+08		1.949176e+10
1.868641e+08		1.669816e+07		3.292490e+08
1.669816e+07		1.369169e+08		-1.318305e+08
3.292490e+08		-1.318305e+08		1.810529e+10
-1.612847e+08		-1.367985e+08		-9.114824e+05
-1.367985e+08		-8.105996e+07		-3.876623e+08
-9.114824e+05		-3.876623e+08		-1.877953e+10
-4.517309e+08		-1.201650e+08		-8.715549e+07
-1.201650e+08		-5.407797e+08		-9.323592e+07
-8.715549e+07		-9.323592e+07		-2.057525e+10
-1.430915e+08		-8.575279e+07		-1.207919e+08
-8.575279e+07		-8.507407e+08		-5.612568e+07
-1.207919e+08		-5.612568e+07		-2.092026e+10
-2.627521e+08		-4.486688e+07		-1.321868e+08
-4.486688e+07		-1.798882e+09		1.641878e+08
-1.321868e+08		1.641878e+08		-2.126575e+10
-2.728707e+08		8.580647e-05		-1.920299e+08
8.580647e-05		-2.130230e+09		-2.049580e-04
-1.920299e+08		-2.049580e-04		-2.129782e+10
-2.627521e+08		4.486688e+07		-1.321868e+08
4.486688e+07		-1.798882e+09		-1.641878e+08
-1.321868e+08		-1.641878e+08		-2.126575e+10
-1.430915e+08		8.575279e+07		-1.207919e+08
8.575279e+07		-8.507407e+08		5.612568e+07
-1.207919e+08		5.612568e+07		-2.092026e+10
-4.517309e+08		1.201650e+08		-8.715549e+07
1.201650e+08		-5.407797e+08		9.323592e+07
-8.715549e+07		9.323592e+07		-2.057525e+10
-1.612847e+08		1.367985e+08		-9.114824e+05
1.367985e+08		-8.105996e+07		3.876623e+08
-9.114824e+05		3.876623e+08		-1.877953e+10
4.016887e+08		8.227762e+07		1.890140e+09
8.227762e+07		2.411492e+07		-3.125805e+08
1.890140e+09		-3.125805e+08		-1.419337e+10
-3.781173e+07		2.322520e+08		2.112960e+09
2.322520e+08		-8.457556e+08		-1.374832e+08
2.112960e+09		-1.374832e+08		-1.668974e+10
-2.033138e+08		-1.336709e-04		2.238446e+09
-1.336709e-04		-1.975636e+09		-2.078973e-04
2.238446e+09		-2.078973e-04		-1.727805e+10
-3.781173e+07		-2.322520e+08		2.112960e+09
-2.322520e+08		-8.457556e+08		1.374832e+08
2.112960e+09		1.374832e+08		-1.668974e+10
4.016887e+08		-8.227762e+07		1.890140e+09
-8.227762e+07		2.411492e+07		3.125805e+08
1.890140e+09		3.125805e+08		-1.419337e+10
7.755313e+08		1.819389e+08		3.590780e+09
1.819389e+08		8.374514e+07		-2.886555e+08
3.590780e+09		-2.886555e+08		-9.536697e+09
2.774518e+08		3.845868e+08		3.709503e+09
3.845868e+08		-2.465095e+08		-2.117867e+08
3.709503e+09		-2.117867e+08		-1.086341e+10
2.063737e+08		5.183453e+08		4.037175e+09
5.183453e+08		-4.697430e+08		-2.386532e+08
4.037175e+09		-2.386532e+08		-1.139415e+10
1.046569e+08		2.375689e+08		4.237513e+09
2.375689e+08		-1.096077e+09		2.164836e+07
4.237513e+09		2.164836e+07		-1.180365e+10
8.883963e+07		-1.064232e-04		4.331969e+09
-1.064232e-04		-1.338805e+09		-1.733042e-04
4.331969e+09		-1.733042e-04		-1.193936e+10
1.046569e+08		-2.375689e+08		4.237513e+09
-2.375689e+08		-1.096077e+09		-2.164836e+07
4.237513e+09		-2.164836e+07		-1.180365e+10
2.063737e+08		-5.183453e+08		4.037175e+09
-5.183453e+08		-4.697430e+08		2.386532e+08
4.037175e+09		2.386532e+08		-1.139415e+10
2.774518e+08		-3.845868e+08		3.709503e+09
-3.845868e+08		-2.465095e+08		2.117867e+08
3.709503e+09		2.117867e+08		-1.086341e+10
7.755313e+08		-1.819389e+08		3.590780e+09
-1.819389e+08		8.374514e+07		2.886555e+08
3.590780e+09		2.886555e+08		-9.536697e+09
3.024817e+08		2.500331e+08		4.528083e+09
2.500331e+08		2.854274e+07		-1.689791e+08
4.528083e+09		-1.689791e+08		-4.850736e+09
-1.545795e+08		7.731942e+08		5.022521e+09
7.731942e+08		-3.408848e+08		-1.303858e+08
5.022521e+09		-1.303858e+08		-5.888796e+09
-2.914734e+08		-1.382455e-04		5.377781e+09
-1.382455e-04		-8.195324e+08		-3.780238e-05
5.377781e+09		-3.780238e-05		-6.208420e+09
-1.545795e+08		-7.731942e+08		5.022521e+09
-7.731942e+08		-3.408848e+08		1.303858e+08
5.022521e+09		1.303858e+08		-5.888796e+09
3.024817e+08		-2.500331e+08		4.528083e+09
-2.500331e+08		2.854274e+07		1.689791e+08
4.528083e+09		1.689791e+08		-4.850736e+09
2.651699e-04		2.825988e+08		5.130487e+09
2.825988e+08		3.635027e-04		-1.464335e-04
5.130487e+09		-1.464335e-04		1.092702e-04
-1.415610e-05		7.013943e+08		5.179598e+09
7.013943e+08		2.765097e-05		-8.890685e-05
5.179598e+09		-8.890685e-05		-4.068017e-06
2.686605e-04		9.447715e+08		5.607562e+09
9.447715e+08		-7.226178e-05		-8.054047e-05
5.607562e+09		-8.054047e-05		1.016445e-04
9.519607e-05		4.163372e+08		5.886251e+09
4.163372e+08		5.984306e-05		2.604525e-05
5.886251e+09		2.604525e-05		-7.536262e-05
-2.746340e-04		2.346523e-04		6.022986e+09
2.346523e-04		-2.391450e-05		-2.169530e-05
6.022986e+09		-2.169530e-05		-3.332607e-04
-3.085863e-04		-4.163372e+08		5.886251e+09
-4.163372e+08		-1.895400e-04		-3.293098e-05
5.886251e+09		-3.293098e-05		-5.356371e-04
1.518503e-04		-9.447715e+08		5.607562e+09
-9.447715e+08		5.605770e-05		1.046740e-04
5.607562e+09		1.046740e-04		-4.207827e-04
2.443008e-04		-7.013943e+08		5.179598e+09
-7.013943e+08		5.707517e-05		1.133122e-04
5.179598e+09		1.133122e-04		-3.798604e-04
3.386550e-04		-2.825988e+08		5.130487e+09
-2.825988e+08		2.972037e-05		1.486335e-04
5.130487e+09		1.486335e-04		-3.831908e-04
-3.024817e+08		2.500331e+08		4.528083e+09
2.500331e+08		-2.854274e+07		1.689791e+08
4.528083e+09		1.689791e+08		4.850736e+09
1.545795e+08		7.731942e+08		5.022521e+09
7.731942e+08		3.408848e+08		1.303858e+08
5.022521e+09		1.303858e+08		5.888796e+09
2.914734e+08		-9.354949e-05		5.377781e+09
-9.354949e-05		8.195324e+08		6.082188e-05
5.377781e+09		6.082188e-05		6.208420e+09
1.545795e+08		-7.731942e+08		5.022521e+09
-7.731942e+08		3.408848e+08		-1.303858e+08
5.022521e+09		-1.303858e+08		5.888796e+09
-3.024817e+08		-2.500331e+08		4.528083e+09
-2.500331e+08		-2.854274e+07		-1.689791e+08
4.528083e+09		-1.689791e+08		4.850736e+09
-7.755313e+08		1.819389e+08		3.590780e+09
1.819389e+08		-8.374514e+07		2.886555e+08
3.590780e+09		2.886555e+08		9.536697e+09
-2.774518e+08		3.845868e+08		3.709503e+09
3.845868e+08		2.465095e+08		2.117867e+08
3.709503e+09		2.117867e+08		1.086341e+10
-2.063737e+08		5.183453e+08		4.037175e+09
5.183453e+08		4.697430e+08		2.386532e+08
4.037175e+09		2.386532e+08		1.139415e+10
-1.046569e+08		2.375689e+08		4.237513e+09
2.375689e+08		1.096077e+09		-2.164836e+07
4.237513e+09		-2.164836e+07		1.180365e+10
-8.883963e+07		1.117401e-05		4.331969e+09
1.117401e-05		1.338805e+09		1.186687e-04
4.331969e+09		1.186687e-04		1.193936e+10
-1.046569e+08		-2.375689e+08		4.237513e+09
-2.375689e+08		1.096077e+09		2.164836e+07
4.237513e+09		2.164836e+07		1.180365e+10
-2.063737e+08		-5.183453e+08		4.037175e+09
-5.183453e+08		4.697430e+08		-2.386532e+08
4.037175e+09		-2.386532e+08		1.139415e+10
-2.774518e+08		-3.845868e+08		3.709503e+09
-3.845868e+08		2.465095e+08		-2.117867e+08
3.709503e+09		-2.117867e+08		1.086341e+10
-7.755313e+08		-1.819389e+08		3.590780e+09
-1.819389e+08		-8.374514e+07		-2.886555e+08
3.590780e+09		-2.886555e+08		9.536697e+09
-4.016887e+08		8.227762e+07		1.890140e+09
8.227762e+07		-2.411492e+07		3.125805e+08
1.890140e+09		3.125805e+08		1.419337e+10
3.781173e+07		2.322520e+08		2.112960e+09
2.322520e+08		8.457556e+08		1.374832e+08
2.112960e+09		1.374832e+08		1.668974e+10
2.033138e+08		-1.500696e-04		2.238446e+09
-1.500696e-04		1.975636e+09		2.426915e-04
2.238446e+09		2.426915e-04		1.727805e+10
3.781173e+07		-2.322520e+08		2.112960e+09
-2.322520e+08		8.457556e+08		-1.374832e+08
2.112960e+09		-1.374832e+08		1.668974e+10
-4.016887e+08		-8.227762e+07		1.890140e+09
-8.227762e+07		-2.411492e+07		-3.125805e+08
1.890140e+09		-3.125805e+08		1.419337e+10
1.612847e+08		-1.367985e+08		-9.114824e+05
-1.367985e+08		8.105996e+07		3.876623e+08
-9.114824e+05		3.876623e+08		1.877953e+10
4.517309e+08		-1.201650e+08		-8.715549e+07
-1.201650e+08		5.407797e+08		9.323592e+07
-8.715549e+07		9.323592e+07		2.057525e+10
1.430915e+08		-8.575279e+07		-1.207919e+08
-8.575279e+07		8.507407e+08		5.612568e+07
-1.207919e+08		5.612568e+07		2.092026e+10
2.627521e+08		-4.486688e+07		-1.321868e+08
-4.486688e+07		1.798882e+09		-1.641878e+08
-1.321868e+08		-1.641878e+08		2.126575e+10
2.728707e+08		-1.980793e-04		-1.920299e+08
-1.980793e-04		2.130230e+09		3.788862e-04
-1.920299e+08		3.788862e-04		2.129782e+10
2.627521e+08		4.486688e+07		-1.321868e+08
4.486688e+07		1.798882e+09		1.641878e+08
-1.321868e+08		1.641878e+08		2.126575e+10
1.430915e+08		8.575279e+07		-1.207919e+08
8.575279e+07		8.507407e+08		-5.612568e+07
-1.207919e+08		-5.612568e+07		2.092026e+10
4.517309e+08		1.201650e+08		-8.715549e+07
1.201650e+08		5.407797e+08		-9.323592e+07
-8.715549e+07		-9.323592e+07		2.057525e+10
1.612847e+08		1.367985e+08		-9.114824e+05
1.367985e+08		8.105996e+07		-3.876623e+08
-9.114824e+05		-3.876623e+08		1.877953e+10
1.999905e+09		-2.482249e+08		-9.177045e+08
-2.482249e+08		2.073002e+09		-5.841934e+08
-9.177045e+08		-5.841934e+08		-1.932860e+10
1.779114e+09		-7.467092e+07		-9.802942e+08
-7.467092e+07		-1.112523e+09		1.118811e+09
-9.802942e+08		1.118811e+09		-2.178673e+10
1.624911e+09		1.664571e-04		-9.537944e+08
1.664571e-04		-2.577118e+09		-2.228208e-04
-9.537944e+08		-2.228208e-04		-2.228076e+10
1.779114e+09		7.467092e+07		-9.802942e+08
7.467092e+07		-1.112523e+09		-1.118811e+09
-9.802942e+08		-1.118811e+09		-2.178673e+10
1.999905e+09		2.482249e+08		-9.177045e+08
2.482249e+08		2.073002e+09		5.841934e+08
-9.177045e+08		5.841934e+08		-1.932860e+10
5.347785e+08		2.890368e+08		2.642202e+09
2.890368e+08		1.036381e+09		-6.617677e+08
2.642202e+09		-6.617677e+08		-9.706473e+09
-8.083521e+08		6.231438e+08		4.233930e+09
6.231438e+08		-1.291485e+09		2.812321e+08
4.233930e+09		2.812321e+08		-1.218347e+10
-9.737548e+08		-1.756363e-04		4.648769e+09
-1.756363e-04		-2.292794e+09		-2.129397e-04
4.648769e+09		-2.129397e-04		-1.268558e+10
-8.083521e+08		-6.231438e+08		4.233930e+09
-6.231438e+08		-1.291485e+09		-2.812321e+08
4.233930e+09		-2.812321e+08		-1.218347e+10
5.347785e+08		-2.890368e+08		2.642202e+09
-2.890368e+08		1.036381e+09		6.617677e+08
2.642202e+09		6.617677e+08		-9.706473e+09
-1.780838e-04		4.757915e+08		3.911697e+09
4.757915e+08		2.471209e-04		1.191944e-04
3.911697e+09		1.191944e-04		-9.553134e-05
-4.367530e-05		1.028700e+09		5.456756e+09
1.028700e+09		-2.166890e-04		-1.997524e-05
5.456756e+09		-1.997524e-05		-2.892837e-04
-1.190882e-05		3.023073e-06		5.949007e+09
3.023073e-06		-2.949499e-05		-1.025955e-04
5.949007e+09		-1.025955e-04		-4.310906e-04
-1.373794e-04		-1.028700e+09		5.456756e+09
-1.028700e+09		2.665445e-06		-3.211899e-05
5.456756e+09		-3.211899e-05		-4.802421e-04
7.166862e-04		-4.757915e+08		3.911697e+09
-4.757915e+08		4.891753e-04		1.310632e-04
3.911697e+09		1.310632e-04		1.378357e-04
-5.347785e+08		2.890368e+08		2.642202e+09
2.890368e+08		-1.036381e+09		6.617677e+08
2.642202e+09		6.617677e+08		9.706473e+09
8.083521e+08		6.231438e+08		4.233930e+09
6.231438e+08		1.291485e+09		-2.812321e+08
4.233930e+09		-2.812321e+08		1.218347e+10
9.737548e+08		-1.437981e-04		4.648769e+09
-1.437981e-04		2.292794e+09		1.125773e-04
4.648769e+09		1.125773e-04		1.268558e+10
8.083521e+08		-6.231438e+08		4.233930e+09
-6.231438e+08		1.291485e+09		2.812321e+08
4.233930e+09		2.812321e+08		1.218347e+10
-5.347785e+08		-2.890368e+08		2.642202e+09
-2.890368e+08		-1.036381e+09		-6.617677e+08
2.642202e+09		-6.617677e+08		9.706473e+09
-1.999905e+09		-2.482249e+08		-9.177045e+08
-2.482249e+08		-2.073002e+09		5.841934e+08
-9.177045e+08		5.841934e+08		1.932860e+10
-1.779114e+09		-7.467092e+07		-9.802942e+08
-7.467092e+07		1.112523e+09		-1.118811e+09
-9.802942e+08		-1.118811e+09		2.178673e+10
-1.624911e+09		3.885850e-05		-9.537944e+08
3.885850e-05		2.577118e+09		3.670007e-04
-9.537944e+08		3.670007e-04		2.228076e+10
-1.779114e+09		7.467092e+07		-9.802942e+08
7.467092e+07		1.112523e+09		1.118811e+09
-9.802942e+08		1.118811e+09		2.178673e+10
-1.999905e+09		2.482249e+08		-9.177045e+08
2.482249e+08		-2.073002e+09		-5.841934e+08
-9.177045e+08		-5.841934e+08		1.932860e+10
2.085232e+09		-3.283319e+08		-1.627790e+09
-3.283319e+08		1.970407e+09		-7.156574e+08
-1.627790e+09		-7.156574e+08		-2.280041e+10
1.136261e+09		-3.892859e+08		-7.820599e+08
-3.892859e+08		-1.542932e+09		1.662213e+09
-7.820599e+08		1.662213e+09		-2.502757e+10
8.924265e+08		6.424945e+07		-8.542000e+08
6.424945e+07		-4.049369e+09		3.178250e+09
-8.542000e+08		3.178250e+09		-2.655609e+10
1.374029e+09		8.713675e+06		-6.357199e+08
8.713675e+06		-4.018863e+09		1.215325e+09
-6.357199e+08		1.215325e+09		-2.577692e+10
1.318299e+09		-2.705669e-04		-6.759185e+08
-2.705669e-04		-4.869918e+09		-3.373697e-04
-6.759185e+08		-3.373697e-04		-2.545986e+10
1.374029e+09		-8.713675e+06		-6.357199e+08
-8.713675e+06		-4.018863e+09		-1.215325e+09
-6.357199e+08		-1.215325e+09		-2.577692e+10
8.924265e+08		-6.424945e+07		-8.542000e+08
-6.424945e+07		-4.049369e+09		-3.178250e+09
-8.542000e+08		-3.178250e+09		-2.655609e+10
1.136261e+09		3.892859e+08		-7.820599e+08
3.892859e+08		-1.542932e+09		-1.662213e+09
-7.820599e+08		-1.662213e+09		-2.502757e+10
2.085232e+09		3.283319e+08		-1.627790e+09
3.283319e+08		1.970407e+09		7.156574e+08
-1.627790e+09		7.156574e+08		-2.280041e+10
1.936224e+07		-2.305315e+07		6.755187e+08
-2.305315e+07		1.078930e+09		-1.032249e+09
6.755187e+08		-1.032249e+09		-1.739828e+10
-1.786964e+09		4.333925e+08		2.491742e+09
4.333925e+08		-4.039650e+09		1.998005e+09
2.491742e+09		1.998005e+09		-2.094685e+10
-1.545680e+09		-1.661107e-04		3.016379e+09
-1.661107e-04		-4.794902e+09		-2.371557e-04
3.016379e+09		-2.371557e-04		-2.013586e+10
-1.786964e+09		-4.333925e+08		2.491742e+09
-4.333925e+08		-4.039650e+09		-1.998005e+09
2.491742e+09		-1.998005e+09		-2.094685e+10
1.936224e+07		2.305315e+07		6.755187e+08
2.305315e+07		1.078930e+09		1.032249e+09
6.755187e+08		1.032249e+09		-1.739828e+10
-1.235417e+09		1.359549e+08		2.845057e+09
1.359549e+08		4.095906e+08		-5.314500e+08
2.845057e+09		-5.314500e+08		-1.213558e+10
-2.656169e+09		2.663709e+08		4.602690e+09
2.663709e+08		-1.959401e+09		6.173662e+08
4.602690e+09		6.173662e+08		-1.402266e+10
-3.551043e+09		6.484759e+08		5.364906e+09
6.484759e+08		-3.739057e+09		1.335458e+09
5.364906e+09		1.335458e+09		-1.539782e+10
-3.335583e+09		1.290746e+08		5.896836e+09
1.290746e+08		-3.845801e+09		5.007594e+08
5.896836e+09		5.007594e+08		-1.500437e+10
-3.417034e+09		4.605670e-05		6.162150e+09
4.605670e-05		-4.394779e+09		-2.429299e-04
6.162150e+09		-2.429299e-04		-1.487728e+10
-3.335583e+09		-1.290746e+08		5.896836e+09
-1.290746e+08		-3.845801e+09		-5.007594e+08
5.896836e+09		-5.007594e+08		-1.500437e+10
-3.551043e+09		-6.484759e+08		5.364906e+09
-6.484759e+08		-3.739057e+09		-1.335458e+09
5.364906e+09		-1.335458e+09		-1.539782e+10
-2.656169e+09		-2.663709e+08		4.602690e+09
-2.663709e+08		-1.959401e+09		-6.173662e+08
4.602690e+09		-6.173662e+08		-1.402266e+10
-1.235417e+09		-1.359549e+08		2.845057e+09
-1.359549e+08		4.095906e+08		5.314500e+08
2.845057e+09		5.314500e+08		-1.213558e+10
4.394308e+07		3.777661e+08		2.343404e+09
3.777661e+08		5.774200e+08		-2.616135e+08
2.343404e+09		-2.616135e+08		-5.644993e+09
-1.152091e+09		8.765319e+08		4.564812e+09
8.765319e+08		-1.522014e+09		6.613558e+08
4.564812e+09		6.613558e+08		-7.290501e+09
-1.067293e+09		-1.515821e-05		5.227407e+09
-1.515821e-05		-1.848307e+09		-1.836196e-04
5.227407e+09		-1.836196e-04		-7.014566e+09
-1.152091e+09		-8.765319e+08		4.564812e+09
-8.765319e+08		-1.522014e+09		-6.613558e+08
4.564812e+09		-6.613558e+08		-7.290501e+09
4.394308e+07		-3.777661e+08		2.343404e+09
-3.777661e+08		5.774200e+08		2.616135e+08
2.343404e+09		2.616135e+08		-5.644993e+09
-4.012808e-04		3.718356e+08		2.555082e+09
3.718356e+08		1.693889e-04		9.355554e-05
2.555082e+09		9.355554e-05		3.146380e-05
-3.321916e-04		5.857259e+08		4.287394e+09
5.857259e+08		-1.258887e-04		-1.291186e-05
4.287394e+09		-1.291186e-05		-3.220141e-04
-1.900643e-05		1.011982e+09		4.907442e+09
1.011982e+09		-2.705976e-04		-2.403685e-05
4.907442e+09		-2.403685e-05		-5.149320e-04
-2.766028e-05		2.701249e+08		5.394696e+09
2.701249e+08		-2.053697e-04		-5.715806e-05
5.394696e+09		-5.715806e-05		-4.479662e-04
6.116554e-04		5.030446e-05		5.553131e+09
5.030446e-05		1.434609e-04		-1.440465e-04
5.553131e+09		-1.440465e-04		-1.476035e-04
-6.000325e-05		-2.701249e+08		5.394696e+09
-2.701249e+08		-2.148189e-05		-8.667586e-05
5.394696e+09		-8.667586e-05		-4.077032e-04
-7.234588e-04		-1.011982e+09		4.907442e+09
-1.011982e+09		-2.345834e-04		-1.540775e-04
4.907442e+09		-1.540775e-04		-6.955117e-04
-9.638816e-05		-5.857259e+08		4.287394e+09
-5.857259e+08		2.042875e-04		-3.315276e-05
4.287394e+09		-3.315276e-05		-2.716109e-04
7.279683e-04		-3.718356e+08		2.555082e+09
-3.718356e+08		7.356293e-04		1.152549e-04
2.555082e+09		1.152549e-04		2.651811e-04
-4.394308e+07		3.777661e+08		2.343404e+09
3.777661e+08		-5.774200e+08		2.616135e+08
2.343404e+09		2.616135e+08		5.644993e+09
1.152091e+09		8.765319e+08		4.564812e+09
8.765319e+08		1.522014e+09		-6.613558e+08
4.564812e+09		-6.613558e+08		7.290501e+09
1.067293e+09		-8.616596e-05		5.227407e+09
-8.616596e-05		1.848307e+09		7.789582e-06
5.227407e+09		7.789582e-06		7.014566e+09
1.152091e+09		-8.765319e+08		4.564812e+09
-8.765319e+08		1.522014e+09		6.613558e+08
4.564812e+09		6.613558e+08		7.290501e+09
-4.394308e+07		-3.777661e+08		2.343404e+09
-3.777661e+08		-5.774200e+08		-2.616135e+08
2.343404e+09		-2.616135e+08		5.644993e+09
1.235417e+09		1.359549e+08		2.845057e+09
1.359549e+08		-4.095906e+08		5.314500e+08
2.845057e+09		5.314500e+08		1.213558e+10
2.656169e+09		2.663709e+08		4.602690e+09
2.663709e+08		1.959401e+09		-6.173662e+08
4.602690e+09		-6.173662e+08		1.402266e+10
3.551043e+09		6.484759e+08		5.364906e+09
6.484759e+08		3.739057e+09		-1.335458e+09
5.364906e+09		-1.335458e+09		1.539782e+10
3.335583e+09		1.290746e+08		5.896836e+09
1.290746e+08		3.845801e+09		-5.007594e+08
5.896836e+09		-5.007594e+08		1.500437e+10
3.417034e+09		-3.910791e-04		6.162150e+09
-3.910791e-04		4.394779e+09		1.398567e-04
6.162150e+09		1.398567e-04		1.487728e+10
3.335583e+09		-1.290746e+08		5.896836e+09
-1.290746e+08		3.845801e+09		5.007594e+08
5.896836e+09		5.007594e+08		1.500437e+10
3.551043e+09		-6.484759e+08		5.364906e+09
-6.484759e+08		3.739057e+09		1.335458e+09
5.364906e+09		1.335458e+09		1.539782e+10
2.656169e+09		-2.663709e+08		4.602690e+09
-2.663709e+08		1.959401e+09		6.173662e+08
4.602690e+09		6.173662e+08		1.402266e+10
1.235417e+09		-1.359549e+08		2.845057e+09
-1.359549e+08		-4.095906e+08		-5.314500e+08
2.845057e+09		-5.314500e+08		1.213558e+10
-1.936224e+07		-2.305315e+07		6.755187e+08
-2.305315e+07		-1.078930e+09		1.032249e+09
6.755187e+08		1.032249e+09		1.739828e+10
1.786964e+09		4.333925e+08		2.491742e+09
4.333925e+08		4.039650e+09		-1.998005e+09
2.491742e+09		-1.998005e+09		2.094685e+10
1.545680e+09		1.791138e-04		3.016379e+09
1.791138e-04		4.794902e+09		1.905598e-04
3.016379e+09		1.905598e-04		2.013586e+10
1.786964e+09		-4.333925e+08		2.491742e+09
-4.333925e+08		4.039650e+09		1.998005e+09
2.491742e+09		1.998005e+09		2.094685e+10
-1.936224e+07		2.305315e+07		6.755187e+08
2.305315e+07		-1.078930e+09		-1.032249e+09
6.755187e+08		-1.032249e+09		1.739828e+10
-2.085232e+09		-3.283319e+08		-1.627790e+09
-3.283319e+08		-1.970407e+09		7.156574e+08
-1.627790e+09		7.156574e+08		2.280041e+10
-1.136261e+09		-3.892859e+08		-7.820599e+08
-3.892859e+08		1.542932e+09		-1.662213e+09
-7.820599e+08		-1.662213e+09		2.502757e+10
-8.924265e+08		6.424945e+07		-8.542000e+08
6.424945e+07		4.049369e+09		-3.178250e+09
-8.542000e+08		-3.178250e+09		2.655609e+10
-1.374029e+09		8.713675e+06		-6.357199e+08
8.713675e+06		4.018863e+09		-1.215325e+09
-6.357199e+08		-1.215325e+09		2.577692e+10
-1.318299e+09		4.260642e-04		-6.759185e+08
4.260642e-04		4.869918e+09		3.616437e-04
-6.759185e+08		3.616437e-04		2.545986e+10
-1.374029e+09		-8.713675e+06		-6.357199e+08
-8.713675e+06		4.018863e+09		1.215325e+09
-6.357199e+08		1.215325e+09		2.577692e+10
-8.924265e+08		-6.424945e+07		-8.542000e+08
-6.424945e+07		4.049369e+09		3.178250e+09
-8.542000e+08		3.178250e+09		2.655609e+10
-1.136261e+09		3.892859e+08		-7.820599e+08
3.892859e+08		1.542932e+09		1.662213e+09
-7.820599e+08		1.662213e+09		2.502757e+10
-2.085232e+09		3.283319e+08		-1.627790e+09
3.283319e+08		-1.970407e+09		-7.156574e+08
-1.627790e+09		-7.156574e+08		2.280041e+10
-5.522716e+09		5.637649e+08		3.015738e+09
5.637649e+08		-5.671664e+09		5.865282e+09
3.015738e+09		5.865282e+09		-3.187625e+10
-5.516959e+09		2.141117e+07		5.393952e+09
2.141117e+07		-8.516471e+09		3.219753e+09
5.393952e+09		3.219753e+09		-3.091540e+10
-5.998012e+09		-3.238153e-04		5.627118e+09
-3.238153e-04		-1.038314e+10		-4.521310e-04
5.627118e+09		-4.521310e-04		-3.146299e+10
-5.516959e+09		-2.141117e+07		5.393952e+09
-2.141117e+07		-8.516471e+09		-3.219753e+09
5.393952e+09		-3.219753e+09		-3.091540e+10
-5.522716e+09		-5.637649e+08		3.015738e+09
-5.637649e+08		-5.671664e+09		-5.865282e+09
3.015738e+09		-5.865282e+09		-3.187625e+10
-3.205159e+09		4.524591e+08		6.905992e+08
4.524591e+08		-2.367328e+09		2.795110e+09
6.905992e+08		2.795110e+09		-1.424930e+10
-3.446112e+09		2.065728e+08		3.902018e+09
2.065728e+08		-3.715200e+09		1.382144e+09
3.902018e+09		1.382144e+09		-1.311672e+10
-3.612888e+09		1.747049e-04		4.346080e+09
1.747049e-04		-4.609487e+09		-2.125204e-04
4.346080e+09		-2.125204e-04		-1.311269e+10
-3.446112e+09		-2.065728e+08		3.902018e+09
-2.065728e+08		-3.715200e+09		-1.382144e+09
3.902018e+09		-1.382144e+09		-1.311672e+10
-3.205159e+09		-4.524591e+08		6.905992e+08
-4.524591e+08		-2.367328e+09		-2.795110e+09
6.905992e+08		-2.795110e+09		-1.424930e+10
-3.059506e-04		4.772170e+08		2.435753e+08
4.772170e+08		7.435679e-06		-4.012883e-05
2.435753e+08		-4.012883e-05		-2.469122e-04
-1.460314e-04		3.485559e+08		3.567178e+09
3.485559e+08		-1.879632e-04		-9.648991e-05
3.567178e+09		-9.648991e-05		-3.008544e-04
1.347065e-04		3.761239e-05		3.956382e+09
3.761239e-05		-2.175570e-05		-2.943235e-05
3.956382e+09		-2.943235e-05		-1.721084e-04
-4.469752e-04		-3.485559e+08		3.567178e+09
-3.485559e+08		-1.651049e-04		-7.949769e-05
3.567178e+09		-7.949769e-05		-5.359054e-04
-8.079410e-05		-4.772170e+08		2.435753e+08
-4.772170e+08		6.175041e-05		-2.517551e-04
2.435753e+08		-2.517551e-04		-6.040037e-04
3.205159e+09		4.524591e+08		6.905992e+08
4.524591e+08		2.367328e+09		-2.795110e+09
6.905992e+08		-2.795110e+09		1.424930e+10
3.446112e+09		2.065728e+08		3.902018e+09
2.065728e+08		3.715200e+09		-1.382144e+09
3.902018e+09		-1.382144e+09		1.311672e+10
3.612888e+09		-9.001791e-05		4.346080e+09
-9.001791e-05		4.609487e+09		1.909211e-04
4.346080e+09		1.909211e-04		1.311269e+10
3.446112e+09		-2.065728e+08		3.902018e+09
-2.065728e+08		3.715200e+09		1.382144e+09
3.902018e+09		1.382144e+09		1.311672e+10
3.205159e+09		-4.524591e+08		6.905992e+08
-4.524591e+08		2.367328e+09		2.795110e+09
6.905992e+08		2.795110e+09		1.424930e+10
5.522716e+09		5.637649e+08		3.015738e+09
5.637649e+08		5.671664e+09		-5.865282e+09
3.015738e+09		-5.865282e+09		3.187625e+10
5.516959e+09		2.141117e+07		5.393952e+09
2.141117e+07		8.516471e+09		-3.219753e+09
5.393952e+09		-3.219753e+09		3.091540e+10
5.998012e+09		6.313063e-05		5.627118e+09
6.313063e-05		1.038314e+10		3.140569e-04
5.627118e+09		3.140569e-04		3.146299e+10
5.516959e+09		-2.141117e+07		5.393952e+09
-2.141117e+07		8.516471e+09		3.219753e+09
5.393952e+09		3.219753e+09		3.091540e+10
5.522716e+09		-5.637649e+08		3.015738e+09
-5.637649e+08		5.671664e+09		5.865282e+09
3.015738e+09		5.865282e+09		3.187625e+10
-1.982855e+10		9.645289e-05		9.507704e+09
9.645289e-05		-1.982855e+10		1.425327e+10
9.507704e+09		1.425327e+10		-4.413451e+10
-1.737529e+10		1.496077e-05		1.132476e+10
1.496077e-05		-1.737529e+10		8.005119e+09
1.132476e+10		8.005119e+09		-3.867402e+10
-1.609538e+10		-4.366750e-05		1.244870e+10
-4.366750e-05		-1.609538e+10		2.882994e+09
1.244870e+10		2.882994e+09		-3.582521e+10
-1.666608e+10		-1.648073e-04		1.299724e+10
-1.648073e-04		-1.666608e+10		1.233976e+09
1.299724e+10		1.233976e+09		-3.709548e+10
-1.736116e+10		-2.683352e-04		1.317664e+10
-2.683352e-04		-1.736116e+10		-4.955158e-04
1.317664e+10		-4.955158e-04		-3.864259e+10
-1.666608e+10		-7.093791e-05		1.299724e+10
-7.093791e-05		-1.666608e+10		-1.233976e+09
1.299724e+10		-1.233976e+09		-3.709548e+10
-1.609538e+10		8.705631e-05		1.244870e+10
8.705631e-05		-1.609538e+10		-2.882994e+09
1.244870e+10		-2.882994e+09		-3.582521e+10
-1.737529e+10		-1.455620e-04		1.132476e+10
-1.455620e-04		-1.737529e+10		-8.005119e+09
1.132476e+10		-8.005119e+09		-3.867402e+10
-1.982855e+10		-3.833659e-04		9.507704e+09
-3.833659e-04		-1.982855e+10		-1.425327e+10
9.507704e+09		-1.425327e+10		-4.413451e+10
-1.323881e+10		1.174011e-04		3.187260e+09
1.174011e-04		-1.323881e+10		1.060566e+10
3.187260e+09		1.060566e+10		-2.946703e+10
-9.480577e+09		1.922483e-04		6.109113e+09
1.922483e-04		-9.480577e+09		2.132042e+09
6.109113e+09		2.132042e+09		-2.110193e+10
-1.020607e+10		-8.764677e-05		6.538319e+09
-8.764677e-05		-1.020607e+10		-3.092401e-04
6.538319e+09		-3.092401e-04		-2.271674e+10
-9.480577e+09		-1.253691e-04		6.109113e+09
-1.253691e-04		-9.480577e+09		-2.132042e+09
6.109113e+09		-2.132042e+09		-2.110193e+10
-1.323881e+10		1.844466e-04		3.187260e+09
1.844466e-04		-1.323881e+10		-1.060566e+10
3.187260e+09		-1.060566e+10		-2.946703e+10
-7.617683e+09		-3.379261e-04		-1.590617e+09
-3.379261e-04		-7.617683e+09		7.003988e+09
-1.590617e+09		7.003988e+09		-1.695549e+10
-5.807516e+09		-1.138672e-04		4.989458e+08
-1.138672e-04		-5.807516e+09		3.910174e+09
4.989458e+08		3.910174e+09		-1.292641e+10
-4.614208e+09		-1.268054e-05		1.738279e+09
-1.268054e-05		-4.614208e+09		1.414637e+09
1.738279e+09		1.414637e+09		-1.027033e+10
-4.735005e+09		-7.800618e-05		1.960218e+09
-7.800618e-05		-4.735005e+09		5.819406e+08
1.960218e+09		5.819406e+08		-1.053920e+10
-5.001333e+09		-1.152196e-04		1.920593e+09
-1.152196e-04		-5.001333e+09		-1.560660e-04
1.920593e+09		-1.560660e-04		-1.113200e+10
-4.735005e+09		-2.733339e-05		1.960218e+09
-2.733339e-05		-4.735005e+09		-5.819406e+08
1.960218e+09		-5.819406e+08		-1.053920e+10
-4.614208e+09		-4.361081e-05		1.738279e+09
-4.361081e-05		-4.614208e+09		-1.414637e+09
1.738279e+09		-1.414637e+09		-1.027033e+10
-5.807516e+09		-5.522929e-05		4.989458e+08
-5.522929e-05		-5.807516e+09		-3.910174e+09
4.989458e+08		-3.910174e+09		-1.292641e+10
-7.617683e+09		-2.806131e-04		-1.590617e+09
-2.806131e-04		-7.617683e+09		-7.003988e+09
-1.590617e+09		-7.003988e+09		-1.695549e+10
-3.611583e+09		1.826235e-04		-2.029634e+09
1.826235e-04		-3.611583e+09		3.551231e+09
-2.029634e+09		3.551231e+09		-8.038684e+09
-2.085509e+09		-1.900825e-04		1.300214e+09
-1.900825e-04		-2.085509e+09		7.240979e+08
1.300214e+09		7.240979e+08		-4.641940e+09
-2.267537e+09		2.978602e-05		1.503179e+09
2.978602e-05		-2.267537e+09		9.692740e-06
1.503179e+09		9.692740e-06		-5.047099e+09
-2.085509e+09		-1.054229e-04		1.300214e+09
-1.054229e-04		-2.085509e+09		-7.240979e+08
1.300214e+09		-7.240979e+08		-4.641940e+09
-3.611583e+09		-7.436424e-05		-2.029634e+09
-7.436424e-05		-3.611583e+09		-3.551231e+09
-2.029634e+09		-3.551231e+09		-8.038684e+09
-1.828521e-04		-2.201338e-05		-1.769455e+09
-2.201338e-05		-1.895353e-04		1.432970e-04
-1.769455e+09		1.432970e-04		-4.131645e-04
-3.509223e-05		-2.389596e-05		4.235521e+08
-2.389596e-05		-8.578598e-05		1.445413e-05
4.235521e+08		1.445413e-05		-2.431571e-04
-7.129833e-04		-3.116834e-04		1.594838e+09
-3.116834e-04		-3.179424e-04		-4.602131e-05
1.594838e+09		-4.602131e-05		-3.132373e-04
-1.755357e-05		-5.779858e-05		1.854442e+09
-5.779858e-05		-3.884733e-05		4.659034e-05
1.854442e+09		4.659034e-05		-1.076162e-04
2.578273e-05		1.199380e-04		1.882492e+09
1.199380e-04		-1.486763e-05		1.286287e-04
1.882492e+09		1.286287e-04		-7.162243e-05
2.562255e-04		3.130408e-05		1.854442e+09
3.130408e-05		5.413592e-05		6.894022e-05
1.854442e+09		6.894022e-05		-8.088350e-05
-2.676435e-04		-2.722447e-04		1.594838e+09
-2.722447e-04		-2.088919e-04		-1.923367e-05
1.594838e+09		-1.923367e-05		-3.949776e-04
-4.242510e-04		-5.341042e-05		4.235521e+08
-5.341042e-05		-3.518313e-04		-2.506673e-04
4.235521e+08		-2.506673e-04		-7.100701e-04
-1.925826e-04		-1.081703e-04		-1.769455e+09
-1.081703e-04		-3.387928e-04		-5.136132e-04
-1.769455e+09		-5.136132e-04		-9.018183e-04
3.611583e+09		-1.884824e-05		-2.029634e+09
-1.884824e-05		3.611583e+09		-3.551231e+09
-2.029634e+09		-3.551231e+09		8.038684e+09
2.085509e+09		-3.132802e-05		1.300214e+09
-3.132802e-05		2.085509e+09		-7.240979e+08
1.300214e+09		-7.240979e+08		4.641940e+09
2.267537e+09		7.651094e-05		1.503179e+09
7.651094e-05		2.267537e+09		1.076013e-04
1.503179e+09		1.076013e-04		5.047099e+09
2.085509e+09		-6.703660e-06		1.300214e+09
-6.703660e-06		2.085509e+09		7.240979e+08
1.300214e+09		7.240979e+08		4.641940e+09
3.611583e+09		-5.845726e-05		-2.029634e+09
-5.845726e-05		3.611583e+09		3.551231e+09
-2.029634e+09		3.551231e+09		8.038684e+09
7.617683e+09		-3.912232e-04		-1.590617e+09
-3.912232e-04		7.617683e+09		-7.003988e+09
-1.590617e+09		-7.003988e+09		1.695549e+10
5.807516e+09		-1.376301e-04		4.989458e+08
-1.376301e-04		5.807516e+09		-3.910174e+09
4.989458e+08		-3.910174e+09		1.292641e+10
4.614208e+09		-1.700450e-04		1.738279e+09
-1.700450e-04		4.614208e+09		-1.414637e+09
1.738279e+09		-1.414637e+09		1.027033e+10
4.735005e+09		-1.312938e-04		1.960218e+09
-1.312938e-04		4.735005e+09		-5.819406e+08
1.960218e+09		-5.819406e+08		1.053920e+10
5.001333e+09		-5.147334e-04		1.920593e+09
-5.147334e-04		5.001333e+09		1.635961e-04
1.920593e+09		1.635961e-04		1.113200e+10
4.735005e+09		-8.360518e-05		1.960218e+09
-8.360518e-05		4.735005e+09		5.819406e+08
1.960218e+09		5.819406e+08		1.053920e+10
4.614208e+09		7.604132e-05		1.738279e+09
7.604132e-05		4.614208e+09		1.414637e+09
1.738279e+09		1.414637e+09		1.027033e+10
5.807516e+09		-6.687269e-05		4.989458e+08
-6.687269e-05		5.807516e+09		3.910174e+09
4.989458e+08		3.910174e+09		1.292641e+10
7.617683e+09		-9.015948e-05		-1.590617e+09
-9.015948e-05		7.617683e+09		7.003988e+09
-1.590617e+09		7.003988e+09		1.695549e+10
1.323881e+10		-1.629256e-05		3.187260e+09
-1.629256e-05		1.323881e+10		-1.060566e+10
3.187260e+09		-1.060566e+10		2.946703e+10
9.480577e+09		-1.537426e-04		6.109113e+09
-1.537426e-04		9.480577e+09		-2.132042e+09
6.109113e+09		-2.132042e+09		2.110193e+10
1.020607e+10		-2.220650e-04		6.538319e+09
-2.220650e-04		1.020607e+10		2.518594e-04
6.538319e+09		2.518594e-04		2.271674e+10
9.480577e+09		-3.156865e-04		6.109113e+09
-3.156865e-04		9.480577e+09		2.132042e+09
6.109113e+09		2.132042e+09		2.110193e+10
1.323881e+10		-1.325607e-04		3.187260e+09
-1.325607e-04		1.323881e+10		1.060566e+10
3.187260e+09		1.060566e+10		2.946703e+10
1.982855e+10		-1.770188e-04		9.507704e+09
-1.770188e-04		1.982855e+10		-1.425327e+10
9.507704e+09		-1.425327e+10		4.413451e+10
1.737529e+10		1.345510e-04		1.132476e+10
1.345510e-04		1.737529e+10		-8.005119e+09
1.132476e+10		-8.005119e+09		3.867402e+10
1.609538e+10		1.268851e-04		1.244870e+10
1.268851e-04		1.609538e+10		-2.882994e+09
1.244870e+10		-2.882994e+09		3.582521e+10
1.666608e+10		1.048322e-04		1.299724e+10
1.048322e-04		1.666608e+10		-1.233976e+09
1.299724e+10		-1.233976e+09		3.709548e+10
1.736116e+10		2.042594e-04		1.317664e+10
2.042594e-04		1.736116e+10		4.636049e-04
1.317664e+10		4.636049e-04		3.864259e+10
1.666608e+10		-1.081768e-04		1.299724e+10
-1.081768e-04		1.666608e+10		1.233976e+09
1.299724e+10		1.233976e+09		3.709548e+10
1.609538e+10		-1.926161e-04		1.244870e+10
-1.926161e-04		1.609538e+10		2.882994e+09
1.244870e+10		2.882994e+09		3.582521e+10
1.737529e+10		-5.662441e-05		1.132476e+10
-5.662441e-05		1.737529e+10		8.005119e+09
1.132476e+10		8.005119e+09		3.867402e+10
1.982855e+10		-2.228618e-04		9.507704e+09
-2.228618e-04		1.982855e+10		1.425327e+10
9.507704e+09		1.425327e+10		4.413451e+10
