# vtk DataFile Version 3.0
output from step 15
ASCII
DATASET UNSTRUCTURED_GRID
POINTS 1325 double
-5.000000e-01		-5.000000e-01		-1.500000e+00
-5.000000e-01		-3.750000e-01		-1.500000e+00
-5.000000e-01		-2.500000e-01		-1.500000e+00
-5.000000e-01		-1.250000e-01		-1.500000e+00
-5.000000e-01		0.000000e+00		-1.500000e+00
-5.000000e-01		1.250000e-01		-1.500000e+00
-5.000000e-01		2.500000e-01		-1.500000e+00
-5.000000e-01		3.750000e-01		-1.500000e+00
-5.000000e-01		5.000000e-01		-1.500000e+00
-3.750000e-01		-5.000000e-01		-1.500000e+00
-3.750000e-01		-2.500000e-01		-1.500000e+00
-3.750000e-01		0.000000e+00		-1.500000e+00
-3.750000e-01		2.500000e-01		-1.500000e+00
-3.750000e-01		5.000000e-01		-1.500000e+00
-2.500000e-01		-5.000000e-01		-1.500000e+00
-2.500000e-01		-3.750000e-01		-1.500000e+00
-2.500000e-01		-2.500000e-01		-1.500000e+00
-2.500000e-01		-1.250000e-01		-1.500000e+00
-2.500000e-01		0.000000e+00		-1.500000e+00
-2.500000e-01		1.250000e-01		-1.500000e+00
-2.500000e-01		2.500000e-01		-1.500000e+00
-2.500000e-01		3.750000e-01		-1.500000e+00
-2.500000e-01		5.000000e-01		-1.500000e+00
-1.250000e-01		-5.000000e-01		-1.500000e+00
-1.250000e-01		-2.500000e-01		-1.500000e+00
-1.250000e-01		0.000000e+00		-1.500000e+00
-1.250000e-01		2.500000e-01		-1.500000e+00
-1.250000e-01		5.000000e-01		-1.500000e+00
0.000000e+00		-5.000000e-01		-1.500000e+00
0.000000e+00		-3.750000e-01		-1.500000e+00
0.000000e+00		-2.500000e-01		-1.500000e+00
0.000000e+00		-1.250000e-01		-1.500000e+00
0.000000e+00		0.000000e+00		-1.500000e+00
0.000000e+00		1.250000e-01		-1.500000e+00
0.000000e+00		2.500000e-01		-1.500000e+00
0.000000e+00		3.750000e-01		-1.500000e+00
0.000000e+00		5.000000e-01		-1.500000e+00
1.250000e-01		-5.000000e-01		-1.500000e+00
1.250000e-01		-2.500000e-01		-1.500000e+00
1.250000e-01		0.000000e+00		-1.500000e+00
1.250000e-01		2.500000e-01		-1.500000e+00
1.250000e-01		5.000000e-01		-1.500000e+00
2.500000e-01		-5.000000e-01		-1.500000e+00
2.500000e-01		-3.750000e-01		-1.500000e+00
2.500000e-01		-2.500000e-01		-1.500000e+00
2.500000e-01		-1.250000e-01		-1.500000e+00
2.500000e-01		0.000000e+00		-1.500000e+00
2.500000e-01		1.250000e-01		-1.500000e+00
2.500000e-01		2.500000e-01		-1.500000e+00
2.500000e-01		3.750000e-01		-1.500000e+00
2.500000e-01		5.000000e-01		-1.500000e+00
3.750000e-01		-5.000000e-01		-1.500000e+00
3.750000e-01		-2.500000e-01		-1.500000e+00
3.750000e-01		0.000000e+00		-1.500000e+00
3.750000e-01		2.500000e-01		-1.500000e+00
3.750000e-01		5.000000e-01		-1.500000e+00
5.000000e-01		-5.000000e-01		-1.500000e+00
5.000000e-01		-3.750000e-01		-1.500000e+00
5.000000e-01		-2.500000e-01		-1.500000e+00
5.000000e-01		-1.250000e-01		-1.500000e+00
5.000000e-01		0.000000e+00		-1.500000e+00
5.000000e-01		1.250000e-01		-1.500000e+00
5.000000e-01		2.500000e-01		-1.500000e+00
5.000000e-01		3.750000e-01		-1.500000e+00
5.000000e-01		5.000000e-01		-1.500000e+00
-5.000000e-01		-5.000000e-01		-1.392857e+00
-5.000000e-01		-2.500000e-01		-1.392857e+00
-5.000000e-01		0.000000e+00		-1.392857e+00
-5.000000e-01		2.500000e-01		-1.392857e+00
-5.000000e-01		5.000000e-01		-1.392857e+00
-2.500000e-01		-5.000000e-01		-1.392857e+00
-2.500000e-01		-2.500000e-01		-1.392857e+00
-2.500000e-01		0.000000e+00		-1.392857e+00
-2.500000e-01		2.500000e-01		-1.392857e+00
-2.500000e-01		5.000000e-01		-1.392857e+00
0.000000e+00		-5.000000e-01		-1.392857e+00
0.000000e+00		-2.500000e-01		-1.392857e+00
0.000000e+00		0.000000e+00		-1.392857e+00
0.000000e+00		2.500000e-01		-1.392857e+00
0.000000e+00		5.000000e-01		-1.392857e+00
2.500000e-01		-5.000000e-01		-1.392857e+00
2.500000e-01		-2.500000e-01		-1.392857e+00
2.500000e-01		0.000000e+00		-1.392857e+00
2.500000e-01		2.500000e-01		-1.392857e+00
2.500000e-01		5.000000e-01		-1.392857e+00
5.000000e-01		-5.000000e-01		-1.392857e+00
5.000000e-01		-2.500000e-01		-1.392857e+00
5.000000e-01		0.000000e+00		-1.392857e+00
5.000000e-01		2.500000e-01		-1.392857e+00
5.000000e-01		5.000000e-01		-1.392857e+00
-5.000000e-01		-5.000000e-01		-1.285714e+00
-5.000000e-01		-3.750000e-01		-1.285714e+00
-5.000000e-01		-2.500000e-01		-1.285714e+00
-5.000000e-01		-1.250000e-01		-1.285714e+00
-5.000000e-01		0.000000e+00		-1.285714e+00
-5.000000e-01		1.250000e-01		-1.285714e+00
-5.000000e-01		2.500000e-01		-1.285714e+00
-5.000000e-01		3.750000e-01		-1.285714e+00
-5.000000e-01		5.000000e-01		-1.285714e+00
-3.750000e-01		-5.000000e-01		-1.285714e+00
-3.750000e-01		-2.500000e-01		-1.285714e+00
-3.750000e-01		0.000000e+00		-1.285714e+00
-3.750000e-01		2.500000e-01		-1.285714e+00
-3.750000e-01		5.000000e-01		-1.285714e+00
-2.500000e-01		-5.000000e-01		-1.285714e+00
-2.500000e-01		-3.750000e-01		-1.285714e+00
-2.500000e-01		-2.500000e-01		-1.285714e+00
-2.500000e-01		-1.250000e-01		-1.285714e+00
-2.500000e-01		0.000000e+00		-1.285714e+00
-2.500000e-01		1.250000e-01		-1.285714e+00
-2.500000e-01		2.500000e-01		-1.285714e+00
-2.500000e-01		3.750000e-01		-1.285714e+00
-2.500000e-01		5.000000e-01		-1.285714e+00
-1.250000e-01		-5.000000e-01		-1.285714e+00
-1.250000e-01		-2.500000e-01		-1.285714e+00
-1.250000e-01		0.000000e+00		-1.285714e+00
-1.250000e-01		2.500000e-01		-1.285714e+00
-1.250000e-01		5.000000e-01		-1.285714e+00
0.000000e+00		-5.000000e-01		-1.285714e+00
0.000000e+00		-3.750000e-01		-1.285714e+00
0.000000e+00		-2.500000e-01		-1.285714e+00
0.000000e+00		-1.250000e-01		-1.285714e+00
0.000000e+00		0.000000e+00		-1.285714e+00
0.000000e+00		1.250000e-01		-1.285714e+00
0.000000e+00		2.500000e-01		-1.285714e+00
0.000000e+00		3.750000e-01		-1.285714e+00
0.000000e+00		5.000000e-01		-1.285714e+00
1.250000e-01		-5.000000e-01		-1.285714e+00
1.250000e-01		-2.500000e-01		-1.285714e+00
1.250000e-01		0.000000e+00		-1.285714e+00
1.250000e-01		2.500000e-01		-1.285714e+00
1.250000e-01		5.000000e-01		-1.285714e+00
2.500000e-01		-5.000000e-01		-1.285714e+00
2.500000e-01		-3.750000e-01		-1.285714e+00
2.500000e-01		-2.500000e-01		-1.285714e+00
2.500000e-01		-1.250000e-01		-1.285714e+00
2.500000e-01		0.000000e+00		-1.285714e+00
2.500000e-01		1.250000e-01		-1.285714e+00
2.500000e-01		2.500000e-01		-1.285714e+00
2.500000e-01		3.750000e-01		-1.285714e+00
2.500000e-01		5.000000e-01		-1.285714e+00
3.750000e-01		-5.000000e-01		-1.285714e+00
3.750000e-01		-2.500000e-01		-1.285714e+00
3.750000e-01		0.000000e+00		-1.285714e+00
3.750000e-01		2.500000e-01		-1.285714e+00
3.750000e-01		5.000000e-01		-1.285714e+00
5.000000e-01		-5.000000e-01		-1.285714e+00
5.000000e-01		-3.750000e-01		-1.285714e+00
5.000000e-01		-2.500000e-01		-1.285714e+00
5.000000e-01		-1.250000e-01		-1.285714e+00
5.000000e-01		0.000000e+00		-1.285714e+00
5.000000e-01		1.250000e-01		-1.285714e+00
5.000000e-01		2.500000e-01		-1.285714e+00
5.000000e-01		3.750000e-01		-1.285714e+00
5.000000e-01		5.000000e-01		-1.285714e+00
-5.000000e-01		-5.000000e-01		-1.178571e+00
-5.000000e-01		-2.500000e-01		-1.178571e+00
-5.000000e-01		0.000000e+00		-1.178571e+00
-5.000000e-01		2.500000e-01		-1.178571e+00
-5.000000e-01		5.000000e-01		-1.178571e+00
-2.500000e-01		-5.000000e-01		-1.178571e+00
-2.500000e-01		-2.500000e-01		-1.178571e+00
-2.500000e-01		0.000000e+00		-1.178571e+00
-2.500000e-01		2.500000e-01		-1.178571e+00
-2.500000e-01		5.000000e-01		-1.178571e+00
0.000000e+00		-5.000000e-01		-1.178571e+00
0.000000e+00		-2.500000e-01		-1.178571e+00
0.000000e+00		0.000000e+00		-1.178571e+00
0.000000e+00		2.500000e-01		-1.178571e+00
0.000000e+00		5.000000e-01		-1.178571e+00
2.500000e-01		-5.000000e-01		-1.178571e+00
2.500000e-01		-2.500000e-01		-1.178571e+00
2.500000e-01		0.000000e+00		-1.178571e+00
2.500000e-01		2.500000e-01		-1.178571e+00
2.500000e-01		5.000000e-01		-1.178571e+00
5.000000e-01		-5.000000e-01		-1.178571e+00
5.000000e-01		-2.500000e-01		-1.178571e+00
5.000000e-01		0.000000e+00		-1.178571e+00
5.000000e-01		2.500000e-01		-1.178571e+00
5.000000e-01		5.000000e-01		-1.178571e+00
-5.000000e-01		-5.000000e-01		-1.071429e+00
-5.000000e-01		-3.750000e-01		-1.071429e+00
-5.000000e-01		-2.500000e-01		-1.071429e+00
-5.000000e-01		-1.250000e-01		-1.071429e+00
-5.000000e-01		0.000000e+00		-1.071429e+00
-5.000000e-01		1.250000e-01		-1.071429e+00
-5.000000e-01		2.500000e-01		-1.071429e+00
-5.000000e-01		3.750000e-01		-1.071429e+00
-5.000000e-01		5.000000e-01		-1.071429e+00
-3.750000e-01		-5.000000e-01		-1.071429e+00
-3.750000e-01		-2.500000e-01		-1.071429e+00
-3.750000e-01		0.000000e+00		-1.071429e+00
-3.750000e-01		2.500000e-01		-1.071429e+00
-3.750000e-01		5.000000e-01		-1.071429e+00
-2.500000e-01		-5.000000e-01		-1.071429e+00
-2.500000e-01		-3.750000e-01		-1.071429e+00
-2.500000e-01		-2.500000e-01		-1.071429e+00
-2.500000e-01		-1.250000e-01		-1.071429e+00
-2.500000e-01		0.000000e+00		-1.071429e+00
-2.500000e-01		1.250000e-01		-1.071429e+00
-2.500000e-01		2.500000e-01		-1.071429e+00
-2.500000e-01		3.750000e-01		-1.071429e+00
-2.500000e-01		5.000000e-01		-1.071429e+00
-1.250000e-01		-5.000000e-01		-1.071429e+00
-1.250000e-01		-2.500000e-01		-1.071429e+00
-1.250000e-01		0.000000e+00		-1.071429e+00
-1.250000e-01		2.500000e-01		-1.071429e+00
-1.250000e-01		5.000000e-01		-1.071429e+00
0.000000e+00		-5.000000e-01		-1.071429e+00
0.000000e+00		-3.750000e-01		-1.071429e+00
0.000000e+00		-2.500000e-01		-1.071429e+00
0.000000e+00		-1.250000e-01		-1.071429e+00
0.000000e+00		0.000000e+00		-1.071429e+00
0.000000e+00		1.250000e-01		-1.071429e+00
0.000000e+00		2.500000e-01		-1.071429e+00
0.000000e+00		3.750000e-01		-1.071429e+00
0.000000e+00		5.000000e-01		-1.071429e+00
1.250000e-01		-5.000000e-01		-1.071429e+00
1.250000e-01		-2.500000e-01		-1.071429e+00
1.250000e-01		0.000000e+00		-1.071429e+00
1.250000e-01		2.500000e-01		-1.071429e+00
1.250000e-01		5.000000e-01		-1.071429e+00
2.500000e-01		-5.000000e-01		-1.071429e+00
2.500000e-01		-3.750000e-01		-1.071429e+00
2.500000e-01		-2.500000e-01		-1.071429e+00
2.500000e-01		-1.250000e-01		-1.071429e+00
2.500000e-01		0.000000e+00		-1.071429e+00
2.500000e-01		1.250000e-01		-1.071429e+00
2.500000e-01		2.500000e-01		-1.071429e+00
2.500000e-01		3.750000e-01		-1.071429e+00
2.500000e-01		5.000000e-01		-1.071429e+00
3.750000e-01		-5.000000e-01		-1.071429e+00
3.750000e-01		-2.500000e-01		-1.071429e+00
3.750000e-01		0.000000e+00		-1.071429e+00
3.750000e-01		2.500000e-01		-1.071429e+00
3.750000e-01		5.000000e-01		-1.071429e+00
5.000000e-01		-5.000000e-01		-1.071429e+00
5.000000e-01		-3.750000e-01		-1.071429e+00
5.000000e-01		-2.500000e-01		-1.071429e+00
5.000000e-01		-1.250000e-01		-1.071429e+00
5.000000e-01		0.000000e+00		-1.071429e+00
5.000000e-01		1.250000e-01		-1.071429e+00
5.000000e-01		2.500000e-01		-1.071429e+00
5.000000e-01		3.750000e-01		-1.071429e+00
5.000000e-01		5.000000e-01		-1.071429e+00
-5.000000e-01		-5.000000e-01		-9.642857e-01
-5.000000e-01		-2.500000e-01		-9.642857e-01
-5.000000e-01		0.000000e+00		-9.642857e-01
-5.000000e-01		2.500000e-01		-9.642857e-01
-5.000000e-01		5.000000e-01		-9.642857e-01
-2.500000e-01		-5.000000e-01		-9.642857e-01
-2.500000e-01		-2.500000e-01		-9.642857e-01
-2.500000e-01		0.000000e+00		-9.642857e-01
-2.500000e-01		2.500000e-01		-9.642857e-01
-2.500000e-01		5.000000e-01		-9.642857e-01
0.000000e+00		-5.000000e-01		-9.642857e-01
0.000000e+00		-2.500000e-01		-9.642857e-01
0.000000e+00		0.000000e+00		-9.642857e-01
0.000000e+00		2.500000e-01		-9.642857e-01
0.000000e+00		5.000000e-01		-9.642857e-01
2.500000e-01		-5.000000e-01		-9.642857e-01
2.500000e-01		-2.500000e-01		-9.642857e-01
2.500000e-01		0.000000e+00		-9.642857e-01
2.500000e-01		2.500000e-01		-9.642857e-01
2.500000e-01		5.000000e-01		-9.642857e-01
5.000000e-01		-5.000000e-01		-9.642857e-01
5.000000e-01		-2.500000e-01		-9.642857e-01
5.000000e-01		0.000000e+00		-9.642857e-01
5.000000e-01		2.500000e-01		-9.642857e-01
5.000000e-01		5.000000e-01		-9.642857e-01
-5.000000e-01		-5.000000e-01		-8.571429e-01
-5.000000e-01		-3.750000e-01		-8.571429e-01
-5.000000e-01		-2.500000e-01		-8.571429e-01
-5.000000e-01		-1.250000e-01		-8.571429e-01
-5.000000e-01		0.000000e+00		-8.571429e-01
-5.000000e-01		1.250000e-01		-8.571429e-01
-5.000000e-01		2.500000e-01		-8.571429e-01
-5.000000e-01		3.750000e-01		-8.571429e-01
-5.000000e-01		5.000000e-01		-8.571429e-01
-3.750000e-01		-5.000000e-01		-8.571429e-01
-3.750000e-01		-2.500000e-01		-8.571429e-01
-3.750000e-01		0.000000e+00		-8.571429e-01
-3.750000e-01		2.500000e-01		-8.571429e-01
-3.750000e-01		5.000000e-01		-8.571429e-01
-2.500000e-01		-5.000000e-01		-8.571429e-01
-2.500000e-01		-3.750000e-01		-8.571429e-01
-2.500000e-01		-2.500000e-01		-8.571429e-01
-2.500000e-01		-1.250000e-01		-8.571429e-01
-2.500000e-01		0.000000e+00		-8.571429e-01
-2.500000e-01		1.250000e-01		-8.571429e-01
-2.500000e-01		2.500000e-01		-8.571429e-01
-2.500000e-01		3.750000e-01		-8.571429e-01
-2.500000e-01		5.000000e-01		-8.571429e-01
-1.250000e-01		-5.000000e-01		-8.571429e-01
-1.250000e-01		-2.500000e-01		-8.571429e-01
-1.250000e-01		0.000000e+00		-8.571429e-01
-1.250000e-01		2.500000e-01		-8.571429e-01
-1.250000e-01		5.000000e-01		-8.571429e-01
0.000000e+00		-5.000000e-01		-8.571429e-01
0.000000e+00		-3.750000e-01		-8.571429e-01
0.000000e+00		-2.500000e-01		-8.571429e-01
0.000000e+00		-1.250000e-01		-8.571429e-01
0.000000e+00		0.000000e+00		-8.571429e-01
0.000000e+00		1.250000e-01		-8.571429e-01
0.000000e+00		2.500000e-01		-8.571429e-01
0.000000e+00		3.750000e-01		-8.571429e-01
0.000000e+00		5.000000e-01		-8.571429e-01
1.250000e-01		-5.000000e-01		-8.571429e-01
1.250000e-01		-2.500000e-01		-8.571429e-01
1.250000e-01		0.000000e+00		-8.571429e-01
1.250000e-01		2.500000e-01		-8.571429e-01
1.250000e-01		5.000000e-01		-8.571429e-01
2.500000e-01		-5.000000e-01		-8.571429e-01
2.500000e-01		-3.750000e-01		-8.571429e-01
2.500000e-01		-2.500000e-01		-8.571429e-01
2.500000e-01		-1.250000e-01		-8.571429e-01
2.500000e-01		0.000000e+00		-8.571429e-01
2.500000e-01		1.250000e-01		-8.571429e-01
2.500000e-01		2.500000e-01		-8.571429e-01
2.500000e-01		3.750000e-01		-8.571429e-01
2.500000e-01		5.000000e-01		-8.571429e-01
3.750000e-01		-5.000000e-01		-8.571429e-01
3.750000e-01		-2.500000e-01		-8.571429e-01
3.750000e-01		0.000000e+00		-8.571429e-01
3.750000e-01		2.500000e-01		-8.571429e-01
3.750000e-01		5.000000e-01		-8.571429e-01
5.000000e-01		-5.000000e-01		-8.571429e-01
5.000000e-01		-3.750000e-01		-8.571429e-01
5.000000e-01		-2.500000e-01		-8.571429e-01
5.000000e-01		-1.250000e-01		-8.571429e-01
5.000000e-01		0.000000e+00		-8.571429e-01
5.000000e-01		1.250000e-01		-8.571429e-01
5.000000e-01		2.500000e-01		-8.571429e-01
5.000000e-01		3.750000e-01		-8.571429e-01
5.000000e-01		5.000000e-01		-8.571429e-01
-5.000000e-01		-5.000000e-01		-7.500000e-01
-5.000000e-01		-2.500000e-01		-7.500000e-01
-5.000000e-01		0.000000e+00		-7.500000e-01
-5.000000e-01		2.500000e-01		-7.500000e-01
-5.000000e-01		5.000000e-01		-7.500000e-01
-2.500000e-01		-5.000000e-01		-7.500000e-01
-2.500000e-01		-2.500000e-01		-7.500000e-01
-2.500000e-01		0.000000e+00		-7.500000e-01
-2.500000e-01		2.500000e-01		-7.500000e-01
-2.500000e-01		5.000000e-01		-7.500000e-01
0.000000e+00		-5.000000e-01		-7.500000e-01
0.000000e+00		-2.500000e-01		-7.500000e-01
0.000000e+00		0.000000e+00		-7.500000e-01
0.000000e+00		2.500000e-01		-7.500000e-01
0.000000e+00		5.000000e-01		-7.500000e-01
2.500000e-01		-5.000000e-01		-7.500000e-01
2.500000e-01		-2.500000e-01		-7.500000e-01
2.500000e-01		0.000000e+00		-7.500000e-01
2.500000e-01		2.500000e-01		-7.500000e-01
2.500000e-01		5.000000e-01		-7.500000e-01
5.000000e-01		-5.000000e-01		-7.500000e-01
5.000000e-01		-2.500000e-01		-7.500000e-01
5.000000e-01		0.000000e+00		-7.500000e-01
5.000000e-01		2.500000e-01		-7.500000e-01
5.000000e-01		5.000000e-01		-7.500000e-01
-5.000000e-01		-5.000000e-01		-6.428571e-01
-5.000000e-01		-3.750000e-01		-6.428571e-01
-5.000000e-01		-2.500000e-01		-6.428571e-01
-5.000000e-01		-1.250000e-01		-6.428571e-01
-5.000000e-01		0.000000e+00		-6.428571e-01
-5.000000e-01		1.250000e-01		-6.428571e-01
-5.000000e-01		2.500000e-01		-6.428571e-01
-5.000000e-01		3.750000e-01		-6.428571e-01
-5.000000e-01		5.000000e-01		-6.428571e-01
-3.750000e-01		-5.000000e-01		-6.428571e-01
-3.750000e-01		-2.500000e-01		-6.428571e-01
-3.750000e-01		0.000000e+00		-6.428571e-01
-3.750000e-01		2.500000e-01		-6.428571e-01
-3.750000e-01		5.000000e-01		-6.428571e-01
-2.500000e-01		-5.000000e-01		-6.428571e-01
-2.500000e-01		-3.750000e-01		-6.428571e-01
-2.500000e-01		-2.500000e-01		-6.428571e-01
-2.500000e-01		-1.250000e-01		-6.428571e-01
-2.500000e-01		0.000000e+00		-6.428571e-01
-2.500000e-01		1.250000e-01		-6.428571e-01
-2.500000e-01		2.500000e-01		-6.428571e-01
-2.500000e-01		3.750000e-01		-6.428571e-01
-2.500000e-01		5.000000e-01		-6.428571e-01
-1.250000e-01		-5.000000e-01		-6.428571e-01
-1.250000e-01		-2.500000e-01		-6.428571e-01
-1.250000e-01		0.000000e+00		-6.428571e-01
-1.250000e-01		2.500000e-01		-6.428571e-01
-1.250000e-01		5.000000e-01		-6.428571e-01
0.000000e+00		-5.000000e-01		-6.428571e-01
0.000000e+00		-3.750000e-01		-6.428571e-01
0.000000e+00		-2.500000e-01		-6.428571e-01
0.000000e+00		-1.250000e-01		-6.428571e-01
0.000000e+00		0.000000e+00		-6.428571e-01
0.000000e+00		1.250000e-01		-6.428571e-01
0.000000e+00		2.500000e-01		-6.428571e-01
0.000000e+00		3.750000e-01		-6.428571e-01
0.000000e+00		5.000000e-01		-6.428571e-01
1.250000e-01		-5.000000e-01		-6.428571e-01
1.250000e-01		-2.500000e-01		-6.428571e-01
1.250000e-01		0.000000e+00		-6.428571e-01
1.250000e-01		2.500000e-01		-6.428571e-01
1.250000e-01		5.000000e-01		-6.428571e-01
2.500000e-01		-5.000000e-01		-6.428571e-01
2.500000e-01		-3.750000e-01		-6.428571e-01
2.500000e-01		-2.500000e-01		-6.428571e-01
2.500000e-01		-1.250000e-01		-6.428571e-01
2.500000e-01		0.000000e+00		-6.428571e-01
2.500000e-01		1.250000e-01		-6.428571e-01
2.500000e-01		2.500000e-01		-6.428571e-01
2.500000e-01		3.750000e-01		-6.428571e-01
2.500000e-01		5.000000e-01		-6.428571e-01
3.750000e-01		-5.000000e-01		-6.428571e-01
3.750000e-01		-2.500000e-01		-6.428571e-01
3.750000e-01		0.000000e+00		-6.428571e-01
3.750000e-01		2.500000e-01		-6.428571e-01
3.750000e-01		5.000000e-01		-6.428571e-01
5.000000e-01		-5.000000e-01		-6.428571e-01
5.000000e-01		-3.750000e-01		-6.428571e-01
5.000000e-01		-2.500000e-01		-6.428571e-01
5.000000e-01		-1.250000e-01		-6.428571e-01
5.000000e-01		0.000000e+00		-6.428571e-01
5.000000e-01		1.250000e-01		-6.428571e-01
5.000000e-01		2.500000e-01		-6.428571e-01
5.000000e-01		3.750000e-01		-6.428571e-01
5.000000e-01		5.000000e-01		-6.428571e-01
-5.000000e-01		-5.000000e-01		-5.357143e-01
-5.000000e-01		-2.500000e-01		-5.357143e-01
-5.000000e-01		0.000000e+00		-5.357143e-01
-5.000000e-01		2.500000e-01		-5.357143e-01
-5.000000e-01		5.000000e-01		-5.357143e-01
-2.500000e-01		-5.000000e-01		-5.357143e-01
-2.500000e-01		-2.500000e-01		-5.357143e-01
-2.500000e-01		0.000000e+00		-5.357143e-01
-2.500000e-01		2.500000e-01		-5.357143e-01
-2.500000e-01		5.000000e-01		-5.357143e-01
0.000000e+00		-5.000000e-01		-5.357143e-01
0.000000e+00		-2.500000e-01		-5.357143e-01
0.000000e+00		0.000000e+00		-5.357143e-01
0.000000e+00		2.500000e-01		-5.357143e-01
0.000000e+00		5.000000e-01		-5.357143e-01
2.500000e-01		-5.000000e-01		-5.357143e-01
2.500000e-01		-2.500000e-01		-5.357143e-01
2.500000e-01		0.000000e+00		-5.357143e-01
2.500000e-01		2.500000e-01		-5.357143e-01
2.500000e-01		5.000000e-01		-5.357143e-01
5.000000e-01		-5.000000e-01		-5.357143e-01
5.000000e-01		-2.500000e-01		-5.357143e-01
5.000000e-01		0.000000e+00		-5.357143e-01
5.000000e-01		2.500000e-01		-5.357143e-01
5.000000e-01		5.000000e-01		-5.357143e-01
-5.000000e-01		-5.000000e-01		-4.285714e-01
-5.000000e-01		-3.750000e-01		-4.285714e-01
-5.000000e-01		-2.500000e-01		-4.285714e-01
-5.000000e-01		-1.250000e-01		-4.285714e-01
-5.000000e-01		0.000000e+00		-4.285714e-01
-5.000000e-01		1.250000e-01		-4.285714e-01
-5.000000e-01		2.500000e-01		-4.285714e-01
-5.000000e-01		3.750000e-01		-4.285714e-01
-5.000000e-01		5.000000e-01		-4.285714e-01
-3.750000e-01		-5.000000e-01		-4.285714e-01
-3.750000e-01		-2.500000e-01		-4.285714e-01
-3.750000e-01		0.000000e+00		-4.285714e-01
-3.750000e-01		2.500000e-01		-4.285714e-01
-3.750000e-01		5.000000e-01		-4.285714e-01
-2.500000e-01		-5.000000e-01		-4.285714e-01
-2.500000e-01		-3.750000e-01		-4.285714e-01
-2.500000e-01		-2.500000e-01		-4.285714e-01
-2.500000e-01		-1.250000e-01		-4.285714e-01
-2.500000e-01		0.000000e+00		-4.285714e-01
-2.500000e-01		1.250000e-01		-4.285714e-01
-2.500000e-01		2.500000e-01		-4.285714e-01
-2.500000e-01		3.750000e-01		-4.285714e-01
-2.500000e-01		5.000000e-01		-4.285714e-01
-1.250000e-01		-5.000000e-01		-4.285714e-01
-1.250000e-01		-2.500000e-01		-4.285714e-01
-1.250000e-01		0.000000e+00		-4.285714e-01
-1.250000e-01		2.500000e-01		-4.285714e-01
-1.250000e-01		5.000000e-01		-4.285714e-01
0.000000e+00		-5.000000e-01		-4.285714e-01
0.000000e+00		-3.750000e-01		-4.285714e-01
0.000000e+00		-2.500000e-01		-4.285714e-01
0.000000e+00		-1.250000e-01		-4.285714e-01
0.000000e+00		0.000000e+00		-4.285714e-01
0.000000e+00		1.250000e-01		-4.285714e-01
0.000000e+00		2.500000e-01		-4.285714e-01
0.000000e+00		3.750000e-01		-4.285714e-01
0.000000e+00		5.000000e-01		-4.285714e-01
1.250000e-01		-5.000000e-01		-4.285714e-01
1.250000e-01		-2.500000e-01		-4.285714e-01
1.250000e-01		0.000000e+00		-4.285714e-01
1.250000e-01		2.500000e-01		-4.285714e-01
1.250000e-01		5.000000e-01		-4.285714e-01
2.500000e-01		-5.000000e-01		-4.285714e-01
2.500000e-01		-3.750000e-01		-4.285714e-01
2.500000e-01		-2.500000e-01		-4.285714e-01
2.500000e-01		-1.250000e-01		-4.285714e-01
2.500000e-01		0.000000e+00		-4.285714e-01
2.500000e-01		1.250000e-01		-4.285714e-01
2.500000e-01		2.500000e-01		-4.285714e-01
2.500000e-01		3.750000e-01		-4.285714e-01
2.500000e-01		5.000000e-01		-4.285714e-01
3.750000e-01		-5.000000e-01		-4.285714e-01
3.750000e-01		-2.500000e-01		-4.285714e-01
3.750000e-01		0.000000e+00		-4.285714e-01
3.750000e-01		2.500000e-01		-4.285714e-01
3.750000e-01		5.000000e-01		-4.285714e-01
5.000000e-01		-5.000000e-01		-4.285714e-01
5.000000e-01		-3.750000e-01		-4.285714e-01
5.000000e-01		-2.500000e-01		-4.285714e-01
5.000000e-01		-1.250000e-01		-4.285714e-01
5.000000e-01		0.000000e+00		-4.285714e-01
5.000000e-01		1.250000e-01		-4.285714e-01
5.000000e-01		2.500000e-01		-4.285714e-01
5.000000e-01		3.750000e-01		-4.285714e-01
5.000000e-01		5.000000e-01		-4.285714e-01
-5.000000e-01		-5.000000e-01		-3.214286e-01
-5.000000e-01		-2.500000e-01		-3.214286e-01
-5.000000e-01		0.000000e+00		-3.214286e-01
-5.000000e-01		2.500000e-01		-3.214286e-01
-5.000000e-01		5.000000e-01		-3.214286e-01
-2.500000e-01		-5.000000e-01		-3.214286e-01
-2.500000e-01		-2.500000e-01		-3.214286e-01
-2.500000e-01		0.000000e+00		-3.214286e-01
-2.500000e-01		2.500000e-01		-3.214286e-01
-2.500000e-01		5.000000e-01		-3.214286e-01
0.000000e+00		-5.000000e-01		-3.214286e-01
0.000000e+00		-2.500000e-01		-3.214286e-01
0.000000e+00		0.000000e+00		-3.214286e-01
0.000000e+00		2.500000e-01		-3.214286e-01
0.000000e+00		5.000000e-01		-3.214286e-01
2.500000e-01		-5.000000e-01		-3.214286e-01
2.500000e-01		-2.500000e-01		-3.214286e-01
2.500000e-01		0.000000e+00		-3.214286e-01
2.500000e-01		2.500000e-01		-3.214286e-01
2.500000e-01		5.000000e-01		-3.214286e-01
5.000000e-01		-5.000000e-01		-3.214286e-01
5.000000e-01		-2.500000e-01		-3.214286e-01
5.000000e-01		0.000000e+00		-3.214286e-01
5.000000e-01		2.500000e-01		-3.214286e-01
5.000000e-01		5.000000e-01		-3.214286e-01
-5.000000e-01		-5.000000e-01		-2.142857e-01
-5.000000e-01		-3.750000e-01		-2.142857e-01
-5.000000e-01		-2.500000e-01		-2.142857e-01
-5.000000e-01		-1.250000e-01		-2.142857e-01
-5.000000e-01		0.000000e+00		-2.142857e-01
-5.000000e-01		1.250000e-01		-2.142857e-01
-5.000000e-01		2.500000e-01		-2.142857e-01
-5.000000e-01		3.750000e-01		-2.142857e-01
-5.000000e-01		5.000000e-01		-2.142857e-01
-3.750000e-01		-5.000000e-01		-2.142857e-01
-3.750000e-01		-2.500000e-01		-2.142857e-01
-3.750000e-01		0.000000e+00		-2.142857e-01
-3.750000e-01		2.500000e-01		-2.142857e-01
-3.750000e-01		5.000000e-01		-2.142857e-01
-2.500000e-01		-5.000000e-01		-2.142857e-01
-2.500000e-01		-3.750000e-01		-2.142857e-01
-2.500000e-01		-2.500000e-01		-2.142857e-01
-2.500000e-01		-1.250000e-01		-2.142857e-01
-2.500000e-01		0.000000e+00		-2.142857e-01
-2.500000e-01		1.250000e-01		-2.142857e-01
-2.500000e-01		2.500000e-01		-2.142857e-01
-2.500000e-01		3.750000e-01		-2.142857e-01
-2.500000e-01		5.000000e-01		-2.142857e-01
-1.250000e-01		-5.000000e-01		-2.142857e-01
-1.250000e-01		-2.500000e-01		-2.142857e-01
-1.250000e-01		0.000000e+00		-2.142857e-01
-1.250000e-01		2.500000e-01		-2.142857e-01
-1.250000e-01		5.000000e-01		-2.142857e-01
0.000000e+00		-5.000000e-01		-2.142857e-01
0.000000e+00		-3.750000e-01		-2.142857e-01
0.000000e+00		-2.500000e-01		-2.142857e-01
0.000000e+00		-1.250000e-01		-2.142857e-01
0.000000e+00		0.000000e+00		-2.142857e-01
0.000000e+00		1.250000e-01		-2.142857e-01
0.000000e+00		2.500000e-01		-2.142857e-01
0.000000e+00		3.750000e-01		-2.142857e-01
0.000000e+00		5.000000e-01		-2.142857e-01
1.250000e-01		-5.000000e-01		-2.142857e-01
1.250000e-01		-2.500000e-01		-2.142857e-01
1.250000e-01		0.000000e+00		-2.142857e-01
1.250000e-01		2.500000e-01		-2.142857e-01
1.250000e-01		5.000000e-01		-2.142857e-01
2.500000e-01		-5.000000e-01		-2.142857e-01
2.500000e-01		-3.750000e-01		-2.142857e-01
2.500000e-01		-2.500000e-01		-2.142857e-01
2.500000e-01		-1.250000e-01		-2.142857e-01
2.500000e-01		0.000000e+00		-2.142857e-01
2.500000e-01		1.250000e-01		-2.142857e-01
2.500000e-01		2.500000e-01		-2.142857e-01
2.500000e-01		3.750000e-01		-2.142857e-01
2.500000e-01		5.000000e-01		-2.142857e-01
3.750000e-01		-5.000000e-01		-2.142857e-01
3.750000e-01		-2.500000e-01		-2.142857e-01
3.750000e-01		0.000000e+00		-2.142857e-01
3.750000e-01		2.500000e-01		-2.142857e-01
3.750000e-01		5.000000e-01		-2.142857e-01
5.000000e-01		-5.000000e-01		-2.142857e-01
5.000000e-01		-3.750000e-01		-2.142857e-01
5.000000e-01		-2.500000e-01		-2.142857e-01
5.000000e-01		-1.250000e-01		-2.142857e-01
5.000000e-01		0.000000e+00		-2.142857e-01
5.000000e-01		1.250000e-01		-2.142857e-01
5.000000e-01		2.500000e-01		-2.142857e-01
5.000000e-01		3.750000e-01		-2.142857e-01
5.000000e-01		5.000000e-01		-2.142857e-01
-5.000000e-01		-5.000000e-01		-1.071429e-01
-5.000000e-01		-2.500000e-01		-1.071429e-01
-5.000000e-01		0.000000e+00		-1.071429e-01
-5.000000e-01		2.500000e-01		-1.071429e-01
-5.000000e-01		5.000000e-01		-1.071429e-01
-2.500000e-01		-5.000000e-01		-1.071429e-01
-2.500000e-01		-2.500000e-01		-1.071429e-01
-2.500000e-01		0.000000e+00		-1.071429e-01
-2.500000e-01		2.500000e-01		-1.071429e-01
-2.500000e-01		5.000000e-01		-1.071429e-01
0.000000e+00		-5.000000e-01		-1.071429e-01
0.000000e+00		-2.500000e-01		-1.071429e-01
0.000000e+00		0.000000e+00		-1.071429e-01
0.000000e+00		2.500000e-01		-1.071429e-01
0.000000e+00		5.000000e-01		-1.071429e-01
2.500000e-01		-5.000000e-01		-1.071429e-01
2.500000e-01		-2.500000e-01		-1.071429e-01
2.500000e-01		0.000000e+00		-1.071429e-01
2.500000e-01		2.500000e-01		-1.071429e-01
2.500000e-01		5.000000e-01		-1.071429e-01
5.000000e-01		-5.000000e-01		-1.071429e-01
5.000000e-01		-2.500000e-01		-1.071429e-01
5.000000e-01		0.000000e+00		-1.071429e-01
5.000000e-01		2.500000e-01		-1.071429e-01
5.000000e-01		5.000000e-01		-1.071429e-01
-5.000000e-01		-5.000000e-01		0.000000e+00
-5.000000e-01		-3.750000e-01		0.000000e+00
-5.000000e-01		-2.500000e-01		0.000000e+00
-5.000000e-01		-1.250000e-01		0.000000e+00
-5.000000e-01		0.000000e+00		0.000000e+00
-5.000000e-01		1.250000e-01		0.000000e+00
-5.000000e-01		2.500000e-01		0.000000e+00
-5.000000e-01		3.750000e-01		0.000000e+00
-5.000000e-01		5.000000e-01		0.000000e+00
-3.750000e-01		-5.000000e-01		0.000000e+00
-3.750000e-01		-2.500000e-01		0.000000e+00
-3.750000e-01		0.000000e+00		0.000000e+00
-3.750000e-01		2.500000e-01		0.000000e+00
-3.750000e-01		5.000000e-01		0.000000e+00
-2.500000e-01		-5.000000e-01		0.000000e+00
-2.500000e-01		-3.750000e-01		0.000000e+00
-2.500000e-01		-2.500000e-01		0.000000e+00
-2.500000e-01		-1.250000e-01		0.000000e+00
-2.500000e-01		0.000000e+00		0.000000e+00
-2.500000e-01		1.250000e-01		0.000000e+00
-2.500000e-01		2.500000e-01		0.000000e+00
-2.500000e-01		3.750000e-01		0.000000e+00
-2.500000e-01		5.000000e-01		0.000000e+00
-1.250000e-01		-5.000000e-01		0.000000e+00
-1.250000e-01		-2.500000e-01		0.000000e+00
-1.250000e-01		0.000000e+00		0.000000e+00
-1.250000e-01		2.500000e-01		0.000000e+00
-1.250000e-01		5.000000e-01		0.000000e+00
0.000000e+00		-5.000000e-01		0.000000e+00
0.000000e+00		-3.750000e-01		0.000000e+00
0.000000e+00		-2.500000e-01		0.000000e+00
0.000000e+00		-1.250000e-01		0.000000e+00
0.000000e+00		0.000000e+00		0.000000e+00
0.000000e+00		1.250000e-01		0.000000e+00
0.000000e+00		2.500000e-01		0.000000e+00
0.000000e+00		3.750000e-01		0.000000e+00
0.000000e+00		5.000000e-01		0.000000e+00
1.250000e-01		-5.000000e-01		0.000000e+00
1.250000e-01		-2.500000e-01		0.000000e+00
1.250000e-01		0.000000e+00		0.000000e+00
1.250000e-01		2.500000e-01		0.000000e+00
1.250000e-01		5.000000e-01		0.000000e+00
2.500000e-01		-5.000000e-01		0.000000e+00
2.500000e-01		-3.750000e-01		0.000000e+00
2.500000e-01		-2.500000e-01		0.000000e+00
2.500000e-01		-1.250000e-01		0.000000e+00
2.500000e-01		0.000000e+00		0.000000e+00
2.500000e-01		1.250000e-01		0.000000e+00
2.500000e-01		2.500000e-01		0.000000e+00
2.500000e-01		3.750000e-01		0.000000e+00
2.500000e-01		5.000000e-01		0.000000e+00
3.750000e-01		-5.000000e-01		0.000000e+00
3.750000e-01		-2.500000e-01		0.000000e+00
3.750000e-01		0.000000e+00		0.000000e+00
3.750000e-01		2.500000e-01		0.000000e+00
3.750000e-01		5.000000e-01		0.000000e+00
5.000000e-01		-5.000000e-01		0.000000e+00
5.000000e-01		-3.750000e-01		0.000000e+00
5.000000e-01		-2.500000e-01		0.000000e+00
5.000000e-01		-1.250000e-01		0.000000e+00
5.000000e-01		0.000000e+00		0.000000e+00
5.000000e-01		1.250000e-01		0.000000e+00
5.000000e-01		2.500000e-01		0.000000e+00
5.000000e-01		3.750000e-01		0.000000e+00
5.000000e-01		5.000000e-01		0.000000e+00
-5.000000e-01		-5.000000e-01		1.071429e-01
-5.000000e-01		-2.500000e-01		1.071429e-01
-5.000000e-01		0.000000e+00		1.071429e-01
-5.000000e-01		2.500000e-01		1.071429e-01
-5.000000e-01		5.000000e-01		1.071429e-01
-2.500000e-01		-5.000000e-01		1.071429e-01
-2.500000e-01		-2.500000e-01		1.071429e-01
-2.500000e-01		0.000000e+00		1.071429e-01
-2.500000e-01		2.500000e-01		1.071429e-01
-2.500000e-01		5.000000e-01		1.071429e-01
0.000000e+00		-5.000000e-01		1.071429e-01
0.000000e+00		-2.500000e-01		1.071429e-01
0.000000e+00		0.000000e+00		1.071429e-01
0.000000e+00		2.500000e-01		1.071429e-01
0.000000e+00		5.000000e-01		1.071429e-01
2.500000e-01		-5.000000e-01		1.071429e-01
2.500000e-01		-2.500000e-01		1.071429e-01
2.500000e-01		0.000000e+00		1.071429e-01
2.500000e-01		2.500000e-01		1.071429e-01
2.500000e-01		5.000000e-01		1.071429e-01
5.000000e-01		-5.000000e-01		1.071429e-01
5.000000e-01		-2.500000e-01		1.071429e-01
5.000000e-01		0.000000e+00		1.071429e-01
5.000000e-01		2.500000e-01		1.071429e-01
5.000000e-01		5.000000e-01		1.071429e-01
-5.000000e-01		-5.000000e-01		2.142857e-01
-5.000000e-01		-3.750000e-01		2.142857e-01
-5.000000e-01		-2.500000e-01		2.142857e-01
-5.000000e-01		-1.250000e-01		2.142857e-01
-5.000000e-01		0.000000e+00		2.142857e-01
-5.000000e-01		1.250000e-01		2.142857e-01
-5.000000e-01		2.500000e-01		2.142857e-01
-5.000000e-01		3.750000e-01		2.142857e-01
-5.000000e-01		5.000000e-01		2.142857e-01
-3.750000e-01		-5.000000e-01		2.142857e-01
-3.750000e-01		-2.500000e-01		2.142857e-01
-3.750000e-01		0.000000e+00		2.142857e-01
-3.750000e-01		2.500000e-01		2.142857e-01
-3.750000e-01		5.000000e-01		2.142857e-01
-2.500000e-01		-5.000000e-01		2.142857e-01
-2.500000e-01		-3.750000e-01		2.142857e-01
-2.500000e-01		-2.500000e-01		2.142857e-01
-2.500000e-01		-1.250000e-01		2.142857e-01
-2.500000e-01		0.000000e+00		2.142857e-01
-2.500000e-01		1.250000e-01		2.142857e-01
-2.500000e-01		2.500000e-01		2.142857e-01
-2.500000e-01		3.750000e-01		2.142857e-01
-2.500000e-01		5.000000e-01		2.142857e-01
-1.250000e-01		-5.000000e-01		2.142857e-01
-1.250000e-01		-2.500000e-01		2.142857e-01
-1.250000e-01		0.000000e+00		2.142857e-01
-1.250000e-01		2.500000e-01		2.142857e-01
-1.250000e-01		5.000000e-01		2.142857e-01
0.000000e+00		-5.000000e-01		2.142857e-01
0.000000e+00		-3.750000e-01		2.142857e-01
0.000000e+00		-2.500000e-01		2.142857e-01
0.000000e+00		-1.250000e-01		2.142857e-01
0.000000e+00		0.000000e+00		2.142857e-01
0.000000e+00		1.250000e-01		2.142857e-01
0.000000e+00		2.500000e-01		2.142857e-01
0.000000e+00		3.750000e-01		2.142857e-01
0.000000e+00		5.000000e-01		2.142857e-01
1.250000e-01		-5.000000e-01		2.142857e-01
1.250000e-01		-2.500000e-01		2.142857e-01
1.250000e-01		0.000000e+00		2.142857e-01
1.250000e-01		2.500000e-01		2.142857e-01
1.250000e-01		5.000000e-01		2.142857e-01
2.500000e-01		-5.000000e-01		2.142857e-01
2.500000e-01		-3.750000e-01		2.142857e-01
2.500000e-01		-2.500000e-01		2.142857e-01
2.500000e-01		-1.250000e-01		2.142857e-01
2.500000e-01		0.000000e+00		2.142857e-01
2.500000e-01		1.250000e-01		2.142857e-01
2.500000e-01		2.500000e-01		2.142857e-01
2.500000e-01		3.750000e-01		2.142857e-01
2.500000e-01		5.000000e-01		2.142857e-01
3.750000e-01		-5.000000e-01		2.142857e-01
3.750000e-01		-2.500000e-01		2.142857e-01
3.750000e-01		0.000000e+00		2.142857e-01
3.750000e-01		2.500000e-01		2.142857e-01
3.750000e-01		5.000000e-01		2.142857e-01
5.000000e-01		-5.000000e-01		2.142857e-01
5.000000e-01		-3.750000e-01		2.142857e-01
5.000000e-01		-2.500000e-01		2.142857e-01
5.000000e-01		-1.250000e-01		2.142857e-01
5.000000e-01		0.000000e+00		2.142857e-01
5.000000e-01		1.250000e-01		2.142857e-01
5.000000e-01		2.500000e-01		2.142857e-01
5.000000e-01		3.750000e-01		2.142857e-01
5.000000e-01		5.000000e-01		2.142857e-01
-5.000000e-01		-5.000000e-01		3.214286e-01
-5.000000e-01		-2.500000e-01		3.214286e-01
-5.000000e-01		0.000000e+00		3.214286e-01
-5.000000e-01		2.500000e-01		3.214286e-01
-5.000000e-01		5.000000e-01		3.214286e-01
-2.500000e-01		-5.000000e-01		3.214286e-01
-2.500000e-01		-2.500000e-01		3.214286e-01
-2.500000e-01		0.000000e+00		3.214286e-01
-2.500000e-01		2.500000e-01		3.214286e-01
-2.500000e-01		5.000000e-01		3.214286e-01
0.000000e+00		-5.000000e-01		3.214286e-01
0.000000e+00		-2.500000e-01		3.214286e-01
0.000000e+00		0.000000e+00		3.214286e-01
0.000000e+00		2.500000e-01		3.214286e-01
0.000000e+00		5.000000e-01		3.214286e-01
2.500000e-01		-5.000000e-01		3.214286e-01
2.500000e-01		-2.500000e-01		3.214286e-01
2.500000e-01		0.000000e+00		3.214286e-01
2.500000e-01		2.500000e-01		3.214286e-01
2.500000e-01		5.000000e-01		3.214286e-01
5.000000e-01		-5.000000e-01		3.214286e-01
5.000000e-01		-2.500000e-01		3.214286e-01
5.000000e-01		0.000000e+00		3.214286e-01
5.000000e-01		2.500000e-01		3.214286e-01
5.000000e-01		5.000000e-01		3.214286e-01
-5.000000e-01		-5.000000e-01		4.285714e-01
-5.000000e-01		-3.750000e-01		4.285714e-01
-5.000000e-01		-2.500000e-01		4.285714e-01
-5.000000e-01		-1.250000e-01		4.285714e-01
-5.000000e-01		0.000000e+00		4.285714e-01
-5.000000e-01		1.250000e-01		4.285714e-01
-5.000000e-01		2.500000e-01		4.285714e-01
-5.000000e-01		3.750000e-01		4.285714e-01
-5.000000e-01		5.000000e-01		4.285714e-01
-3.750000e-01		-5.000000e-01		4.285714e-01
-3.750000e-01		-2.500000e-01		4.285714e-01
-3.750000e-01		0.000000e+00		4.285714e-01
-3.750000e-01		2.500000e-01		4.285714e-01
-3.750000e-01		5.000000e-01		4.285714e-01
-2.500000e-01		-5.000000e-01		4.285714e-01
-2.500000e-01		-3.750000e-01		4.285714e-01
-2.500000e-01		-2.500000e-01		4.285714e-01
-2.500000e-01		-1.250000e-01		4.285714e-01
-2.500000e-01		0.000000e+00		4.285714e-01
-2.500000e-01		1.250000e-01		4.285714e-01
-2.500000e-01		2.500000e-01		4.285714e-01
-2.500000e-01		3.750000e-01		4.285714e-01
-2.500000e-01		5.000000e-01		4.285714e-01
-1.250000e-01		-5.000000e-01		4.285714e-01
-1.250000e-01		-2.500000e-01		4.285714e-01
-1.250000e-01		0.000000e+00		4.285714e-01
-1.250000e-01		2.500000e-01		4.285714e-01
-1.250000e-01		5.000000e-01		4.285714e-01
0.000000e+00		-5.000000e-01		4.285714e-01
0.000000e+00		-3.750000e-01		4.285714e-01
0.000000e+00		-2.500000e-01		4.285714e-01
0.000000e+00		-1.250000e-01		4.285714e-01
0.000000e+00		0.000000e+00		4.285714e-01
0.000000e+00		1.250000e-01		4.285714e-01
0.000000e+00		2.500000e-01		4.285714e-01
0.000000e+00		3.750000e-01		4.285714e-01
0.000000e+00		5.000000e-01		4.285714e-01
1.250000e-01		-5.000000e-01		4.285714e-01
1.250000e-01		-2.500000e-01		4.285714e-01
1.250000e-01		0.000000e+00		4.285714e-01
1.250000e-01		2.500000e-01		4.285714e-01
1.250000e-01		5.000000e-01		4.285714e-01
2.500000e-01		-5.000000e-01		4.285714e-01
2.500000e-01		-3.750000e-01		4.285714e-01
2.500000e-01		-2.500000e-01		4.285714e-01
2.500000e-01		-1.250000e-01		4.285714e-01
2.500000e-01		0.000000e+00		4.285714e-01
2.500000e-01		1.250000e-01		4.285714e-01
2.500000e-01		2.500000e-01		4.285714e-01
2.500000e-01		3.750000e-01		4.285714e-01
2.500000e-01		5.000000e-01		4.285714e-01
3.750000e-01		-5.000000e-01		4.285714e-01
3.750000e-01		-2.500000e-01		4.285714e-01
3.750000e-01		0.000000e+00		4.285714e-01
3.750000e-01		2.500000e-01		4.285714e-01
3.750000e-01		5.000000e-01		4.285714e-01
5.000000e-01		-5.000000e-01		4.285714e-01
5.000000e-01		-3.750000e-01		4.285714e-01
5.000000e-01		-2.500000e-01		4.285714e-01
5.000000e-01		-1.250000e-01		4.285714e-01
5.000000e-01		0.000000e+00		4.285714e-01
5.000000e-01		1.250000e-01		4.285714e-01
5.000000e-01		2.500000e-01		4.285714e-01
5.000000e-01		3.750000e-01		4.285714e-01
5.000000e-01		5.000000e-01		4.285714e-01
-5.000000e-01		-5.000000e-01		5.357143e-01
-5.000000e-01		-2.500000e-01		5.357143e-01
-5.000000e-01		0.000000e+00		5.357143e-01
-5.000000e-01		2.500000e-01		5.357143e-01
-5.000000e-01		5.000000e-01		5.357143e-01
-2.500000e-01		-5.000000e-01		5.357143e-01
-2.500000e-01		-2.500000e-01		5.357143e-01
-2.500000e-01		0.000000e+00		5.357143e-01
-2.500000e-01		2.500000e-01		5.357143e-01
-2.500000e-01		5.000000e-01		5.357143e-01
0.000000e+00		-5.000000e-01		5.357143e-01
0.000000e+00		-2.500000e-01		5.357143e-01
0.000000e+00		0.000000e+00		5.357143e-01
0.000000e+00		2.500000e-01		5.357143e-01
0.000000e+00		5.000000e-01		5.357143e-01
2.500000e-01		-5.000000e-01		5.357143e-01
2.500000e-01		-2.500000e-01		5.357143e-01
2.500000e-01		0.000000e+00		5.357143e-01
2.500000e-01		2.500000e-01		5.357143e-01
2.500000e-01		5.000000e-01		5.357143e-01
5.000000e-01		-5.000000e-01		5.357143e-01
5.000000e-01		-2.500000e-01		5.357143e-01
5.000000e-01		0.000000e+00		5.357143e-01
5.000000e-01		2.500000e-01		5.357143e-01
5.000000e-01		5.000000e-01		5.357143e-01
-5.000000e-01		-5.000000e-01		6.428571e-01
-5.000000e-01		-3.750000e-01		6.428571e-01
-5.000000e-01		-2.500000e-01		6.428571e-01
-5.000000e-01		-1.250000e-01		6.428571e-01
-5.000000e-01		0.000000e+00		6.428571e-01
-5.000000e-01		1.250000e-01		6.428571e-01
-5.000000e-01		2.500000e-01		6.428571e-01
-5.000000e-01		3.750000e-01		6.428571e-01
-5.000000e-01		5.000000e-01		6.428571e-01
-3.750000e-01		-5.000000e-01		6.428571e-01
-3.750000e-01		-2.500000e-01		6.428571e-01
-3.750000e-01		0.000000e+00		6.428571e-01
-3.750000e-01		2.500000e-01		6.428571e-01
-3.750000e-01		5.000000e-01		6.428571e-01
-2.500000e-01		-5.000000e-01		6.428571e-01
-2.500000e-01		-3.750000e-01		6.428571e-01
-2.500000e-01		-2.500000e-01		6.428571e-01
-2.500000e-01		-1.250000e-01		6.428571e-01
-2.500000e-01		0.000000e+00		6.428571e-01
-2.500000e-01		1.250000e-01		6.428571e-01
-2.500000e-01		2.500000e-01		6.428571e-01
-2.500000e-01		3.750000e-01		6.428571e-01
-2.500000e-01		5.000000e-01		6.428571e-01
-1.250000e-01		-5.000000e-01		6.428571e-01
-1.250000e-01		-2.500000e-01		6.428571e-01
-1.250000e-01		0.000000e+00		6.428571e-01
-1.250000e-01		2.500000e-01		6.428571e-01
-1.250000e-01		5.000000e-01		6.428571e-01
0.000000e+00		-5.000000e-01		6.428571e-01
0.000000e+00		-3.750000e-01		6.428571e-01
0.000000e+00		-2.500000e-01		6.428571e-01
0.000000e+00		-1.250000e-01		6.428571e-01
0.000000e+00		0.000000e+00		6.428571e-01
0.000000e+00		1.250000e-01		6.428571e-01
0.000000e+00		2.500000e-01		6.428571e-01
0.000000e+00		3.750000e-01		6.428571e-01
0.000000e+00		5.000000e-01		6.428571e-01
1.250000e-01		-5.000000e-01		6.428571e-01
1.250000e-01		-2.500000e-01		6.428571e-01
1.250000e-01		0.000000e+00		6.428571e-01
1.250000e-01		2.500000e-01		6.428571e-01
1.250000e-01		5.000000e-01		6.428571e-01
2.500000e-01		-5.000000e-01		6.428571e-01
2.500000e-01		-3.750000e-01		6.428571e-01
2.500000e-01		-2.500000e-01		6.428571e-01
2.500000e-01		-1.250000e-01		6.428571e-01
2.500000e-01		0.000000e+00		6.428571e-01
2.500000e-01		1.250000e-01		6.428571e-01
2.500000e-01		2.500000e-01		6.428571e-01
2.500000e-01		3.750000e-01		6.428571e-01
2.500000e-01		5.000000e-01		6.428571e-01
3.750000e-01		-5.000000e-01		6.428571e-01
3.750000e-01		-2.500000e-01		6.428571e-01
3.750000e-01		0.000000e+00		6.428571e-01
3.750000e-01		2.500000e-01		6.428571e-01
3.750000e-01		5.000000e-01		6.428571e-01
5.000000e-01		-5.000000e-01		6.428571e-01
5.000000e-01		-3.750000e-01		6.428571e-01
5.000000e-01		-2.500000e-01		6.428571e-01
5.000000e-01		-1.250000e-01		6.428571e-01
5.000000e-01		0.000000e+00		6.428571e-01
5.000000e-01		1.250000e-01		6.428571e-01
5.000000e-01		2.500000e-01		6.428571e-01
5.000000e-01		3.750000e-01		6.428571e-01
5.000000e-01		5.000000e-01		6.428571e-01
-5.000000e-01		-5.000000e-01		7.500000e-01
-5.000000e-01		-2.500000e-01		7.500000e-01
-5.000000e-01		0.000000e+00		7.500000e-01
-5.000000e-01		2.500000e-01		7.500000e-01
-5.000000e-01		5.000000e-01		7.500000e-01
-2.500000e-01		-5.000000e-01		7.500000e-01
-2.500000e-01		-2.500000e-01		7.500000e-01
-2.500000e-01		0.000000e+00		7.500000e-01
-2.500000e-01		2.500000e-01		7.500000e-01
-2.500000e-01		5.000000e-01		7.500000e-01
0.000000e+00		-5.000000e-01		7.500000e-01
0.000000e+00		-2.500000e-01		7.500000e-01
0.000000e+00		0.000000e+00		7.500000e-01
0.000000e+00		2.500000e-01		7.500000e-01
0.000000e+00		5.000000e-01		7.500000e-01
2.500000e-01		-5.000000e-01		7.500000e-01
2.500000e-01		-2.500000e-01		7.500000e-01
2.500000e-01		0.000000e+00		7.500000e-01
2.500000e-01		2.500000e-01		7.500000e-01
2.500000e-01		5.000000e-01		7.500000e-01
5.000000e-01		-5.000000e-01		7.500000e-01
5.000000e-01		-2.500000e-01		7.500000e-01
5.000000e-01		0.000000e+00		7.500000e-01
5.000000e-01		2.500000e-01		7.500000e-01
5.000000e-01		5.000000e-01		7.500000e-01
-5.000000e-01		-5.000000e-01		8.571429e-01
-5.000000e-01		-3.750000e-01		8.571429e-01
-5.000000e-01		-2.500000e-01		8.571429e-01
-5.000000e-01		-1.250000e-01		8.571429e-01
-5.000000e-01		0.000000e+00		8.571429e-01
-5.000000e-01		1.250000e-01		8.571429e-01
-5.000000e-01		2.500000e-01		8.571429e-01
-5.000000e-01		3.750000e-01		8.571429e-01
-5.000000e-01		5.000000e-01		8.571429e-01
-3.750000e-01		-5.000000e-01		8.571429e-01
-3.750000e-01		-2.500000e-01		8.571429e-01
-3.750000e-01		0.000000e+00		8.571429e-01
-3.750000e-01		2.500000e-01		8.571429e-01
-3.750000e-01		5.000000e-01		8.571429e-01
-2.500000e-01		-5.000000e-01		8.571429e-01
-2.500000e-01		-3.750000e-01		8.571429e-01
-2.500000e-01		-2.500000e-01		8.571429e-01
-2.500000e-01		-1.250000e-01		8.571429e-01
-2.500000e-01		0.000000e+00		8.571429e-01
-2.500000e-01		1.250000e-01		8.571429e-01
-2.500000e-01		2.500000e-01		8.571429e-01
-2.500000e-01		3.750000e-01		8.571429e-01
-2.500000e-01		5.000000e-01		8.571429e-01
-1.250000e-01		-5.000000e-01		8.571429e-01
-1.250000e-01		-2.500000e-01		8.571429e-01
-1.250000e-01		0.000000e+00		8.571429e-01
-1.250000e-01		2.500000e-01		8.571429e-01
-1.250000e-01		5.000000e-01		8.571429e-01
0.000000e+00		-5.000000e-01		8.571429e-01
0.000000e+00		-3.750000e-01		8.571429e-01
0.000000e+00		-2.500000e-01		8.571429e-01
0.000000e+00		-1.250000e-01		8.571429e-01
0.000000e+00		0.000000e+00		8.571429e-01
0.000000e+00		1.250000e-01		8.571429e-01
0.000000e+00		2.500000e-01		8.571429e-01
0.000000e+00		3.750000e-01		8.571429e-01
0.000000e+00		5.000000e-01		8.571429e-01
1.250000e-01		-5.000000e-01		8.571429e-01
1.250000e-01		-2.500000e-01		8.571429e-01
1.250000e-01		0.000000e+00		8.571429e-01
1.250000e-01		2.500000e-01		8.571429e-01
1.250000e-01		5.000000e-01		8.571429e-01
2.500000e-01		-5.000000e-01		8.571429e-01
2.500000e-01		-3.750000e-01		8.571429e-01
2.500000e-01		-2.500000e-01		8.571429e-01
2.500000e-01		-1.250000e-01		8.571429e-01
2.500000e-01		0.000000e+00		8.571429e-01
2.500000e-01		1.250000e-01		8.571429e-01
2.500000e-01		2.500000e-01		8.571429e-01
2.500000e-01		3.750000e-01		8.571429e-01
2.500000e-01		5.000000e-01		8.571429e-01
3.750000e-01		-5.000000e-01		8.571429e-01
3.750000e-01		-2.500000e-01		8.571429e-01
3.750000e-01		0.000000e+00		8.571429e-01
3.750000e-01		2.500000e-01		8.571429e-01
3.750000e-01		5.000000e-01		8.571429e-01
5.000000e-01		-5.000000e-01		8.571429e-01
5.000000e-01		-3.750000e-01		8.571429e-01
5.000000e-01		-2.500000e-01		8.571429e-01
5.000000e-01		-1.250000e-01		8.571429e-01
5.000000e-01		0.000000e+00		8.571429e-01
5.000000e-01		1.250000e-01		8.571429e-01
5.000000e-01		2.500000e-01		8.571429e-01
5.000000e-01		3.750000e-01		8.571429e-01
5.000000e-01		5.000000e-01		8.571429e-01
-5.000000e-01		-5.000000e-01		9.642857e-01
-5.000000e-01		-2.500000e-01		9.642857e-01
-5.000000e-01		0.000000e+00		9.642857e-01
-5.000000e-01		2.500000e-01		9.642857e-01
-5.000000e-01		5.000000e-01		9.642857e-01
-2.500000e-01		-5.000000e-01		9.642857e-01
-2.500000e-01		-2.500000e-01		9.642857e-01
-2.500000e-01		0.000000e+00		9.642857e-01
-2.500000e-01		2.500000e-01		9.642857e-01
-2.500000e-01		5.000000e-01		9.642857e-01
0.000000e+00		-5.000000e-01		9.642857e-01
0.000000e+00		-2.500000e-01		9.642857e-01
0.000000e+00		0.000000e+00		9.642857e-01
0.000000e+00		2.500000e-01		9.642857e-01
0.000000e+00		5.000000e-01		9.642857e-01
2.500000e-01		-5.000000e-01		9.642857e-01
2.500000e-01		-2.500000e-01		9.642857e-01
2.500000e-01		0.000000e+00		9.642857e-01
2.500000e-01		2.500000e-01		9.642857e-01
2.500000e-01		5.000000e-01		9.642857e-01
5.000000e-01		-5.000000e-01		9.642857e-01
5.000000e-01		-2.500000e-01		9.642857e-01
5.000000e-01		0.000000e+00		9.642857e-01
5.000000e-01		2.500000e-01		9.642857e-01
5.000000e-01		5.000000e-01		9.642857e-01
-5.000000e-01		-5.000000e-01		1.071429e+00
-5.000000e-01		-3.750000e-01		1.071429e+00
-5.000000e-01		-2.500000e-01		1.071429e+00
-5.000000e-01		-1.250000e-01		1.071429e+00
-5.000000e-01		0.000000e+00		1.071429e+00
-5.000000e-01		1.250000e-01		1.071429e+00
-5.000000e-01		2.500000e-01		1.071429e+00
-5.000000e-01		3.750000e-01		1.071429e+00
-5.000000e-01		5.000000e-01		1.071429e+00
-3.750000e-01		-5.000000e-01		1.071429e+00
-3.750000e-01		-2.500000e-01		1.071429e+00
-3.750000e-01		0.000000e+00		1.071429e+00
-3.750000e-01		2.500000e-01		1.071429e+00
-3.750000e-01		5.000000e-01		1.071429e+00
-2.500000e-01		-5.000000e-01		1.071429e+00
-2.500000e-01		-3.750000e-01		1.071429e+00
-2.500000e-01		-2.500000e-01		1.071429e+00
-2.500000e-01		-1.250000e-01		1.071429e+00
-2.500000e-01		0.000000e+00		1.071429e+00
-2.500000e-01		1.250000e-01		1.071429e+00
-2.500000e-01		2.500000e-01		1.071429e+00
-2.500000e-01		3.750000e-01		1.071429e+00
-2.500000e-01		5.000000e-01		1.071429e+00
-1.250000e-01		-5.000000e-01		1.071429e+00
-1.250000e-01		-2.500000e-01		1.071429e+00
-1.250000e-01		0.000000e+00		1.071429e+00
-1.250000e-01		2.500000e-01		1.071429e+00
-1.250000e-01		5.000000e-01		1.071429e+00
0.000000e+00		-5.000000e-01		1.071429e+00
0.000000e+00		-3.750000e-01		1.071429e+00
0.000000e+00		-2.500000e-01		1.071429e+00
0.000000e+00		-1.250000e-01		1.071429e+00
0.000000e+00		0.000000e+00		1.071429e+00
0.000000e+00		1.250000e-01		1.071429e+00
0.000000e+00		2.500000e-01		1.071429e+00
0.000000e+00		3.750000e-01		1.071429e+00
0.000000e+00		5.000000e-01		1.071429e+00
1.250000e-01		-5.000000e-01		1.071429e+00
1.250000e-01		-2.500000e-01		1.071429e+00
1.250000e-01		0.000000e+00		1.071429e+00
1.250000e-01		2.500000e-01		1.071429e+00
1.250000e-01		5.000000e-01		1.071429e+00
2.500000e-01		-5.000000e-01		1.071429e+00
2.500000e-01		-3.750000e-01		1.071429e+00
2.500000e-01		-2.500000e-01		1.071429e+00
2.500000e-01		-1.250000e-01		1.071429e+00
2.500000e-01		0.000000e+00		1.071429e+00
2.500000e-01		1.250000e-01		1.071429e+00
2.500000e-01		2.500000e-01		1.071429e+00
2.500000e-01		3.750000e-01		1.071429e+00
2.500000e-01		5.000000e-01		1.071429e+00
3.750000e-01		-5.000000e-01		1.071429e+00
3.750000e-01		-2.500000e-01		1.071429e+00
3.750000e-01		0.000000e+00		1.071429e+00
3.750000e-01		2.500000e-01		1.071429e+00
3.750000e-01		5.000000e-01		1.071429e+00
5.000000e-01		-5.000000e-01		1.071429e+00
5.000000e-01		-3.750000e-01		1.071429e+00
5.000000e-01		-2.500000e-01		1.071429e+00
5.000000e-01		-1.250000e-01		1.071429e+00
5.000000e-01		0.000000e+00		1.071429e+00
5.000000e-01		1.250000e-01		1.071429e+00
5.000000e-01		2.500000e-01		1.071429e+00
5.000000e-01		3.750000e-01		1.071429e+00
5.000000e-01		5.000000e-01		1.071429e+00
-5.000000e-01		-5.000000e-01		1.178571e+00
-5.000000e-01		-2.500000e-01		1.178571e+00
-5.000000e-01		0.000000e+00		1.178571e+00
-5.000000e-01		2.500000e-01		1.178571e+00
-5.000000e-01		5.000000e-01		1.178571e+00
-2.500000e-01		-5.000000e-01		1.178571e+00
-2.500000e-01		-2.500000e-01		1.178571e+00
-2.500000e-01		0.000000e+00		1.178571e+00
-2.500000e-01		2.500000e-01		1.178571e+00
-2.500000e-01		5.000000e-01		1.178571e+00
0.000000e+00		-5.000000e-01		1.178571e+00
0.000000e+00		-2.500000e-01		1.178571e+00
0.000000e+00		0.000000e+00		1.178571e+00
0.000000e+00		2.500000e-01		1.178571e+00
0.000000e+00		5.000000e-01		1.178571e+00
2.500000e-01		-5.000000e-01		1.178571e+00
2.500000e-01		-2.500000e-01		1.178571e+00
2.500000e-01		0.000000e+00		1.178571e+00
2.500000e-01		2.500000e-01		1.178571e+00
2.500000e-01		5.000000e-01		1.178571e+00
5.000000e-01		-5.000000e-01		1.178571e+00
5.000000e-01		-2.500000e-01		1.178571e+00
5.000000e-01		0.000000e+00		1.178571e+00
5.000000e-01		2.500000e-01		1.178571e+00
5.000000e-01		5.000000e-01		1.178571e+00
-5.000000e-01		-5.000000e-01		1.285714e+00
-5.000000e-01		-3.750000e-01		1.285714e+00
-5.000000e-01		-2.500000e-01		1.285714e+00
-5.000000e-01		-1.250000e-01		1.285714e+00
-5.000000e-01		0.000000e+00		1.285714e+00
-5.000000e-01		1.250000e-01		1.285714e+00
-5.000000e-01		2.500000e-01		1.285714e+00
-5.000000e-01		3.750000e-01		1.285714e+00
-5.000000e-01		5.000000e-01		1.285714e+00
-3.750000e-01		-5.000000e-01		1.285714e+00
-3.750000e-01		-2.500000e-01		1.285714e+00
-3.750000e-01		0.000000e+00		1.285714e+00
-3.750000e-01		2.500000e-01		1.285714e+00
-3.750000e-01		5.000000e-01		1.285714e+00
-2.500000e-01		-5.000000e-01		1.285714e+00
-2.500000e-01		-3.750000e-01		1.285714e+00
-2.500000e-01		-2.500000e-01		1.285714e+00
-2.500000e-01		-1.250000e-01		1.285714e+00
-2.500000e-01		0.000000e+00		1.285714e+00
-2.500000e-01		1.250000e-01		1.285714e+00
-2.500000e-01		2.500000e-01		1.285714e+00
-2.500000e-01		3.750000e-01		1.285714e+00
-2.500000e-01		5.000000e-01		1.285714e+00
-1.250000e-01		-5.000000e-01		1.285714e+00
-1.250000e-01		-2.500000e-01		1.285714e+00
-1.250000e-01		0.000000e+00		1.285714e+00
-1.250000e-01		2.500000e-01		1.285714e+00
-1.250000e-01		5.000000e-01		1.285714e+00
0.000000e+00		-5.000000e-01		1.285714e+00
0.000000e+00		-3.750000e-01		1.285714e+00
0.000000e+00		-2.500000e-01		1.285714e+00
0.000000e+00		-1.250000e-01		1.285714e+00
0.000000e+00		0.000000e+00		1.285714e+00
0.000000e+00		1.250000e-01		1.285714e+00
0.000000e+00		2.500000e-01		1.285714e+00
0.000000e+00		3.750000e-01		1.285714e+00
0.000000e+00		5.000000e-01		1.285714e+00
1.250000e-01		-5.000000e-01		1.285714e+00
1.250000e-01		-2.500000e-01		1.285714e+00
1.250000e-01		0.000000e+00		1.285714e+00
1.250000e-01		2.500000e-01		1.285714e+00
1.250000e-01		5.000000e-01		1.285714e+00
2.500000e-01		-5.000000e-01		1.285714e+00
2.500000e-01		-3.750000e-01		1.285714e+00
2.500000e-01		-2.500000e-01		1.285714e+00
2.500000e-01		-1.250000e-01		1.285714e+00
2.500000e-01		0.000000e+00		1.285714e+00
2.500000e-01		1.250000e-01		1.285714e+00
2.500000e-01		2.500000e-01		1.285714e+00
2.500000e-01		3.750000e-01		1.285714e+00
2.500000e-01		5.000000e-01		1.285714e+00
3.750000e-01		-5.000000e-01		1.285714e+00
3.750000e-01		-2.500000e-01		1.285714e+00
3.750000e-01		0.000000e+00		1.285714e+00
3.750000e-01		2.500000e-01		1.285714e+00
3.750000e-01		5.000000e-01		1.285714e+00
5.000000e-01		-5.000000e-01		1.285714e+00
5.000000e-01		-3.750000e-01		1.285714e+00
5.000000e-01		-2.500000e-01		1.285714e+00
5.000000e-01		-1.250000e-01		1.285714e+00
5.000000e-01		0.000000e+00		1.285714e+00
5.000000e-01		1.250000e-01		1.285714e+00
5.000000e-01		2.500000e-01		1.285714e+00
5.000000e-01		3.750000e-01		1.285714e+00
5.000000e-01		5.000000e-01		1.285714e+00
-5.000000e-01		-5.000000e-01		1.392857e+00
-5.000000e-01		-2.500000e-01		1.392857e+00
-5.000000e-01		0.000000e+00		1.392857e+00
-5.000000e-01		2.500000e-01		1.392857e+00
-5.000000e-01		5.000000e-01		1.392857e+00
-2.500000e-01		-5.000000e-01		1.392857e+00
-2.500000e-01		-2.500000e-01		1.392857e+00
-2.500000e-01		0.000000e+00		1.392857e+00
-2.500000e-01		2.500000e-01		1.392857e+00
-2.500000e-01		5.000000e-01		1.392857e+00
0.000000e+00		-5.000000e-01		1.392857e+00
0.000000e+00		-2.500000e-01		1.392857e+00
0.000000e+00		0.000000e+00		1.392857e+00
0.000000e+00		2.500000e-01		1.392857e+00
0.000000e+00		5.000000e-01		1.392857e+00
2.500000e-01		-5.000000e-01		1.392857e+00
2.500000e-01		-2.500000e-01		1.392857e+00
2.500000e-01		0.000000e+00		1.392857e+00
2.500000e-01		2.500000e-01		1.392857e+00
2.500000e-01		5.000000e-01		1.392857e+00
5.000000e-01		-5.000000e-01		1.392857e+00
5.000000e-01		-2.500000e-01		1.392857e+00
5.000000e-01		0.000000e+00		1.392857e+00
5.000000e-01		2.500000e-01		1.392857e+00
5.000000e-01		5.000000e-01		1.392857e+00
-5.000000e-01		-5.000000e-01		1.500000e+00
-5.000000e-01		-3.750000e-01		1.500000e+00
-5.000000e-01		-2.500000e-01		1.500000e+00
-5.000000e-01		-1.250000e-01		1.500000e+00
-5.000000e-01		0.000000e+00		1.500000e+00
-5.000000e-01		1.250000e-01		1.500000e+00
-5.000000e-01		2.500000e-01		1.500000e+00
-5.000000e-01		3.750000e-01		1.500000e+00
-5.000000e-01		5.000000e-01		1.500000e+00
-3.750000e-01		-5.000000e-01		1.500000e+00
-3.750000e-01		-2.500000e-01		1.500000e+00
-3.750000e-01		0.000000e+00		1.500000e+00
-3.750000e-01		2.500000e-01		1.500000e+00
-3.750000e-01		5.000000e-01		1.500000e+00
-2.500000e-01		-5.000000e-01		1.500000e+00
-2.500000e-01		-3.750000e-01		1.500000e+00
-2.500000e-01		-2.500000e-01		1.500000e+00
-2.500000e-01		-1.250000e-01		1.500000e+00
-2.500000e-01		0.000000e+00		1.500000e+00
-2.500000e-01		1.250000e-01		1.500000e+00
-2.500000e-01		2.500000e-01		1.500000e+00
-2.500000e-01		3.750000e-01		1.500000e+00
-2.500000e-01		5.000000e-01		1.500000e+00
-1.250000e-01		-5.000000e-01		1.500000e+00
-1.250000e-01		-2.500000e-01		1.500000e+00
-1.250000e-01		0.000000e+00		1.500000e+00
-1.250000e-01		2.500000e-01		1.500000e+00
-1.250000e-01		5.000000e-01		1.500000e+00
0.000000e+00		-5.000000e-01		1.500000e+00
0.000000e+00		-3.750000e-01		1.500000e+00
0.000000e+00		-2.500000e-01		1.500000e+00
0.000000e+00		-1.250000e-01		1.500000e+00
0.000000e+00		0.000000e+00		1.500000e+00
0.000000e+00		1.250000e-01		1.500000e+00
0.000000e+00		2.500000e-01		1.500000e+00
0.000000e+00		3.750000e-01		1.500000e+00
0.000000e+00		5.000000e-01		1.500000e+00
1.250000e-01		-5.000000e-01		1.500000e+00
1.250000e-01		-2.500000e-01		1.500000e+00
1.250000e-01		0.000000e+00		1.500000e+00
1.250000e-01		2.500000e-01		1.500000e+00
1.250000e-01		5.000000e-01		1.500000e+00
2.500000e-01		-5.000000e-01		1.500000e+00
2.500000e-01		-3.750000e-01		1.500000e+00
2.500000e-01		-2.500000e-01		1.500000e+00
2.500000e-01		-1.250000e-01		1.500000e+00
2.500000e-01		0.000000e+00		1.500000e+00
2.500000e-01		1.250000e-01		1.500000e+00
2.500000e-01		2.500000e-01		1.500000e+00
2.500000e-01		3.750000e-01		1.500000e+00
2.500000e-01		5.000000e-01		1.500000e+00
3.750000e-01		-5.000000e-01		1.500000e+00
3.750000e-01		-2.500000e-01		1.500000e+00
3.750000e-01		0.000000e+00		1.500000e+00
3.750000e-01		2.500000e-01		1.500000e+00
3.750000e-01		5.000000e-01		1.500000e+00
5.000000e-01		-5.000000e-01		1.500000e+00
5.000000e-01		-3.750000e-01		1.500000e+00
5.000000e-01		-2.500000e-01		1.500000e+00
5.000000e-01		-1.250000e-01		1.500000e+00
5.000000e-01		0.000000e+00		1.500000e+00
5.000000e-01		1.250000e-01		1.500000e+00
5.000000e-01		2.500000e-01		1.500000e+00
5.000000e-01		3.750000e-01		1.500000e+00
5.000000e-01		5.000000e-01		1.500000e+00
CELLS 224 4704
20		0		14		16		2		90		104		106		92		9		15		10		1		99		105		100		91		65		70		71		66		
20		2		16		18		4		92		106		108		94		10		17		11		3		100		107		101		93		66		71		72		67		
20		4		18		20		6		94		108		110		96		11		19		12		5		101		109		102		95		67		72		73		68		
20		6		20		22		8		96		110		112		98		12		21		13		7		102		111		103		97		68		73		74		69		
20		14		28		30		16		104		118		120		106		23		29		24		15		113		119		114		105		70		75		76		71		
20		16		30		32		18		106		120		122		108		24		31		25		17		114		121		115		107		71		76		77		72		
20		18		32		34		20		108		122		124		110		25		33		26		19		115		123		116		109		72		77		78		73		
20		20		34		36		22		110		124		126		112		26		35		27		21		116		125		117		111		73		78		79		74		
20		28		42		44		30		118		132		134		120		37		43		38		29		127		133		128		119		75		80		81		76		
20		30		44		46		32		120		134		136		122		38		45		39		31		128		135		129		121		76		81		82		77		
20		32		46		48		34		122		136		138		124		39		47		40		33		129		137		130		123		77		82		83		78		
20		34		48		50		36		124		138		140		126		40		49		41		35		130		139		131		125		78		83		84		79		
20		42		56		58		44		132		146		148		134		51		57		52		43		141		147		142		133		80		85		86		81		
20		44		58		60		46		134		148		150		136		52		59		53		45		142		149		143		135		81		86		87		82		
20		46		60		62		48		136		150		152		138		53		61		54		47		143		151		144		137		82		87		88		83		
20		48		62		64		50		138		152		154		140		54		63		55		49		144		153		145		139		83		88		89		84		
20		90		104		106		92		180		194		196		182		99		105		100		91		189		195		190		181		155		160		161		156		
20		92		106		108		94		182		196		198		184		100		107		101		93		190		197		191		183		156		161		162		157		
20		94		108		110		96		184		198		200		186		101		109		102		95		191		199		192		185		157		162		163		158		
20		96		110		112		98		186		200		202		188		102		111		103		97		192		201		193		187		158		163		164		159		
20		104		118		120		106		194		208		210		196		113		119		114		105		203		209		204		195		160		165		166		161		
20		106		120		122		108		196		210		212		198		114		121		115		107		204		211		205		197		161		166		167		162		
20		108		122		124		110		198		212		214		200		115		123		116		109		205		213		206		199		162		167		168		163		
20		110		124		126		112		200		214		216		202		116		125		117		111		206		215		207		201		163		168		169		164		
20		118		132		134		120		208		222		224		210		127		133		128		119		217		223		218		209		165		170		171		166		
20		120		134		136		122		210		224		226		212		128		135		129		121		218		225		219		211		166		171		172		167		
20		122		136		138		124		212		226		228		214		129		137		130		123		219		227		220		213		167		172		173		168		
20		124		138		140		126		214		228		230		216		130		139		131		125		220		229		221		215		168		173		174		169		
20		132		146		148		134		222		236		238		224		141		147		142		133		231		237		232		223		170		175		176		171		
20		134		148		150		136		224		238		240		226		142		149		143		135		232		239		233		225		171		176		177		172		
20		136		150		152		138		226		240		242		228		143		151		144		137		233		241		234		227		172		177		178		173		
20		138		152		154		140		228		242		244		230		144		153		145		139		234		243		235		229		173		178		179		174		
20		180		194		196		182		270		284		286		272		189		195		190		181		279		285		280		271		245		250		251		246		
20		182		196		198		184		272		286		288		274		190		197		191		183		280		287		281		273		246		251		252		247		
20		184		198		200		186		274		288		290		276		191		199		192		185		281		289		282		275		247		252		253		248		
20		186		200		202		188		276		290		292		278		192		201		193		187		282		291		283		277		248		253		254		249		
20		194		208		210		196		284		298		300		286		203		209		204		195		293		299		294		285		250		255		256		251		
20		196		210		212		198		286		300		302		288		204		211		205		197		294		301		295		287		251		256		257		252		
20		198		212		214		200		288		302		304		290		205		213		206		199		295		303		296		289		252		257		258		253		
20		200		214		216		202		290		304		306		292		206		215		207		201		296		305		297		291		253		258		259		254		
20		208		222		224		210		298		312		314		300		217		223		218		209		307		313		308		299		255		260		261		256		
20		210		224		226		212		300		314		316		302		218		225		219		211		308		315		309		301		256		261		262		257		
20		212		226		228		214		302		316		318		304		219		227		220		213		309		317		310		303		257		262		263		258		
20		214		228		230		216		304		318		320		306		220		229		221		215		310		319		311		305		258		263		264		259		
20		222		236		238		224		312		326		328		314		231		237		232		223		321		327		322		313		260		265		266		261		
20		224		238		240		226		314		328		330		316		232		239		233		225		322		329		323		315		261		266		267		262		
20		226		240		242		228		316		330		332		318		233		241		234		227		323		331		324		317		262		267		268		263		
20		228		242		244		230		318		332		334		320		234		243		235		229		324		333		325		319		263		268		269		264		
20		270		284		286		272		360		374		376		362		279		285		280		271		369		375		370		361		335		340		341		336		
20		272		286		288		274		362		376		378		364		280		287		281		273		370		377		371		363		336		341		342		337		
20		274		288		290		276		364		378		380		366		281		289		282		275		371		379		372		365		337		342		343		338		
20		276		290		292		278		366		380		382		368		282		291		283		277		372		381		373		367		338		343		344		339		
20		284		298		300		286		374		388		390		376		293		299		294		285		383		389		384		375		340		345		346		341		
20		286		300		302		288		376		390		392		378		294		301		295		287		384		391		385		377		341		346		347		342		
20		288		302		304		290		378		392		394		380		295		303		296		289		385		393		386		379		342		347		348		343		
20		290		304		306		292		380		394		396		382		296		305		297		291		386		395		387		381		343		348		349		344		
20		298		312		314		300		388		402		404		390		307		313		308		299		397		403		398		389		345		350		351		346		
20		300		314		316		302		390		404		406		392		308		315		309		301		398		405		399		391		346		351		352		347		
20		302		316		318		304		392		406		408		394		309		317		310		303		399		407		400		393		347		352		353		348		
20		304		318		320		306		394		408		410		396		310		319		311		305		400		409		401		395		348		353		354		349		
20		312		326		328		314		402		416		418		404		321		327		322		313		411		417		412		403		350		355		356		351		
20		314		328		330		316		404		418		420		406		322		329		323		315		412		419		413		405		351		356		357		352		
20		316		330		332		318		406		420		422		408		323		331		324		317		413		421		414		407		352		357		358		353		
20		318		332		334		320		408		422		424		410		324		333		325		319		414		423		415		409		353		358		359		354		
20		360		374		376		362		450		464		466		452		369		375		370		361		459		465		460		451		425		430		431		426		
20		362		376		378		364		452		466		468		454		370		377		371		363		460		467		461		453		426		431		432		427		
20		364		378		380		366		454		468		470		456		371		379		372		365		461		469		462		455		427		432		433		428		
20		366		380		382		368		456		470		472		458		372		381		373		367		462		471		463		457		428		433		434		429		
20		374		388		390		376		464		478		480		466		383		389		384		375		473		479		474		465		430		435		436		431		
20		376		390		392		378		466		480		482		468		384		391		385		377		474		481		475		467		431		436		437		432		
20		378		392		394		380		468		482		484		470		385		393		386		379		475		483		476		469		432		437		438		433		
20		380		394		396		382		470		484		486		472		386		395		387		381		476		485		477		471		433		438		439		434		
20		388		402		404		390		478		492		494		480		397		403		398		389		487		493		488		479		435		440		441		436		
20		390		404		406		392		480		494		496		482		398		405		399		391		488		495		489		481		436		441		442		437		
20		392		406		408		394		482		496		498		484		399		407		400		393		489		497		490		483		437		442		443		438		
20		394		408		410		396		484		498		500		486		400		409		401		395		490		499		491		485		438		443		444		439		
20		402		416		418		404		492		506		508		494		411		417		412		403		501		507		502		493		440		445		446		441		
20		404		418		420		406		494		508		510		496		412		419		413		405		502		509		503		495		441		446		447		442		
20		406		420		422		408		496		510		512		498		413		421		414		407		503		511		504		497		442		447		448		443		
20		408		422		424		410		498		512		514		500		414		423		415		409		504		513		505		499		443		448		449		444		
20		450		464		466		452		540		554		556		542		459		465		460		451		549		555		550		541		515		520		521		516		
20		452		466		468		454		542		556		558		544		460		467		461		453		550		557		551		543		516		521		522		517		
20		454		468		470		456		544		558		560		546		461		469		462		455		551		559		552		545		517		522		523		518		
20		456		470		472		458		546		560		562		548		462		471		463		457		552		561		553		547		518		523		524		519		
20		464		478		480		466		554		568		570		556		473		479		474		465		563		569		564		555		520		525		526		521		
20		466		480		482		468		556		570		572		558		474		481		475		467		564		571		565		557		521		526		527		522		
20		468		482		484		470		558		572		574		560		475		483		476		469		565		573		566		559		522		527		528		523		
20		470		484		486		472		560		574		576		562		476		485		477		471		566		575		567		561		523		528		529		524		
20		478		492		494		480		568		582		584		570		487		493		488		479		577		583		578		569		525		530		531		526		
20		480		494		496		482		570		584		586		572		488		495		489		481		578		585		579		571		526		531		532		527		
20		482		496		498		484		572		586		588		574		489		497		490		483		579		587		580		573		527		532		533		528		
20		484		498		500		486		574		588		590		576		490		499		491		485		580		589		581		575		528		533		534		529		
20		492		506		508		494		582		596		598		584		501		507		502		493		591		597		592		583		530		535		536		531		
20		494		508		510		496		584		598		600		586		502		509		503		495		592		599		593		585		531		536		537		532		
20		496		510		512		498		586		600		602		588		503		511		504		497		593		601		594		587		532		537		538		533		
20		498		512		514		500		588		602		604		590		504		513		505		499		594		603		595		589		533		538		539		534		
20		540		554		556		542		630		644		646		632		549		555		550		541		639		645		640		631		605		610		611		606		
20		542		556		558		544		632		646		648		634		550		557		551		543		640		647		641		633		606		611		612		607		
20		544		558		560		546		634		648		650		636		551		559		552		545		641		649		642		635		607		612		613		608		
20		546		560		562		548		636		650		652		638		552		561		553		547		642		651		643		637		608		613		614		609		
20		554		568		570		556		644		658		660		646		563		569		564		555		653		659		654		645		610		615		616		611		
20		556		570		572		558		646		660		662		648		564		571		565		557		654		661		655		647		611		616		617		612		
20		558		572		574		560		648		662		664		650		565		573		566		559		655		663		656		649		612		617		618		613		
20		560		574		576		562		650		664		666		652		566		575		567		561		656		665		657		651		613		618		619		614		
20		568		582		584		570		658		672		674		660		577		583		578		569		667		673		668		659		615		620		621		616		
20		570		584		586		572		660		674		676		662		578		585		579		571		668		675		669		661		616		621		622		617		
20		572		586		588		574		662		676		678		664		579		587		580		573		669		677		670		663		617		622		623		618		
20		574		588		590		576		664		678		680		666		580		589		581		575		670		679		671		665		618		623		624		619		
20		582		596		598		584		672		686		688		674		591		597		592		583		681		687		682		673		620		625		626		621		
20		584		598		600		586		674		688		690		676		592		599		593		585		682		689		683		675		621		626		627		622		
20		586		600		602		588		676		690		692		678		593		601		594		587		683		691		684		677		622		627		628		623		
20		588		602		604		590		678		692		694		680		594		603		595		589		684		693		685		679		623		628		629		624		
20		630		644		646		632		720		734		736		722		639		645		640		631		729		735		730		721		695		700		701		696		
20		632		646		648		634		722		736		738		724		640		647		641		633		730		737		731		723		696		701		702		697		
20		634		648		650		636		724		738		740		726		641		649		642		635		731		739		732		725		697		702		703		698		
20		636		650		652		638		726		740		742		728		642		651		643		637		732		741		733		727		698		703		704		699		
20		644		658		660		646		734		748		750		736		653		659		654		645		743		749		744		735		700		705		706		701		
20		646		660		662		648		736		750		752		738		654		661		655		647		744		751		745		737		701		706		707		702		
20		648		662		664		650		738		752		754		740		655		663		656		649		745		753		746		739		702		707		708		703		
20		650		664		666		652		740		754		756		742		656		665		657		651		746		755		747		741		703		708		709		704		
20		658		672		674		660		748		762		764		750		667		673		668		659		757		763		758		749		705		710		711		706		
20		660		674		676		662		750		764		766		752		668		675		669		661		758		765		759		751		706		711		712		707		
20		662		676		678		664		752		766		768		754		669		677		670		663		759		767		760		753		707		712		713		708		
20		664		678		680		666		754		768		770		756		670		679		671		665		760		769		761		755		708		713		714		709		
20		672		686		688		674		762		776		778		764		681		687		682		673		771		777		772		763		710		715		716		711		
20		674		688		690		676		764		778		780		766		682		689		683		675		772		779		773		765		711		716		717		712		
20		676		690		692		678		766		780		782		768		683		691		684		677		773		781		774		767		712		717		718		713		
20		678		692		694		680		768		782		784		770		684		693		685		679		774		783		775		769		713		718		719		714		
20		720		734		736		722		810		824		826		812		729		735		730		721		819		825		820		811		785		790		791		786		
20		722		736		738		724		812		826		828		814		730		737		731		723		820		827		821		813		786		791		792		787		
20		724		738		740		726		814		828		830		816		731		739		732		725		821		829		822		815		787		792		793		788		
20		726		740		742		728		816		830		832		818		732		741		733		727		822		831		823		817		788		793		794		789		
20		734		748		750		736		824		838		840		826		743		749		744		735		833		839		834		825		790		795		796		791		
20		736		750		752		738		826		840		842		828		744		751		745		737		834		841		835		827		791		796		797		792		
20		738		752		754		740		828		842		844		830		745		753		746		739		835		843		836		829		792		797		798		793		
20		740		754		756		742		830		844		846		832		746		755		747		741		836		845		837		831		793		798		799		794		
20		748		762		764		750		838		852		854		840		757		763		758		749		847		853		848		839		795		800		801		796		
20		750		764		766		752		840		854		856		842		758		765		759		751		848		855		849		841		796		801		802		797		
20		752		766		768		754		842		856		858		844		759		767		760		753		849		857		850		843		797		802		803		798		
20		754		768		770		756		844		858		860		846		760		769		761		755		850		859		851		845		798		803		804		799		
20		762		776		778		764		852		866		868		854		771		777		772		763		861		867		862		853		800		805		806		801		
20		764		778		780		766		854		868		870		856		772		779		773		765		862		869		863		855		801		806		807		802		
20		766		780		782		768		856		870		872		858		773		781		774		767		863		871		864		857		802		807		808		803		
20		768		782		784		770		858		872		874		860		774		783		775		769		864		873		865		859		803		808		809		804		
20		810		824		826		812		900		914		916		902		819		825		820		811		909		915		910		901		875		880		881		876		
20		812		826		828		814		902		916		918		904		820		827		821		813		910		917		911		903		876		881		882		877		
20		814		828		830		816		904		918		920		906		821		829		822		815		911		919		912		905		877		882		883		878		
20		816		830		832		818		906		920		922		908		822		831		823		817		912		921		913		907		878		883		884		879		
20		824		838		840		826		914		928		930		916		833		839		834		825		923		929		924		915		880		885		886		881		
20		826		840		842		828		916		930		932		918		834		841		835		827		924		931		925		917		881		886		887		882		
20		828		842		844		830		918		932		934		920		835		843		836		829		925		933		926		919		882		887		888		883		
20		830		844		846		832		920		934		936		922		836		845		837		831		926		935		927		921		883		888		889		884		
20		838		852		854		840		928		942		944		930		847		853		848		839		937		943		938		929		885		890		891		886		
20		840		854		856		842		930		944		946		932		848		855		849		841		938		945		939		931		886		891		892		887		
20		842		856		858		844		932		946		948		934		849		857		850		843		939		947		940		933		887		892		893		888		
20		844		858		860		846		934		948		950		936		850		859		851		845		940		949		941		935		888		893		894		889		
20		852		866		868		854		942		956		958		944		861		867		862		853		951		957		952		943		890		895		896		891		
20		854		868		870		856		944		958		960		946		862		869		863		855		952		959		953		945		891		896		897		892		
20		856		870		872		858		946		960		962		948		863		871		864		857		953		961		954		947		892		897		898		893		
20		858		872		874		860		948		962		964		950		864		873		865		859		954		963		955		949		893		898		899		894		
20		900		914		916		902		990		1004		1006		992		909		915		910		901		999		1005		1000		991		965		970		971		966		
20		902		916		918		904		992		1006		1008		994		910		917		911		903		1000		1007		1001		993		966		971		972		967		
20		904		918		920		906		994		1008		1010		996		911		919		912		905		1001		1009		1002		995		967		972		973		968		
20		906		920		922		908		996		1010		1012		998		912		921		913		907		1002		1011		1003		997		968		973		974		969		
20		914		928		930		916		1004		1018		1020		1006		923		929		924		915		1013		1019		1014		1005		970		975		976		971		
20		916		930		932		918		1006		1020		1022		1008		924		931		925		917		1014		1021		1015		1007		971		976		977		972		
20		918		932		934		920		1008		1022		1024		1010		925		933		926		919		1015		1023		1016		1009		972		977		978		973		
20		920		934		936		922		1010		1024		1026		1012		926		935		927		921		1016		1025		1017		1011		973		978		979		974		
20		928		942		944		930		1018		1032		1034		1020		937		943		938		929		1027		1033		1028		1019		975		980		981		976		
20		930		944		946		932		1020		1034		1036		1022		938		945		939		931		1028		1035		1029		1021		976		981		982		977		
20		932		946		948		934		1022		1036		1038		1024		939		947		940		933		1029		1037		1030		1023		977		982		983		978		
20		934		948		950		936		1024		1038		1040		1026		940		949		941		935		1030		1039		1031		1025		978		983		984		979		
20		942		956		958		944		1032		1046		1048		1034		951		957		952		943		1041		1047		1042		1033		980		985		986		981		
20		944		958		960		946		1034		1048		1050		1036		952		959		953		945		1042		1049		1043		1035		981		986		987		982		
20		946		960		962		948		1036		1050		1052		1038		953		961		954		947		1043		1051		1044		1037		982		987		988		983		
20		948		962		964		950		1038		1052		1054		1040		954		963		955		949		1044		1053		1045		1039		983		988		989		984		
20		990		1004		1006		992		1080		1094		1096		1082		999		1005		1000		991		1089		1095		1090		1081		1055		1060		1061		1056		
20		992		1006		1008		994		1082		1096		1098		1084		1000		1007		1001		993		1090		1097		1091		1083		1056		1061		1062		1057		
20		994		1008		1010		996		1084		1098		1100		1086		1001		1009		1002		995		1091		1099		1092		1085		1057		1062		1063		1058		
20		996		1010		1012		998		1086		1100		1102		1088		1002		1011		1003		997		1092		1101		1093		1087		1058		1063		1064		1059		
20		1004		1018		1020		1006		1094		1108		1110		1096		1013		1019		1014		1005		1103		1109		1104		1095		1060		1065		1066		1061		
20		1006		1020		1022		1008		1096		1110		1112		1098		1014		1021		1015		1007		1104		1111		1105		1097		1061		1066		1067		1062		
20		1008		1022		1024		1010		1098		1112		1114		1100		1015		1023		1016		1009		1105		1113		1106		1099		1062		1067		1068		1063		
20		1010		1024		1026		1012		1100		1114		1116		1102		1016		1025		1017		1011		1106		1115		1107		1101		1063		1068		1069		1064		
20		1018		1032		1034		1020		1108		1122		1124		1110		1027		1033		1028		1019		1117		1123		1118		1109		1065		1070		1071		1066		
20		1020		1034		1036		1022		1110		1124		1126		1112		1028		1035		1029		1021		1118		1125		1119		1111		1066		1071		1072		1067		
20		1022		1036		1038		1024		1112		1126		1128		1114		1029		1037		1030		1023		1119		1127		1120		1113		1067		1072		1073		1068		
20		1024		1038		1040		1026		1114		1128		1130		1116		1030		1039		1031		1025		1120		1129		1121		1115		1068		1073		1074		1069		
20		1032		1046		1048		1034		1122		1136		1138		1124		1041		1047		1042		1033		1131		1137		1132		1123		1070		1075		1076		1071		
20		1034		1048		1050		1036		1124		1138		1140		1126		1042		1049		1043		1035		1132		1139		1133		1125		1071		1076		1077		1072		
20		1036		1050		1052		1038		1126		1140		1142		1128		1043		1051		1044		1037		1133		1141		1134		1127		1072		1077		1078		1073		
20		1038		1052		1054		1040		1128		1142		1144		1130		1044		1053		1045		1039		1134		1143		1135		1129		1073		1078		1079		1074		
20		1080		1094		1096		1082		1170		1184		1186		1172		1089		1095		1090		1081		1179		1185		1180		1171		1145		1150		1151		1146		
20		1082		1096		1098		1084		1172		1186		1188		1174		1090		1097		1091		1083		1180		1187		1181		1173		1146		1151		1152		1147		
20		1084		1098		1100		1086		1174		1188		1190		1176		1091		1099		1092		1085		1181		1189		1182		1175		1147		1152		1153		1148		
20		1086		1100		1102		1088		1176		1190		1192		1178		1092		1101		1093		1087		1182		1191		1183		1177		1148		1153		1154		1149		
20		1094		1108		1110		1096		1184		1198		1200		1186		1103		1109		1104		1095		1193		1199		1194		1185		1150		1155		1156		1151		
20		1096		1110		1112		1098		1186		1200		1202		1188		1104		1111		1105		1097		1194		1201		1195		1187		1151		1156		1157		1152		
20		1098		1112		1114		1100		1188		1202		1204		1190		1105		1113		1106		1099		1195		1203		1196		1189		1152		1157		1158		1153		
20		1100		1114		1116		1102		1190		1204		1206		1192		1106		1115		1107		1101		1196		1205		1197		1191		1153		1158		1159		1154		
20		1108		1122		1124		1110		1198		1212		1214		1200		1117		1123		1118		1109		1207		1213		1208		1199		1155		1160		1161		1156		
20		1110		1124		1126		1112		1200		1214		1216		1202		1118		1125		1119		1111		1208		1215		1209		1201		1156		1161		1162		1157		
20		1112		1126		1128		1114		1202		1216		1218		1204		1119		1127		1120		1113		1209		1217		1210		1203		1157		1162		1163		1158		
20		1114		1128		1130		1116		1204		1218		1220		1206		1120		1129		1121		1115		1210		1219		1211		1205		1158		1163		1164		1159		
20		1122		1136		1138		1124		1212		1226		1228		1214		1131		1137		1132		1123		1221		1227		1222		1213		1160		1165		1166		1161		
20		1124		1138		1140		1126		1214		1228		1230		1216		1132		1139		1133		1125		1222		1229		1223		1215		1161		1166		1167		1162		
20		1126		1140		1142		1128		1216		1230		1232		1218		1133		1141		1134		1127		1223		1231		1224		1217		1162		1167		1168		1163		
20		1128		1142		1144		1130		1218		1232		1234		1220		1134		1143		1135		1129		1224		1233		1225		1219		1163		1168		1169		1164		
20		1170		1184		1186		1172		1260		1274		1276		1262		1179		1185		1180		1171		1269		1275		1270		1261		1235		1240		1241		1236		
20		1172		1186		1188		1174		1262		1276		1278		1264		1180		1187		1181		1173		1270		1277		1271		1263		1236		1241		1242		1237		
20		1174		1188		1190		1176		1264		1278		1280		1266		1181		1189		1182		1175		1271		1279		1272		1265		1237		1242		1243		1238		
20		1176		1190		1192		1178		1266		1280		1282		1268		1182		1191		1183		1177		1272		1281		1273		1267		1238		1243		1244		1239		
20		1184		1198		1200		1186		1274		1288		1290		1276		1193		1199		1194		1185		1283		1289		1284		1275		1240		1245		1246		1241		
20		1186		1200		1202		1188		1276		1290		1292		1278		1194		1201		1195		1187		1284		1291		1285		1277		1241		1246		1247		1242		
20		1188		1202		1204		1190		1278		1292		1294		1280		1195		1203		1196		1189		1285		1293		1286		1279		1242		1247		1248		1243		
20		1190		1204		1206		1192		1280		1294		1296		1282		1196		1205		1197		1191		1286		1295		1287		1281		1243		1248		1249		1244		
20		1198		1212		1214		1200		1288		1302		1304		1290		1207		1213		1208		1199		1297		1303		1298		1289		1245		1250		1251		1246		
20		1200		1214		1216		1202		1290		1304		1306		1292		1208		1215		1209		1201		1298		1305		1299		1291		1246		1251		1252		1247		
20		1202		1216		1218		1204		1292		1306		1308		1294		1209		1217		1210		1203		1299		1307		1300		1293		1247		1252		1253		1248		
20		1204		1218		1220		1206		1294		1308		1310		1296		1210		1219		1211		1205		1300		1309		1301		1295		1248		1253		1254		1249		
20		1212		1226		1228		1214		1302		1316		1318		1304		1221		1227		1222		1213		1311		1317		1312		1303		1250		1255		1256		1251		
20		1214		1228		1230		1216		1304		1318		1320		1306		1222		1229		1223		1215		1312		1319		1313		1305		1251		1256		1257		1252		
20		1216		1230		1232		1218		1306		1320		1322		1308		1223		1231		1224		1217		1313		1321		1314		1307		1252		1257		1258		1253		
20		1218		1232		1234		1220		1308		1322		1324		1310		1224		1233		1225		1219		1314		1323		1315		1309		1253		1258		1259		1254		
CELL_TYPES 224
25
25
25
25
25
25
25
25
25
25
25
25
25
25
25
25
25
25
25
25
25
25
25
25
25
25
25
25
25
25
25
25
25
25
25
25
25
25
25
25
25
25
25
25
25
25
25
25
25
25
25
25
25
25
25
25
25
25
25
25
25
25
25
25
25
25
25
25
25
25
25
25
25
25
25
25
25
25
25
25
25
25
25
25
25
25
25
25
25
25
25
25
25
25
25
25
25
25
25
25
25
25
25
25
25
25
25
25
25
25
25
25
25
25
25
25
25
25
25
25
25
25
25
25
25
25
25
25
25
25
25
25
25
25
25
25
25
25
25
25
25
25
25
25
25
25
25
25
25
25
25
25
25
25
25
25
25
25
25
25
25
25
25
25
25
25
25
25
25
25
25
25
25
25
25
25
25
25
25
25
25
25
25
25
25
25
25
25
25
25
25
25
25
25
25
25
25
25
25
25
25
25
25
25
25
25
25
25
25
25
25
25
25
25
25
25
25
25
25
25
25
25
25
25
POINT_DATA 1325
SCALARS node_id double 1
LOOKUP_TABLE default
0.000000
1.000000
2.000000
3.000000
4.000000
5.000000
6.000000
7.000000
8.000000
9.000000
10.000000
11.000000
12.000000
13.000000
14.000000
15.000000
16.000000
17.000000
18.000000
19.000000
20.000000
21.000000
22.000000
23.000000
24.000000
25.000000
26.000000
27.000000
28.000000
29.000000
30.000000
31.000000
32.000000
33.000000
34.000000
35.000000
36.000000
37.000000
38.000000
39.000000
40.000000
41.000000
42.000000
43.000000
44.000000
45.000000
46.000000
47.000000
48.000000
49.000000
50.000000
51.000000
52.000000
53.000000
54.000000
55.000000
56.000000
57.000000
58.000000
59.000000
60.000000
61.000000
62.000000
63.000000
64.000000
65.000000
66.000000
67.000000
68.000000
69.000000
70.000000
71.000000
72.000000
73.000000
74.000000
75.000000
76.000000
77.000000
78.000000
79.000000
80.000000
81.000000
82.000000
83.000000
84.000000
85.000000
86.000000
87.000000
88.000000
89.000000
90.000000
91.000000
92.000000
93.000000
94.000000
95.000000
96.000000
97.000000
98.000000
99.000000
100.000000
101.000000
102.000000
103.000000
104.000000
105.000000
106.000000
107.000000
108.000000
109.000000
110.000000
111.000000
112.000000
113.000000
114.000000
115.000000
116.000000
117.000000
118.000000
119.000000
120.000000
121.000000
122.000000
123.000000
124.000000
125.000000
126.000000
127.000000
128.000000
129.000000
130.000000
131.000000
132.000000
133.000000
134.000000
135.000000
136.000000
137.000000
138.000000
139.000000
140.000000
141.000000
142.000000
143.000000
144.000000
145.000000
146.000000
147.000000
148.000000
149.000000
150.000000
151.000000
152.000000
153.000000
154.000000
155.000000
156.000000
157.000000
158.000000
159.000000
160.000000
161.000000
162.000000
163.000000
164.000000
165.000000
166.000000
167.000000
168.000000
169.000000
170.000000
171.000000
172.000000
173.000000
174.000000
175.000000
176.000000
177.000000
178.000000
179.000000
180.000000
181.000000
182.000000
183.000000
184.000000
185.000000
186.000000
187.000000
188.000000
189.000000
190.000000
191.000000
192.000000
193.000000
194.000000
195.000000
196.000000
197.000000
198.000000
199.000000
200.000000
201.000000
202.000000
203.000000
204.000000
205.000000
206.000000
207.000000
208.000000
209.000000
210.000000
211.000000
212.000000
213.000000
214.000000
215.000000
216.000000
217.000000
218.000000
219.000000
220.000000
221.000000
222.000000
223.000000
224.000000
225.000000
226.000000
227.000000
228.000000
229.000000
230.000000
231.000000
232.000000
233.000000
234.000000
235.000000
236.000000
237.000000
238.000000
239.000000
240.000000
241.000000
242.000000
243.000000
244.000000
245.000000
246.000000
247.000000
248.000000
249.000000
250.000000
251.000000
252.000000
253.000000
254.000000
255.000000
256.000000
257.000000
258.000000
259.000000
260.000000
261.000000
262.000000
263.000000
264.000000
265.000000
266.000000
267.000000
268.000000
269.000000
270.000000
271.000000
272.000000
273.000000
274.000000
275.000000
276.000000
277.000000
278.000000
279.000000
280.000000
281.000000
282.000000
283.000000
284.000000
285.000000
286.000000
287.000000
288.000000
289.000000
290.000000
291.000000
292.000000
293.000000
294.000000
295.000000
296.000000
297.000000
298.000000
299.000000
300.000000
301.000000
302.000000
303.000000
304.000000
305.000000
306.000000
307.000000
308.000000
309.000000
310.000000
311.000000
312.000000
313.000000
314.000000
315.000000
316.000000
317.000000
318.000000
319.000000
320.000000
321.000000
322.000000
323.000000
324.000000
325.000000
326.000000
327.000000
328.000000
329.000000
330.000000
331.000000
332.000000
333.000000
334.000000
335.000000
336.000000
337.000000
338.000000
339.000000
340.000000
341.000000
342.000000
343.000000
344.000000
345.000000
346.000000
347.000000
348.000000
349.000000
350.000000
351.000000
352.000000
353.000000
354.000000
355.000000
356.000000
357.000000
358.000000
359.000000
360.000000
361.000000
362.000000
363.000000
364.000000
365.000000
366.000000
367.000000
368.000000
369.000000
370.000000
371.000000
372.000000
373.000000
374.000000
375.000000
376.000000
377.000000
378.000000
379.000000
380.000000
381.000000
382.000000
383.000000
384.000000
385.000000
386.000000
387.000000
388.000000
389.000000
390.000000
391.000000
392.000000
393.000000
394.000000
395.000000
396.000000
397.000000
398.000000
399.000000
400.000000
401.000000
402.000000
403.000000
404.000000
405.000000
406.000000
407.000000
408.000000
409.000000
410.000000
411.000000
412.000000
413.000000
414.000000
415.000000
416.000000
417.000000
418.000000
419.000000
420.000000
421.000000
422.000000
423.000000
424.000000
425.000000
426.000000
427.000000
428.000000
429.000000
430.000000
431.000000
432.000000
433.000000
434.000000
435.000000
436.000000
437.000000
438.000000
439.000000
440.000000
441.000000
442.000000
443.000000
444.000000
445.000000
446.000000
447.000000
448.000000
449.000000
450.000000
451.000000
452.000000
453.000000
454.000000
455.000000
456.000000
457.000000
458.000000
459.000000
460.000000
461.000000
462.000000
463.000000
464.000000
465.000000
466.000000
467.000000
468.000000
469.000000
470.000000
471.000000
472.000000
473.000000
474.000000
475.000000
476.000000
477.000000
478.000000
479.000000
480.000000
481.000000
482.000000
483.000000
484.000000
485.000000
486.000000
487.000000
488.000000
489.000000
490.000000
491.000000
492.000000
493.000000
494.000000
495.000000
496.000000
497.000000
498.000000
499.000000
500.000000
501.000000
502.000000
503.000000
504.000000
505.000000
506.000000
507.000000
508.000000
509.000000
510.000000
511.000000
512.000000
513.000000
514.000000
515.000000
516.000000
517.000000
518.000000
519.000000
520.000000
521.000000
522.000000
523.000000
524.000000
525.000000
526.000000
527.000000
528.000000
529.000000
530.000000
531.000000
532.000000
533.000000
534.000000
535.000000
536.000000
537.000000
538.000000
539.000000
540.000000
541.000000
542.000000
543.000000
544.000000
545.000000
546.000000
547.000000
548.000000
549.000000
550.000000
551.000000
552.000000
553.000000
554.000000
555.000000
556.000000
557.000000
558.000000
559.000000
560.000000
561.000000
562.000000
563.000000
564.000000
565.000000
566.000000
567.000000
568.000000
569.000000
570.000000
571.000000
572.000000
573.000000
574.000000
575.000000
576.000000
577.000000
578.000000
579.000000
580.000000
581.000000
582.000000
583.000000
584.000000
585.000000
586.000000
587.000000
588.000000
589.000000
590.000000
591.000000
592.000000
593.000000
594.000000
595.000000
596.000000
597.000000
598.000000
599.000000
600.000000
601.000000
602.000000
603.000000
604.000000
605.000000
606.000000
607.000000
608.000000
609.000000
610.000000
611.000000
612.000000
613.000000
614.000000
615.000000
616.000000
617.000000
618.000000
619.000000
620.000000
621.000000
622.000000
623.000000
624.000000
625.000000
626.000000
627.000000
628.000000
629.000000
630.000000
631.000000
632.000000
633.000000
634.000000
635.000000
636.000000
637.000000
638.000000
639.000000
640.000000
641.000000
642.000000
643.000000
644.000000
645.000000
646.000000
647.000000
648.000000
649.000000
650.000000
651.000000
652.000000
653.000000
654.000000
655.000000
656.000000
657.000000
658.000000
659.000000
660.000000
661.000000
662.000000
663.000000
664.000000
665.000000
666.000000
667.000000
668.000000
669.000000
670.000000
671.000000
672.000000
673.000000
674.000000
675.000000
676.000000
677.000000
678.000000
679.000000
680.000000
681.000000
682.000000
683.000000
684.000000
685.000000
686.000000
687.000000
688.000000
689.000000
690.000000
691.000000
692.000000
693.000000
694.000000
695.000000
696.000000
697.000000
698.000000
699.000000
700.000000
701.000000
702.000000
703.000000
704.000000
705.000000
706.000000
707.000000
708.000000
709.000000
710.000000
711.000000
712.000000
713.000000
714.000000
715.000000
716.000000
717.000000
718.000000
719.000000
720.000000
721.000000
722.000000
723.000000
724.000000
725.000000
726.000000
727.000000
728.000000
729.000000
730.000000
731.000000
732.000000
733.000000
734.000000
735.000000
736.000000
737.000000
738.000000
739.000000
740.000000
741.000000
742.000000
743.000000
744.000000
745.000000
746.000000
747.000000
748.000000
749.000000
750.000000
751.000000
752.000000
753.000000
754.000000
755.000000
756.000000
757.000000
758.000000
759.000000
760.000000
761.000000
762.000000
763.000000
764.000000
765.000000
766.000000
767.000000
768.000000
769.000000
770.000000
771.000000
772.000000
773.000000
774.000000
775.000000
776.000000
777.000000
778.000000
779.000000
780.000000
781.000000
782.000000
783.000000
784.000000
785.000000
786.000000
787.000000
788.000000
789.000000
790.000000
791.000000
792.000000
793.000000
794.000000
795.000000
796.000000
797.000000
798.000000
799.000000
800.000000
801.000000
802.000000
803.000000
804.000000
805.000000
806.000000
807.000000
808.000000
809.000000
810.000000
811.000000
812.000000
813.000000
814.000000
815.000000
816.000000
817.000000
818.000000
819.000000
820.000000
821.000000
822.000000
823.000000
824.000000
825.000000
826.000000
827.000000
828.000000
829.000000
830.000000
831.000000
832.000000
833.000000
834.000000
835.000000
836.000000
837.000000
838.000000
839.000000
840.000000
841.000000
842.000000
843.000000
844.000000
845.000000
846.000000
847.000000
848.000000
849.000000
850.000000
851.000000
852.000000
853.000000
854.000000
855.000000
856.000000
857.000000
858.000000
859.000000
860.000000
861.000000
862.000000
863.000000
864.000000
865.000000
866.000000
867.000000
868.000000
869.000000
870.000000
871.000000
872.000000
873.000000
874.000000
875.000000
876.000000
877.000000
878.000000
879.000000
880.000000
881.000000
882.000000
883.000000
884.000000
885.000000
886.000000
887.000000
888.000000
889.000000
890.000000
891.000000
892.000000
893.000000
894.000000
895.000000
896.000000
897.000000
898.000000
899.000000
900.000000
901.000000
902.000000
903.000000
904.000000
905.000000
906.000000
907.000000
908.000000
909.000000
910.000000
911.000000
912.000000
913.000000
914.000000
915.000000
916.000000
917.000000
918.000000
919.000000
920.000000
921.000000
922.000000
923.000000
924.000000
925.000000
926.000000
927.000000
928.000000
929.000000
930.000000
931.000000
932.000000
933.000000
934.000000
935.000000
936.000000
937.000000
938.000000
939.000000
940.000000
941.000000
942.000000
943.000000
944.000000
945.000000
946.000000
947.000000
948.000000
949.000000
950.000000
951.000000
952.000000
953.000000
954.000000
955.000000
956.000000
957.000000
958.000000
959.000000
960.000000
961.000000
962.000000
963.000000
964.000000
965.000000
966.000000
967.000000
968.000000
969.000000
970.000000
971.000000
972.000000
973.000000
974.000000
975.000000
976.000000
977.000000
978.000000
979.000000
980.000000
981.000000
982.000000
983.000000
984.000000
985.000000
986.000000
987.000000
988.000000
989.000000
990.000000
991.000000
992.000000
993.000000
994.000000
995.000000
996.000000
997.000000
998.000000
999.000000
1000.000000
1001.000000
1002.000000
1003.000000
1004.000000
1005.000000
1006.000000
1007.000000
1008.000000
1009.000000
1010.000000
1011.000000
1012.000000
1013.000000
1014.000000
1015.000000
1016.000000
1017.000000
1018.000000
1019.000000
1020.000000
1021.000000
1022.000000
1023.000000
1024.000000
1025.000000
1026.000000
1027.000000
1028.000000
1029.000000
1030.000000
1031.000000
1032.000000
1033.000000
1034.000000
1035.000000
1036.000000
1037.000000
1038.000000
1039.000000
1040.000000
1041.000000
1042.000000
1043.000000
1044.000000
1045.000000
1046.000000
1047.000000
1048.000000
1049.000000
1050.000000
1051.000000
1052.000000
1053.000000
1054.000000
1055.000000
1056.000000
1057.000000
1058.000000
1059.000000
1060.000000
1061.000000
1062.000000
1063.000000
1064.000000
1065.000000
1066.000000
1067.000000
1068.000000
1069.000000
1070.000000
1071.000000
1072.000000
1073.000000
1074.000000
1075.000000
1076.000000
1077.000000
1078.000000
1079.000000
1080.000000
1081.000000
1082.000000
1083.000000
1084.000000
1085.000000
1086.000000
1087.000000
1088.000000
1089.000000
1090.000000
1091.000000
1092.000000
1093.000000
1094.000000
1095.000000
1096.000000
1097.000000
1098.000000
1099.000000
1100.000000
1101.000000
1102.000000
1103.000000
1104.000000
1105.000000
1106.000000
1107.000000
1108.000000
1109.000000
1110.000000
1111.000000
1112.000000
1113.000000
1114.000000
1115.000000
1116.000000
1117.000000
1118.000000
1119.000000
1120.000000
1121.000000
1122.000000
1123.000000
1124.000000
1125.000000
1126.000000
1127.000000
1128.000000
1129.000000
1130.000000
1131.000000
1132.000000
1133.000000
1134.000000
1135.000000
1136.000000
1137.000000
1138.000000
1139.000000
1140.000000
1141.000000
1142.000000
1143.000000
1144.000000
1145.000000
1146.000000
1147.000000
1148.000000
1149.000000
1150.000000
1151.000000
1152.000000
1153.000000
1154.000000
1155.000000
1156.000000
1157.000000
1158.000000
1159.000000
1160.000000
1161.000000
1162.000000
1163.000000
1164.000000
1165.000000
1166.000000
1167.000000
1168.000000
1169.000000
1170.000000
1171.000000
1172.000000
1173.000000
1174.000000
1175.000000
1176.000000
1177.000000
1178.000000
1179.000000
1180.000000
1181.000000
1182.000000
1183.000000
1184.000000
1185.000000
1186.000000
1187.000000
1188.000000
1189.000000
1190.000000
1191.000000
1192.000000
1193.000000
1194.000000
1195.000000
1196.000000
1197.000000
1198.000000
1199.000000
1200.000000
1201.000000
1202.000000
1203.000000
1204.000000
1205.000000
1206.000000
1207.000000
1208.000000
1209.000000
1210.000000
1211.000000
1212.000000
1213.000000
1214.000000
1215.000000
1216.000000
1217.000000
1218.000000
1219.000000
1220.000000
1221.000000
1222.000000
1223.000000
1224.000000
1225.000000
1226.000000
1227.000000
1228.000000
1229.000000
1230.000000
1231.000000
1232.000000
1233.000000
1234.000000
1235.000000
1236.000000
1237.000000
1238.000000
1239.000000
1240.000000
1241.000000
1242.000000
1243.000000
1244.000000
1245.000000
1246.000000
1247.000000
1248.000000
1249.000000
1250.000000
1251.000000
1252.000000
1253.000000
1254.000000
1255.000000
1256.000000
1257.000000
1258.000000
1259.000000
1260.000000
1261.000000
1262.000000
1263.000000
1264.000000
1265.000000
1266.000000
1267.000000
1268.000000
1269.000000
1270.000000
1271.000000
1272.000000
1273.000000
1274.000000
1275.000000
1276.000000
1277.000000
1278.000000
1279.000000
1280.000000
1281.000000
1282.000000
1283.000000
1284.000000
1285.000000
1286.000000
1287.000000
1288.000000
1289.000000
1290.000000
1291.000000
1292.000000
1293.000000
1294.000000
1295.000000
1296.000000
1297.000000
1298.000000
1299.000000
1300.000000
1301.000000
1302.000000
1303.000000
1304.000000
1305.000000
1306.000000
1307.000000
1308.000000
1309.000000
1310.000000
1311.000000
1312.000000
1313.000000
1314.000000
1315.000000
1316.000000
1317.000000
1318.000000
1319.000000
1320.000000
1321.000000
1322.000000
1323.000000
1324.000000
VECTORS displacement double
0.000000e+00		0.000000e+00		0.000000e+00
0.000000e+00		0.000000e+00		0.000000e+00
0.000000e+00		0.000000e+00		0.000000e+00
0.000000e+00		0.000000e+00		0.000000e+00
0.000000e+00		0.000000e+00		0.000000e+00
0.000000e+00		0.000000e+00		0.000000e+00
0.000000e+00		0.000000e+00		0.000000e+00
0.000000e+00		0.000000e+00		0.000000e+00
0.000000e+00		0.000000e+00		0.000000e+00
0.000000e+00		0.000000e+00		0.000000e+00
0.000000e+00		0.000000e+00		0.000000e+00
0.000000e+00		0.000000e+00		0.000000e+00
0.000000e+00		0.000000e+00		0.000000e+00
0.000000e+00		0.000000e+00		0.000000e+00
0.000000e+00		0.000000e+00		0.000000e+00
0.000000e+00		0.000000e+00		0.000000e+00
0.000000e+00		0.000000e+00		0.000000e+00
0.000000e+00		0.000000e+00		0.000000e+00
0.000000e+00		0.000000e+00		0.000000e+00
0.000000e+00		0.000000e+00		0.000000e+00
0.000000e+00		0.000000e+00		0.000000e+00
0.000000e+00		0.000000e+00		0.000000e+00
0.000000e+00		0.000000e+00		0.000000e+00
0.000000e+00		0.000000e+00		0.000000e+00
0.000000e+00		0.000000e+00		0.000000e+00
0.000000e+00		0.000000e+00		0.000000e+00
0.000000e+00		0.000000e+00		0.000000e+00
0.000000e+00		0.000000e+00		0.000000e+00
0.000000e+00		0.000000e+00		0.000000e+00
0.000000e+00		0.000000e+00		0.000000e+00
0.000000e+00		0.000000e+00		0.000000e+00
0.000000e+00		0.000000e+00		0.000000e+00
0.000000e+00		0.000000e+00		0.000000e+00
0.000000e+00		0.000000e+00		0.000000e+00
0.000000e+00		0.000000e+00		0.000000e+00
0.000000e+00		0.000000e+00		0.000000e+00
0.000000e+00		0.000000e+00		0.000000e+00
0.000000e+00		0.000000e+00		0.000000e+00
0.000000e+00		0.000000e+00		0.000000e+00
0.000000e+00		0.000000e+00		0.000000e+00
0.000000e+00		0.000000e+00		0.000000e+00
0.000000e+00		0.000000e+00		0.000000e+00
0.000000e+00		0.000000e+00		0.000000e+00
0.000000e+00		0.000000e+00		0.000000e+00
0.000000e+00		0.000000e+00		0.000000e+00
0.000000e+00		0.000000e+00		0.000000e+00
0.000000e+00		0.000000e+00		0.000000e+00
0.000000e+00		0.000000e+00		0.000000e+00
0.000000e+00		0.000000e+00		0.000000e+00
0.000000e+00		0.000000e+00		0.000000e+00
0.000000e+00		0.000000e+00		0.000000e+00
0.000000e+00		0.000000e+00		0.000000e+00
0.000000e+00		0.000000e+00		0.000000e+00
0.000000e+00		0.000000e+00		0.000000e+00
0.000000e+00		0.000000e+00		0.000000e+00
0.000000e+00		0.000000e+00		0.000000e+00
0.000000e+00		0.000000e+00		0.000000e+00
0.000000e+00		0.000000e+00		0.000000e+00
0.000000e+00		0.000000e+00		0.000000e+00
0.000000e+00		0.000000e+00		0.000000e+00
0.000000e+00		0.000000e+00		0.000000e+00
0.000000e+00		0.000000e+00		0.000000e+00
0.000000e+00		0.000000e+00		0.000000e+00
0.000000e+00		0.000000e+00		0.000000e+00
0.000000e+00		0.000000e+00		0.000000e+00
6.788702e-03		7.941817e-03		1.613756e-02
8.863038e-03		2.119759e-03		1.403871e-02
9.364479e-03		1.631959e-16		1.453489e-02
8.863038e-03		-2.119759e-03		1.403871e-02
6.788702e-03		-7.941817e-03		1.613756e-02
1.307387e-03		4.035971e-03		6.630638e-03
3.242682e-03		1.071257e-03		4.903464e-03
3.482666e-03		9.800046e-17		4.980789e-03
3.242682e-03		-1.071257e-03		4.903464e-03
1.307387e-03		-4.035971e-03		6.630638e-03
7.399807e-04		1.334615e-16		2.129416e-16
2.698665e-03		4.939281e-17		1.066960e-16
2.944235e-03		2.730115e-17		7.678944e-17
2.698665e-03		8.457711e-18		5.113130e-17
7.399807e-04		-1.474843e-17		3.020017e-17
1.307387e-03		-4.035971e-03		-6.630638e-03
3.242682e-03		-1.071257e-03		-4.903464e-03
3.482666e-03		-4.899657e-17		-4.980789e-03
3.242682e-03		1.071257e-03		-4.903464e-03
1.307387e-03		4.035971e-03		-6.630638e-03
6.788702e-03		-7.941817e-03		-1.613756e-02
8.863038e-03		-2.119759e-03		-1.403871e-02
9.364479e-03		-1.357596e-16		-1.453489e-02
8.863038e-03		2.119759e-03		-1.403871e-02
6.788702e-03		7.941817e-03		-1.613756e-02
1.381005e-02		1.176176e-02		3.043504e-02
1.638118e-02		7.306919e-03		2.843941e-02
1.797949e-02		4.432541e-03		2.846257e-02
1.873057e-02		1.925000e-03		2.825904e-02
1.896354e-02		3.209260e-16		2.826950e-02
1.873057e-02		-1.925000e-03		2.825904e-02
1.797949e-02		-4.432541e-03		2.846257e-02
1.638118e-02		-7.306919e-03		2.843941e-02
1.381005e-02		-1.176176e-02		3.043504e-02
9.553518e-03		9.005271e-03		2.109239e-02
1.287356e-02		3.342467e-03		1.856472e-02
1.368123e-02		2.776809e-16		1.811611e-02
1.287356e-02		-3.342467e-03		1.856472e-02
9.553518e-03		-9.005271e-03		2.109239e-02
7.462096e-03		6.313274e-03		1.341626e-02
9.593190e-03		3.886514e-03		1.201501e-02
1.053092e-02		2.299480e-03		1.167507e-02
1.106651e-02		9.737628e-04		1.137150e-02
1.123497e-02		2.095553e-16		1.131832e-02
1.106651e-02		-9.737628e-04		1.137150e-02
1.053092e-02		-2.299480e-03		1.167507e-02
9.593190e-03		-3.886514e-03		1.201501e-02
7.462096e-03		-6.313274e-03		1.341626e-02
5.962103e-03		3.225746e-03		6.368744e-03
9.029366e-03		1.173291e-03		5.456279e-03
9.625715e-03		1.448206e-16		5.258059e-03
9.029366e-03		-1.173291e-03		5.456279e-03
5.962103e-03		-3.225746e-03		6.368744e-03
5.443483e-03		2.464325e-16		3.921504e-16
7.716866e-03		1.718264e-16		2.822263e-16
8.556189e-03		1.317099e-16		2.424377e-16
9.007958e-03		9.495185e-17		1.847770e-16
9.134724e-03		7.304405e-17		1.614980e-16
9.007958e-03		5.160553e-17		1.292728e-16
8.556189e-03		3.253484e-17		1.157280e-16
7.716866e-03		1.088421e-17		8.262255e-17
5.443483e-03		-4.639311e-18		5.679284e-17
5.962103e-03		-3.225746e-03		-6.368744e-03
9.029366e-03		-1.173291e-03		-5.456279e-03
9.625715e-03		1.500635e-18		-5.258059e-03
9.029366e-03		1.173291e-03		-5.456279e-03
5.962103e-03		3.225746e-03		-6.368744e-03
7.462096e-03		-6.313274e-03		-1.341626e-02
9.593190e-03		-3.886514e-03		-1.201501e-02
1.053092e-02		-2.299480e-03		-1.167507e-02
1.106651e-02		-9.737628e-04		-1.137150e-02
1.123497e-02		-7.558243e-17		-1.131832e-02
1.106651e-02		9.737628e-04		-1.137150e-02
1.053092e-02		2.299480e-03		-1.167507e-02
9.593190e-03		3.886514e-03		-1.201501e-02
7.462096e-03		6.313274e-03		-1.341626e-02
9.553518e-03		-9.005271e-03		-2.109239e-02
1.287356e-02		-3.342467e-03		-1.856472e-02
1.368123e-02		-1.527458e-16		-1.811611e-02
1.287356e-02		3.342467e-03		-1.856472e-02
9.553518e-03		9.005271e-03		-2.109239e-02
1.381005e-02		-1.176176e-02		-3.043504e-02
1.638118e-02		-7.306919e-03		-2.843941e-02
1.797949e-02		-4.432541e-03		-2.846257e-02
1.873057e-02		-1.925000e-03		-2.825904e-02
1.896354e-02		-2.294691e-16		-2.826950e-02
1.873057e-02		1.925000e-03		-2.825904e-02
1.797949e-02		4.432541e-03		-2.846257e-02
1.638118e-02		7.306919e-03		-2.843941e-02
1.381005e-02		1.176176e-02		-3.043504e-02
2.301097e-02		1.340673e-02		4.214988e-02
2.791687e-02		5.564202e-03		4.074766e-02
2.928782e-02		5.406832e-16		4.054067e-02
2.791687e-02		-5.564202e-03		4.074766e-02
2.301097e-02		-1.340673e-02		4.214988e-02
1.654674e-02		7.058226e-03		1.907918e-02
2.033764e-02		2.901301e-03		1.794947e-02
2.122561e-02		3.432687e-16		1.760972e-02
2.033764e-02		-2.901301e-03		1.794947e-02
1.654674e-02		-7.058226e-03		1.907918e-02
1.428370e-02		3.334496e-16		5.356020e-16
1.813072e-02		2.114942e-16		3.651416e-16
1.886970e-02		1.366994e-16		2.541825e-16
1.813072e-02		7.570317e-17		1.802686e-16
1.428370e-02		2.742623e-17		9.743405e-17
1.654674e-02		-7.058226e-03		-1.907918e-02
2.033764e-02		-2.901301e-03		-1.794947e-02
2.122561e-02		-9.399294e-17		-1.760972e-02
2.033764e-02		2.901301e-03		-1.794947e-02
1.654674e-02		7.058226e-03		-1.907918e-02
2.301097e-02		-1.340673e-02		-4.214988e-02
2.791687e-02		-5.564202e-03		-4.074766e-02
2.928782e-02		-3.260011e-16		-4.054067e-02
2.791687e-02		5.564202e-03		-4.074766e-02
2.301097e-02		1.340673e-02		-4.214988e-02
3.456962e-02		1.356567e-02		5.249696e-02
3.751275e-02		9.888116e-03		5.244180e-02
3.952066e-02		6.093691e-03		5.202683e-02
4.066786e-02		2.947387e-03		5.190226e-02
4.102652e-02		7.683544e-16		5.182539e-02
4.066786e-02		-2.947387e-03		5.190226e-02
3.952066e-02		-6.093691e-03		5.202683e-02
3.751275e-02		-9.888116e-03		5.244180e-02
3.456962e-02		-1.356567e-02		5.249696e-02
3.129473e-02		1.026418e-02		3.792485e-02
3.576938e-02		4.625748e-03		3.756391e-02
3.704053e-02		6.231068e-16		3.731745e-02
3.576938e-02		-4.625748e-03		3.756391e-02
3.129473e-02		-1.026418e-02		3.792485e-02
2.857693e-02		6.957186e-03		2.433786e-02
3.120687e-02		5.133796e-03		2.436265e-02
3.277292e-02		3.163262e-03		2.403130e-02
3.357889e-02		1.520458e-03		2.388826e-02
3.381986e-02		4.989147e-16		2.382501e-02
3.357889e-02		-1.520458e-03		2.388826e-02
3.277292e-02		-3.163262e-03		2.403130e-02
3.120687e-02		-5.133796e-03		2.436265e-02
2.857693e-02		-6.957186e-03		2.433786e-02
2.691866e-02		3.561912e-03		1.195000e-02
3.109963e-02		1.616640e-03		1.178547e-02
3.202095e-02		3.577844e-16		1.166162e-02
3.109963e-02		-1.616640e-03		1.178547e-02
2.691866e-02		-3.561912e-03		1.195000e-02
2.633022e-02		4.032193e-16		6.721210e-16
2.909263e-02		3.557460e-16		5.635534e-16
3.055214e-02		2.971806e-16		4.778261e-16
3.125341e-02		2.611433e-16		4.078188e-16
3.146087e-02		2.160091e-16		3.434252e-16
3.125341e-02		1.739831e-16		3.078756e-16
3.055214e-02		1.375803e-16		2.512433e-16
2.909263e-02		1.045991e-16		2.048249e-16
2.633022e-02		7.585184e-17		1.444551e-16
2.691866e-02		-3.561912e-03		-1.195000e-02
3.109963e-02		-1.616640e-03		-1.178547e-02
3.202095e-02		6.510779e-17		-1.166162e-02
3.109963e-02		1.616640e-03		-1.178547e-02
2.691866e-02		3.561912e-03		-1.195000e-02
2.857693e-02		-6.957186e-03		-2.433786e-02
3.120687e-02		-5.133796e-03		-2.436265e-02
3.277292e-02		-3.163262e-03		-2.403130e-02
3.357889e-02		-1.520458e-03		-2.388826e-02
3.381986e-02		-9.379804e-17		-2.382501e-02
3.357889e-02		1.520458e-03		-2.388826e-02
3.277292e-02		3.163262e-03		-2.403130e-02
3.120687e-02		5.133796e-03		-2.436265e-02
2.857693e-02		6.957186e-03		-2.433786e-02
3.129473e-02		-1.026418e-02		-3.792485e-02
3.576938e-02		-4.625748e-03		-3.756391e-02
3.704053e-02		-2.541329e-16		-3.731745e-02
3.576938e-02		4.625748e-03		-3.756391e-02
3.129473e-02		1.026418e-02		-3.792485e-02
3.456962e-02		-1.356567e-02		-5.249696e-02
3.751275e-02		-9.888116e-03		-5.244180e-02
3.952066e-02		-6.093691e-03		-5.202683e-02
4.066786e-02		-2.947387e-03		-5.190226e-02
4.102652e-02		-4.140503e-16		-5.182539e-02
4.066786e-02		2.947387e-03		-5.190226e-02
3.952066e-02		6.093691e-03		-5.202683e-02
3.751275e-02		9.888116e-03		-5.244180e-02
3.456962e-02		1.356567e-02		-5.249696e-02
4.879868e-02		1.316013e-02		6.250830e-02
5.358125e-02		6.218987e-03		6.282701e-02
5.508666e-02		9.818243e-16		6.261440e-02
5.358125e-02		-6.218987e-03		6.282701e-02
4.879868e-02		-1.316013e-02		6.250830e-02
4.331518e-02		6.647615e-03		2.952454e-02
4.762374e-02		3.218800e-03		2.979702e-02
4.877501e-02		6.707608e-16		2.967856e-02
4.762374e-02		-3.218800e-03		2.979702e-02
4.331518e-02		-6.647615e-03		2.952454e-02
4.123040e-02		4.948426e-16		7.938261e-16
4.551719e-02		3.987992e-16		6.024612e-16
4.655143e-02		3.080041e-16		4.547994e-16
4.551719e-02		2.155919e-16		3.253560e-16
4.123040e-02		1.448676e-16		2.072596e-16
4.331518e-02		-6.647615e-03		-2.952454e-02
4.762374e-02		-3.218800e-03		-2.979702e-02
4.877501e-02		-7.663177e-17		-2.967856e-02
4.762374e-02		3.218800e-03		-2.979702e-02
4.331518e-02		6.647615e-03		-2.952454e-02
4.879868e-02		-1.316013e-02		-6.250830e-02
5.358125e-02		-6.218987e-03		-6.282701e-02
5.508666e-02		-4.652873e-16		-6.261440e-02
5.358125e-02		6.218987e-03		-6.282701e-02
4.879868e-02		1.316013e-02		-6.250830e-02
6.531328e-02		1.229128e-02		7.178798e-02
6.796952e-02		9.066762e-03		7.249577e-02
6.979431e-02		5.935035e-03		7.261116e-02
7.085957e-02		2.924133e-03		7.255448e-02
7.121572e-02		1.196276e-15		7.252270e-02
7.085957e-02		-2.924133e-03		7.255448e-02
6.979431e-02		-5.935035e-03		7.261116e-02
6.796952e-02		-9.066762e-03		7.249577e-02
6.531328e-02		-1.229128e-02		7.178798e-02
6.245776e-02		9.226520e-03		5.230982e-02
6.673378e-02		4.511068e-03		5.318536e-02
6.801731e-02		1.042078e-15		5.318244e-02
6.673378e-02		-4.511068e-03		5.318536e-02
6.245776e-02		-9.226520e-03		5.230982e-02
6.039692e-02		6.176641e-03		3.419119e-02
6.293293e-02		4.620182e-03		3.465252e-02
6.455372e-02		3.052531e-03		3.482424e-02
6.545420e-02		1.506222e-03		3.484421e-02
6.573122e-02		8.558411e-16		3.483977e-02
6.545420e-02		-1.506222e-03		3.484421e-02
6.455372e-02		-3.052531e-03		3.482424e-02
6.293293e-02		-4.620182e-03		3.465252e-02
6.039692e-02		-6.176641e-03		3.419119e-02
5.906369e-02		3.107510e-03		1.686724e-02
6.318900e-02		1.546153e-03		1.720004e-02
6.429577e-02		6.405302e-16		1.720752e-02
6.318900e-02		-1.546153e-03		1.720004e-02
5.906369e-02		-3.107510e-03		1.686724e-02
5.860765e-02		5.797696e-16		8.888854e-16
6.116581e-02		5.390526e-16		7.880660e-16
6.274288e-02		5.066416e-16		7.071051e-16
6.358075e-02		4.708347e-16		6.156936e-16
6.383189e-02		4.162849e-16		5.681421e-16
6.358075e-02		3.593380e-16		4.658336e-16
6.274288e-02		3.070685e-16		3.995144e-16
6.116581e-02		2.624552e-16		3.271917e-16
5.860765e-02		2.212322e-16		2.652560e-16
5.906369e-02		-3.107510e-03		-1.686724e-02
6.318900e-02		-1.546153e-03		-1.720004e-02
6.429577e-02		1.931479e-16		-1.720752e-02
6.318900e-02		1.546153e-03		-1.720004e-02
5.906369e-02		3.107510e-03		-1.686724e-02
6.039692e-02		-6.176641e-03		-3.419119e-02
6.293293e-02		-4.620182e-03		-3.465252e-02
6.455372e-02		-3.052531e-03		-3.482424e-02
6.545420e-02		-1.506222e-03		-3.484421e-02
6.573122e-02		-6.825004e-17		-3.483977e-02
6.545420e-02		1.506222e-03		-3.484421e-02
6.455372e-02		3.052531e-03		-3.482424e-02
6.293293e-02		4.620182e-03		-3.465252e-02
6.039692e-02		6.176641e-03		-3.419119e-02
6.245776e-02		-9.226520e-03		-5.230982e-02
6.673378e-02		-4.511068e-03		-5.318536e-02
6.801731e-02		-2.839742e-16		-5.318244e-02
6.673378e-02		4.511068e-03		-5.318536e-02
6.245776e-02		9.226520e-03		-5.230982e-02
6.531328e-02		-1.229128e-02		-7.178798e-02
6.796952e-02		-9.066762e-03		-7.249577e-02
6.979431e-02		-5.935035e-03		-7.261116e-02
7.085957e-02		-2.924133e-03		-7.255448e-02
7.121572e-02		-5.137534e-16		-7.252270e-02
7.085957e-02		2.924133e-03		-7.255448e-02
6.979431e-02		5.935035e-03		-7.261116e-02
6.796952e-02		9.066762e-03		-7.249577e-02
6.531328e-02		1.229128e-02		-7.178798e-02
8.386945e-02		1.106697e-02		8.015807e-02
8.792978e-02		5.411616e-03		8.127185e-02
8.921792e-02		1.492802e-15		8.129506e-02
8.792978e-02		-5.411616e-03		8.127185e-02
8.386945e-02		-1.106697e-02		8.015807e-02
7.956811e-02		5.549454e-03		3.830833e-02
8.341466e-02		2.768004e-03		3.917300e-02
8.455366e-02		1.034080e-15		3.929739e-02
8.341466e-02		-2.768004e-03		3.917300e-02
7.956811e-02		-5.549454e-03		3.830833e-02
7.804975e-02		6.544755e-16		9.490566e-16
8.188167e-02		6.249800e-16		7.858026e-16
8.296612e-02		5.324001e-16		6.642093e-16
8.188167e-02		4.037773e-16		4.984220e-16
7.804975e-02		3.071935e-16		3.148121e-16
7.956811e-02		-5.549454e-03		-3.830833e-02
8.341466e-02		-2.768004e-03		-3.917300e-02
8.455366e-02		-1.740528e-17		-3.929739e-02
8.341466e-02		2.768004e-03		-3.917300e-02
7.956811e-02		5.549454e-03		-3.830833e-02
8.386945e-02		-1.106697e-02		-8.015807e-02
8.792978e-02		-5.411616e-03		-8.127185e-02
8.921792e-02		-5.778305e-16		-8.129506e-02
8.792978e-02		5.411616e-03		-8.127185e-02
8.386945e-02		1.106697e-02		-8.015807e-02
1.042679e-01		9.658421e-03		8.750500e-02
1.063655e-01		7.199986e-03		8.850941e-02
1.078208e-01		4.748416e-03		8.880675e-02
1.086745e-01		2.363904e-03		8.891085e-02
1.089550e-01		1.763344e-15		8.889667e-02
1.086745e-01		-2.363904e-03		8.891085e-02
1.078208e-01		-4.748416e-03		8.880675e-02
1.063655e-01		-7.199986e-03		8.850941e-02
1.042679e-01		-9.658421e-03		8.750500e-02
1.021158e-01		7.250596e-03		6.393586e-02
1.055845e-01		3.597015e-03		6.532488e-02
1.066664e-01		1.500798e-15		6.552616e-02
1.055845e-01		-3.597015e-03		6.532488e-02
1.021158e-01		-7.250596e-03		6.393586e-02
1.005690e-01		4.841473e-03		4.190699e-02
1.026126e-01		3.640426e-03		4.256761e-02
1.039901e-01		2.419709e-03		4.291718e-02
1.047779e-01		1.209695e-03		4.307974e-02
1.050304e-01		1.230277e-15		4.310551e-02
1.047779e-01		-1.209695e-03		4.307974e-02
1.039901e-01		-2.419709e-03		4.291718e-02
1.026126e-01		-3.640426e-03		4.256761e-02
1.005690e-01		-4.841473e-03		4.190699e-02
9.962728e-02		2.428114e-03		2.074329e-02
1.030370e-01		1.218263e-03		2.127553e-02
1.040522e-01		9.395991e-16		2.138813e-02
1.030370e-01		-1.218263e-03		2.127553e-02
9.962728e-02		-2.428114e-03		2.074329e-02
9.929767e-02		7.399329e-16		9.891073e-16
1.013483e-01		7.558944e-16		9.122242e-16
1.027076e-01		7.426805e-16		8.486096e-16
1.034735e-01		6.851040e-16		7.961421e-16
1.037153e-01		6.384748e-16		7.455945e-16
1.034735e-01		5.922691e-16		6.582011e-16
1.027076e-01		5.120210e-16		5.854377e-16
1.013483e-01		4.582417e-16		4.717886e-16
9.929767e-02		4.204858e-16		3.579663e-16
9.962728e-02		-2.428114e-03		-2.074329e-02
1.030370e-01		-1.218263e-03		-2.127553e-02
1.040522e-01		3.416334e-16		-2.138813e-02
1.030370e-01		1.218263e-03		-2.127553e-02
9.962728e-02		2.428114e-03		-2.074329e-02
1.005690e-01		-4.841473e-03		-4.190699e-02
1.026126e-01		-3.640426e-03		-4.256761e-02
1.039901e-01		-2.419709e-03		-4.291718e-02
1.047779e-01		-1.209695e-03		-4.307974e-02
1.050304e-01		3.303155e-17		-4.310551e-02
1.047779e-01		1.209695e-03		-4.307974e-02
1.039901e-01		2.419709e-03		-4.291718e-02
1.026126e-01		3.640426e-03		-4.256761e-02
1.005690e-01		4.841473e-03		-4.190699e-02
1.021158e-01		-7.250596e-03		-6.393586e-02
1.055845e-01		-3.597015e-03		-6.532488e-02
1.066664e-01		-2.945860e-16		-6.552616e-02
1.055845e-01		3.597015e-03		-6.532488e-02
1.021158e-01		7.250596e-03		-6.393586e-02
1.042679e-01		-9.658421e-03		-8.750500e-02
1.063655e-01		-7.199986e-03		-8.850941e-02
1.078208e-01		-4.748416e-03		-8.880675e-02
1.086745e-01		-2.363904e-03		-8.891085e-02
1.089550e-01		-6.294427e-16		-8.889667e-02
1.086745e-01		2.363904e-03		-8.891085e-02
1.078208e-01		4.748416e-03		-8.880675e-02
1.063655e-01		7.199986e-03		-8.850941e-02
1.042679e-01		9.658421e-03		-8.750500e-02
1.262257e-01		8.147375e-03		9.374964e-02
1.292293e-01		4.022931e-03		9.518244e-02
1.301962e-01		2.062331e-15		9.531835e-02
1.292293e-01		-4.022931e-03		9.518244e-02
1.262257e-01		-8.147375e-03		9.374964e-02
1.231284e-01		4.083874e-03		4.498743e-02
1.260568e-01		2.042960e-03		4.609568e-02
1.269678e-01		1.425826e-15		4.633128e-02
1.260568e-01		-2.042960e-03		4.609568e-02
1.231284e-01		-4.083874e-03		4.498743e-02
1.220857e-01		8.294464e-16		1.002748e-15
1.250086e-01		8.179114e-16		9.617921e-16
1.259025e-01		7.556547e-16		8.477805e-16
1.250086e-01		6.397867e-16		6.759246e-16
1.220857e-01		5.323030e-16		4.554967e-16
1.231284e-01		-4.083874e-03		-4.498743e-02
1.260568e-01		-2.042960e-03		-4.609568e-02
1.269678e-01		6.307850e-17		-4.633128e-02
1.260568e-01		2.042960e-03		-4.609568e-02
1.231284e-01		4.083874e-03		-4.498743e-02
1.262257e-01		-8.147375e-03		-9.374964e-02
1.292293e-01		-4.022931e-03		-9.518244e-02
1.301962e-01		-6.429419e-16		-9.531835e-02
1.292293e-01		4.022931e-03		-9.518244e-02
1.262257e-01		8.147375e-03		-9.374964e-02
1.494643e-01		6.566448e-03		9.890262e-02
1.508884e-01		4.905532e-03		1.000298e-01
1.518885e-01		3.250815e-03		1.004092e-01
1.524784e-01		1.619935e-03		1.005592e-01
1.526736e-01		2.318497e-15		1.005697e-01
1.524784e-01		-1.619935e-03		1.005592e-01
1.518885e-01		-3.250815e-03		1.004092e-01
1.508884e-01		-4.905532e-03		1.000298e-01
1.494643e-01		-6.566448e-03		9.890262e-02
1.480129e-01		4.931035e-03		7.241121e-02
1.504095e-01		2.455423e-03		7.400837e-02
1.511751e-01		1.968716e-15		7.429462e-02
1.504095e-01		-2.455423e-03		7.400837e-02
1.480129e-01		-4.931035e-03		7.241121e-02
1.469785e-01		3.293252e-03		4.752716e-02
1.483881e-01		2.472990e-03		4.826876e-02
1.493604e-01		1.647045e-03		4.869261e-02
1.499282e-01		8.228503e-04		4.890356e-02
1.501121e-01		1.591169e-15		4.895275e-02
1.499282e-01		-8.228503e-04		4.890356e-02
1.493604e-01		-1.647045e-03		4.869261e-02
1.483881e-01		-2.472990e-03		4.826876e-02
1.469785e-01		-3.293252e-03		4.752716e-02
1.463550e-01		1.649535e-03		2.354048e-02
1.487342e-01		8.272486e-04		2.415515e-02
1.494778e-01		1.208002e-15		2.430770e-02
1.487342e-01		-8.272486e-04		2.415515e-02
1.463550e-01		-1.649535e-03		2.354048e-02
1.461473e-01		8.668737e-16		1.022586e-15
1.475611e-01		8.627924e-16		1.028872e-15
1.485279e-01		8.509799e-16		1.027891e-15
1.490886e-01		8.628587e-16		9.993636e-16
1.492696e-01		8.552065e-16		9.186634e-16
1.490886e-01		8.114546e-16		8.584431e-16
1.485279e-01		7.479822e-16		7.960874e-16
1.475611e-01		6.959055e-16		6.474649e-16
1.461473e-01		6.273503e-16		5.295281e-16
1.463550e-01		-1.649535e-03		-2.354048e-02
1.487342e-01		-8.272486e-04		-2.415515e-02
1.494778e-01		4.822080e-16		-2.430770e-02
1.487342e-01		8.272486e-04		-2.415515e-02
1.463550e-01		1.649535e-03		-2.354048e-02
1.469785e-01		-3.293252e-03		-4.752716e-02
1.483881e-01		-2.472990e-03		-4.826876e-02
1.493604e-01		-1.647045e-03		-4.869261e-02
1.499282e-01		-8.228503e-04		-4.890356e-02
1.501121e-01		8.558491e-17		-4.895275e-02
1.499282e-01		8.228503e-04		-4.890356e-02
1.493604e-01		1.647045e-03		-4.869261e-02
1.483881e-01		2.472990e-03		-4.826876e-02
1.469785e-01		3.293252e-03		-4.752716e-02
1.480129e-01		-4.931035e-03		-7.241121e-02
1.504095e-01		-2.455423e-03		-7.400837e-02
1.511751e-01		-2.780289e-16		-7.429462e-02
1.504095e-01		2.455423e-03		-7.400837e-02
1.480129e-01		4.931035e-03		-7.241121e-02
1.494643e-01		-6.566448e-03		-9.890262e-02
1.508884e-01		-4.905532e-03		-1.000298e-01
1.518885e-01		-3.250815e-03		-1.004092e-01
1.524784e-01		-1.619935e-03		-1.005592e-01
1.526736e-01		-6.970544e-16		-1.005697e-01
1.524784e-01		1.619935e-03		-1.005592e-01
1.518885e-01		3.250815e-03		-1.004092e-01
1.508884e-01		4.905532e-03		-1.000298e-01
1.494643e-01		6.566448e-03		-9.890262e-02
1.737157e-01		4.946280e-03		1.029125e-01
1.755460e-01		2.453835e-03		1.044600e-01
1.761421e-01		2.574865e-15		1.046340e-01
1.755460e-01		-2.453835e-03		1.044600e-01
1.737157e-01		-4.946280e-03		1.029125e-01
1.718463e-01		2.480779e-03		4.951639e-02
1.736540e-01		1.240705e-03		5.071541e-02
1.742313e-01		1.731556e-15		5.099054e-02
1.736540e-01		-1.240705e-03		5.071541e-02
1.718463e-01		-2.480779e-03		4.951639e-02
1.712224e-01		8.469021e-16		1.037444e-15
1.730307e-01		8.845778e-16		1.041801e-15
1.736027e-01		9.291500e-16		9.859902e-16
1.730307e-01		8.743715e-16		9.117555e-16
1.712224e-01		7.759877e-16		5.940838e-16
1.718463e-01		-2.480779e-03		-4.951639e-02
1.736540e-01		-1.240705e-03		-5.071541e-02
1.742313e-01		1.262442e-16		-5.099054e-02
1.736540e-01		1.240705e-03		-5.071541e-02
1.718463e-01		2.480779e-03		-4.951639e-02
1.737157e-01		-4.946280e-03		-1.029125e-01
1.755460e-01		-2.453835e-03		-1.044600e-01
1.761421e-01		-7.367250e-16		-1.046340e-01
1.755460e-01		2.453835e-03		-1.044600e-01
1.737157e-01		4.946280e-03		-1.029125e-01
1.987253e-01		3.305732e-03		1.057942e-01
1.994428e-01		2.473016e-03		1.069578e-01
1.999495e-01		1.641828e-03		1.073622e-01
2.002501e-01		8.189362e-04		1.075283e-01
2.003494e-01		2.773795e-15		1.075418e-01
2.002501e-01		-8.189362e-04		1.075283e-01
1.999495e-01		-1.641828e-03		1.073622e-01
1.994428e-01		-2.473016e-03		1.069578e-01
1.987253e-01		-3.305732e-03		1.057942e-01
1.979970e-01		2.482943e-03		7.755338e-02
1.992135e-01		1.237861e-03		7.921726e-02
1.996074e-01		2.283267e-15		7.952985e-02
1.992135e-01		-1.237861e-03		7.921726e-02
1.979970e-01		-2.482943e-03		7.755338e-02
1.974768e-01		1.658270e-03		5.094211e-02
1.981909e-01		1.244680e-03		5.171001e-02
1.986897e-01		8.291942e-04		5.215849e-02
1.989832e-01		4.143978e-04		5.238659e-02
1.990793e-01		1.854322e-15		5.244080e-02
1.989832e-01		-4.143978e-04		5.238659e-02
1.986897e-01		-8.291942e-04		5.215849e-02
1.981909e-01		-1.244680e-03		5.171001e-02
1.974768e-01		-1.658270e-03		5.094211e-02
1.971646e-01		8.306635e-04		2.524326e-02
1.983778e-01		4.159871e-04		2.588491e-02
1.987651e-01		1.424163e-15		2.605016e-02
1.983778e-01		-4.159871e-04		2.588491e-02
1.971646e-01		-8.306635e-04		2.524326e-02
1.970599e-01		8.193469e-16		1.023178e-15
1.977766e-01		8.166651e-16		1.051382e-15
1.982739e-01		8.857817e-16		1.043535e-15
1.985655e-01		9.410371e-16		1.029631e-15
1.986606e-01		9.722991e-16		1.029852e-15
1.985655e-01		9.755361e-16		1.012042e-15
1.982739e-01		9.691877e-16		9.837830e-16
1.977766e-01		9.659341e-16		9.020076e-16
1.970599e-01		9.471497e-16		7.451394e-16
1.971646e-01		-8.306635e-04		-2.524326e-02
1.983778e-01		-4.159871e-04		-2.588491e-02
1.987651e-01		5.397709e-16		-2.605016e-02
1.983778e-01		4.159871e-04		-2.588491e-02
1.971646e-01		8.306635e-04		-2.524326e-02
1.974768e-01		-1.658270e-03		-5.094211e-02
1.981909e-01		-1.244680e-03		-5.171001e-02
1.986897e-01		-8.291942e-04		-5.215849e-02
1.989832e-01		-4.143978e-04		-5.238659e-02
1.990793e-01		1.393274e-16		-5.244080e-02
1.989832e-01		4.143978e-04		-5.238659e-02
1.986897e-01		8.291942e-04		-5.215849e-02
1.981909e-01		1.244680e-03		-5.171001e-02
1.974768e-01		1.658270e-03		-5.094211e-02
1.979970e-01		-2.482943e-03		-7.755338e-02
1.992135e-01		-1.237861e-03		-7.921726e-02
1.996074e-01		-3.086165e-16		-7.952985e-02
1.992135e-01		1.237861e-03		-7.921726e-02
1.979970e-01		2.482943e-03		-7.755338e-02
1.987253e-01		-3.305732e-03		-1.057942e-01
1.994428e-01		-2.473016e-03		-1.069578e-01
1.999495e-01		-1.641828e-03		-1.073622e-01
2.002501e-01		-8.189362e-04		-1.075283e-01
2.003494e-01		-8.219291e-16		-1.075418e-01
2.002501e-01		8.189362e-04		-1.075283e-01
1.999495e-01		1.641828e-03		-1.073622e-01
1.994428e-01		2.473016e-03		-1.069578e-01
1.987253e-01		3.305732e-03		-1.057942e-01
2.242371e-01		1.655190e-03		1.075139e-01
2.248508e-01		8.225946e-04		1.090930e-01
2.250518e-01		2.958591e-15		1.092761e-01
2.248508e-01		-8.225946e-04		1.090930e-01
2.242371e-01		-1.655190e-03		1.075139e-01
2.236121e-01		8.302229e-04		5.180150e-02
2.242212e-01		4.150904e-04		5.302709e-02
2.244177e-01		1.922958e-15		5.331382e-02
2.242212e-01		-4.150904e-04		5.302709e-02
2.236121e-01		-8.302229e-04		5.180150e-02
2.234033e-01		7.442897e-16		9.365422e-16
2.240130e-01		8.647848e-16		1.077586e-15
2.242085e-01		1.013239e-15		1.045785e-15
2.240130e-01		1.056535e-15		1.026730e-15
2.234033e-01		1.065409e-15		9.792351e-16
2.236121e-01		-8.302229e-04		-5.180150e-02
2.242212e-01		-4.150904e-04		-5.302709e-02
2.244177e-01		5.903800e-17		-5.331382e-02
2.242212e-01		4.150904e-04		-5.302709e-02
2.236121e-01		8.302229e-04		-5.180150e-02
2.242371e-01		-1.655190e-03		-1.075139e-01
2.248508e-01		-8.225946e-04		-1.090930e-01
2.250518e-01		-9.154846e-16		-1.092761e-01
2.248508e-01		8.225946e-04		-1.090930e-01
2.242371e-01		1.655190e-03		-1.075139e-01
2.500000e-01		2.554427e-15		1.080963e-01
2.500000e-01		2.751067e-15		1.092681e-01
2.500000e-01		2.937929e-15		1.096782e-01
2.500000e-01		3.001847e-15		1.098470e-01
2.500000e-01		2.966691e-15		1.098617e-01
2.500000e-01		3.164980e-15		1.098470e-01
2.500000e-01		3.457110e-15		1.096782e-01
2.500000e-01		3.830366e-15		1.092681e-01
2.500000e-01		4.069591e-15		1.080963e-01
2.500000e-01		2.070673e-15		7.927460e-02
2.500000e-01		2.248644e-15		8.095362e-02
2.500000e-01		2.414593e-15		8.127236e-02
2.500000e-01		2.740107e-15		8.095362e-02
2.500000e-01		3.078407e-15		7.927460e-02
2.500000e-01		1.445817e-15		5.208669e-02
2.500000e-01		1.616786e-15		5.286044e-02
2.500000e-01		1.757536e-15		5.331463e-02
2.500000e-01		1.823495e-15		5.354646e-02
2.500000e-01		1.933173e-15		5.360224e-02
2.500000e-01		2.071126e-15		5.354646e-02
2.500000e-01		2.181012e-15		5.331463e-02
2.500000e-01		2.281362e-15		5.286044e-02
2.500000e-01		2.359657e-15		5.208669e-02
2.500000e-01		9.948530e-16		2.581477e-02
2.500000e-01		1.234814e-15		2.646269e-02
2.500000e-01		1.475177e-15		2.663089e-02
2.500000e-01		1.620525e-15		2.646269e-02
2.500000e-01		1.662522e-15		2.581477e-02
2.500000e-01		6.447199e-16		8.613172e-16
2.500000e-01		7.232242e-16		9.806146e-16
2.500000e-01		8.139578e-16		1.006880e-15
2.500000e-01		8.993245e-16		1.039700e-15
2.500000e-01		9.932273e-16		1.045742e-15
2.500000e-01		1.079276e-15		1.123267e-15
2.500000e-01		1.086168e-15		1.176237e-15
2.500000e-01		1.089563e-15		1.144066e-15
2.500000e-01		1.132500e-15		1.177972e-15
2.500000e-01		3.622413e-16		-2.581477e-02
2.500000e-01		3.915939e-16		-2.646269e-02
2.500000e-01		4.593757e-16		-2.663089e-02
2.500000e-01		5.302747e-16		-2.646269e-02
2.500000e-01		5.471420e-16		-2.581477e-02
2.500000e-01		3.774645e-17		-5.208669e-02
2.500000e-01		4.215906e-17		-5.286044e-02
2.500000e-01		3.150108e-17		-5.331463e-02
2.500000e-01		2.206066e-17		-5.354646e-02
2.500000e-01		-6.880616e-18		-5.360224e-02
2.500000e-01		6.265095e-17		-5.354646e-02
2.500000e-01		1.439726e-17		-5.331463e-02
2.500000e-01		2.334925e-17		-5.286044e-02
2.500000e-01		3.477836e-17		-5.208669e-02
2.500000e-01		-2.651474e-16		-7.927460e-02
2.500000e-01		-4.161272e-16		-8.095362e-02
2.500000e-01		-4.775230e-16		-8.127236e-02
2.500000e-01		-5.038227e-16		-8.095362e-02
2.500000e-01		-7.311417e-16		-7.927460e-02
2.500000e-01		-7.087689e-16		-1.080963e-01
2.500000e-01		-7.028840e-16		-1.092681e-01
2.500000e-01		-7.935875e-16		-1.096782e-01
2.500000e-01		-8.929862e-16		-1.098470e-01
2.500000e-01		-9.645726e-16		-1.098617e-01
2.500000e-01		-1.031897e-15		-1.098470e-01
2.500000e-01		-1.078786e-15		-1.096782e-01
2.500000e-01		-1.059003e-15		-1.092681e-01
2.500000e-01		-9.585809e-16		-1.080963e-01
2.757629e-01		-1.655190e-03		1.075139e-01
2.751492e-01		-8.225946e-04		1.090930e-01
2.749482e-01		3.043083e-15		1.092761e-01
2.751492e-01		8.225946e-04		1.090930e-01
2.757629e-01		1.655190e-03		1.075139e-01
2.763879e-01		-8.302229e-04		5.180150e-02
2.757788e-01		-4.150904e-04		5.302709e-02
2.755823e-01		1.938438e-15		5.331382e-02
2.757788e-01		4.150904e-04		5.302709e-02
2.763879e-01		8.302229e-04		5.180150e-02
2.765967e-01		6.232600e-16		8.779360e-16
2.759870e-01		7.745574e-16		9.388283e-16
2.757915e-01		9.384945e-16		1.131365e-15
2.759870e-01		1.058587e-15		1.315779e-15
2.765967e-01		1.137922e-15		1.377713e-15
2.763879e-01		8.302229e-04		-5.180150e-02
2.757788e-01		4.150904e-04		-5.302709e-02
2.755823e-01		-5.369146e-17		-5.331382e-02
2.757788e-01		-4.150904e-04		-5.302709e-02
2.763879e-01		-8.302229e-04		-5.180150e-02
2.757629e-01		1.655190e-03		-1.075139e-01
2.751492e-01		8.225946e-04		-1.090930e-01
2.749482e-01		-9.800902e-16		-1.092761e-01
2.751492e-01		-8.225946e-04		-1.090930e-01
2.757629e-01		-1.655190e-03		-1.075139e-01
3.012747e-01		-3.305732e-03		1.057942e-01
3.005572e-01		-2.473016e-03		1.069578e-01
3.000505e-01		-1.641828e-03		1.073622e-01
2.997499e-01		-8.189362e-04		1.075283e-01
2.996506e-01		3.013268e-15		1.075418e-01
2.997499e-01		8.189362e-04		1.075283e-01
3.000505e-01		1.641828e-03		1.073622e-01
3.005572e-01		2.473016e-03		1.069578e-01
3.012747e-01		3.305732e-03		1.057942e-01
3.020030e-01		-2.482943e-03		7.755338e-02
3.007865e-01		-1.237861e-03		7.921726e-02
3.003926e-01		2.343050e-15		7.952985e-02
3.007865e-01		1.237861e-03		7.921726e-02
3.020030e-01		2.482943e-03		7.755338e-02
3.025232e-01		-1.658270e-03		5.094211e-02
3.018091e-01		-1.244680e-03		5.171001e-02
3.013103e-01		-8.291942e-04		5.215849e-02
3.010168e-01		-4.143978e-04		5.238659e-02
3.009207e-01		1.828893e-15		5.244080e-02
3.010168e-01		4.143978e-04		5.238659e-02
3.013103e-01		8.291942e-04		5.215849e-02
3.018091e-01		1.244680e-03		5.171001e-02
3.025232e-01		1.658270e-03		5.094211e-02
3.028354e-01		-8.306635e-04		2.524326e-02
3.016222e-01		-4.159871e-04		2.588491e-02
3.012349e-01		1.336774e-15		2.605016e-02
3.016222e-01		4.159871e-04		2.588491e-02
3.028354e-01		8.306635e-04		2.524326e-02
3.029401e-01		6.162131e-16		9.052036e-16
3.022234e-01		6.133210e-16		8.908109e-16
3.017261e-01		6.973930e-16		9.403698e-16
3.014345e-01		7.954636e-16		1.025648e-15
3.013394e-01		8.548936e-16		1.229209e-15
3.014345e-01		9.247173e-16		1.312419e-15
3.017261e-01		9.796629e-16		1.455025e-15
3.022234e-01		1.059239e-15		1.510709e-15
3.029401e-01		1.123213e-15		1.569087e-15
3.028354e-01		8.306635e-04		-2.524326e-02
3.016222e-01		4.159871e-04		-2.588491e-02
3.012349e-01		3.742191e-16		-2.605016e-02
3.016222e-01		-4.159871e-04		-2.588491e-02
3.028354e-01		-8.306635e-04		-2.524326e-02
3.025232e-01		1.658270e-03		-5.094211e-02
3.018091e-01		1.244680e-03		-5.171001e-02
3.013103e-01		8.291942e-04		-5.215849e-02
3.010168e-01		4.143978e-04		-5.238659e-02
3.009207e-01		-1.196610e-16		-5.244080e-02
3.010168e-01		-4.143978e-04		-5.238659e-02
3.013103e-01		-8.291942e-04		-5.215849e-02
3.018091e-01		-1.244680e-03		-5.171001e-02
3.025232e-01		-1.658270e-03		-5.094211e-02
3.020030e-01		2.482943e-03		-7.755338e-02
3.007865e-01		1.237861e-03		-7.921726e-02
3.003926e-01		-5.808796e-16		-7.952985e-02
3.007865e-01		-1.237861e-03		-7.921726e-02
3.020030e-01		-2.482943e-03		-7.755338e-02
3.012747e-01		3.305732e-03		-1.057942e-01
3.005572e-01		2.473016e-03		-1.069578e-01
3.000505e-01		1.641828e-03		-1.073622e-01
2.997499e-01		8.189362e-04		-1.075283e-01
2.996506e-01		-1.035504e-15		-1.075418e-01
2.997499e-01		-8.189362e-04		-1.075283e-01
3.000505e-01		-1.641828e-03		-1.073622e-01
3.005572e-01		-2.473016e-03		-1.069578e-01
3.012747e-01		-3.305732e-03		-1.057942e-01
3.262843e-01		-4.946280e-03		1.029125e-01
3.244540e-01		-2.453835e-03		1.044600e-01
3.238579e-01		2.926609e-15		1.046340e-01
3.244540e-01		2.453835e-03		1.044600e-01
3.262843e-01		4.946280e-03		1.029125e-01
3.281537e-01		-2.480779e-03		4.951639e-02
3.263460e-01		-1.240705e-03		5.071541e-02
3.257687e-01		1.750483e-15		5.099054e-02
3.263460e-01		1.240705e-03		5.071541e-02
3.281537e-01		2.480779e-03		4.951639e-02
3.287776e-01		5.598968e-16		8.454046e-16
3.269693e-01		6.562782e-16		9.538422e-16
3.263973e-01		7.950312e-16		1.284516e-15
3.269693e-01		9.406787e-16		1.538177e-15
3.287776e-01		1.158210e-15		1.790696e-15
3.281537e-01		2.480779e-03		-4.951639e-02
3.263460e-01		1.240705e-03		-5.071541e-02
3.257687e-01		-2.180873e-16		-5.099054e-02
3.263460e-01		-1.240705e-03		-5.071541e-02
3.281537e-01		-2.480779e-03		-4.951639e-02
3.262843e-01		4.946280e-03		-1.029125e-01
3.244540e-01		2.453835e-03		-1.044600e-01
3.238579e-01		-1.110785e-15		-1.046340e-01
3.244540e-01		-2.453835e-03		-1.044600e-01
3.262843e-01		-4.946280e-03		-1.029125e-01
3.505357e-01		-6.566448e-03		9.890262e-02
3.491116e-01		-4.905532e-03		1.000298e-01
3.481115e-01		-3.250815e-03		1.004092e-01
3.475216e-01		-1.619935e-03		1.005592e-01
3.473264e-01		2.681287e-15		1.005697e-01
3.475216e-01		1.619935e-03		1.005592e-01
3.481115e-01		3.250815e-03		1.004092e-01
3.491116e-01		4.905532e-03		1.000298e-01
3.505357e-01		6.566448e-03		9.890262e-02
3.519871e-01		-4.931035e-03		7.241121e-02
3.495905e-01		-2.455423e-03		7.400837e-02
3.488249e-01		2.065761e-15		7.429462e-02
3.495905e-01		2.455423e-03		7.400837e-02
3.519871e-01		4.931035e-03		7.241121e-02
3.530215e-01		-3.293252e-03		4.752716e-02
3.516119e-01		-2.472990e-03		4.826876e-02
3.506396e-01		-1.647045e-03		4.869261e-02
3.500718e-01		-8.228503e-04		4.890356e-02
3.498879e-01		1.652365e-15		4.895275e-02
3.500718e-01		8.228503e-04		4.890356e-02
3.506396e-01		1.647045e-03		4.869261e-02
3.516119e-01		2.472990e-03		4.826876e-02
3.530215e-01		3.293252e-03		4.752716e-02
3.536450e-01		-1.649535e-03		2.354048e-02
3.512658e-01		-8.272486e-04		2.415515e-02
3.505222e-01		1.175843e-15		2.430770e-02
3.512658e-01		8.272486e-04		2.415515e-02
3.536450e-01		1.649535e-03		2.354048e-02
3.538527e-01		5.805509e-16		6.749681e-16
3.524389e-01		5.670780e-16		8.164438e-16
3.514721e-01		5.475536e-16		9.726274e-16
3.509114e-01		5.847377e-16		1.151263e-15
3.507304e-01		7.245735e-16		1.268890e-15
3.509114e-01		8.760251e-16		1.412806e-15
3.514721e-01		9.156619e-16		1.525479e-15
3.524389e-01		9.511851e-16		1.658517e-15
3.538527e-01		1.044495e-15		1.921363e-15
3.536450e-01		1.649535e-03		-2.354048e-02
3.512658e-01		8.272486e-04		-2.415515e-02
3.505222e-01		2.284198e-16		-2.430770e-02
3.512658e-01		-8.272486e-04		-2.415515e-02
3.536450e-01		-1.649535e-03		-2.354048e-02
3.530215e-01		3.293252e-03		-4.752716e-02
3.516119e-01		2.472990e-03		-4.826876e-02
3.506396e-01		1.647045e-03		-4.869261e-02
3.500718e-01		8.228503e-04		-4.890356e-02
3.498879e-01		-2.590879e-16		-4.895275e-02
3.500718e-01		-8.228503e-04		-4.890356e-02
3.506396e-01		-1.647045e-03		-4.869261e-02
3.516119e-01		-2.472990e-03		-4.826876e-02
3.530215e-01		-3.293252e-03		-4.752716e-02
3.519871e-01		4.931035e-03		-7.241121e-02
3.495905e-01		2.455423e-03		-7.400837e-02
3.488249e-01		-7.534986e-16		-7.429462e-02
3.495905e-01		-2.455423e-03		-7.400837e-02
3.519871e-01		-4.931035e-03		-7.241121e-02
3.505357e-01		6.566448e-03		-9.890262e-02
3.491116e-01		4.905532e-03		-1.000298e-01
3.481115e-01		3.250815e-03		-1.004092e-01
3.475216e-01		1.619935e-03		-1.005592e-01
3.473264e-01		-1.136735e-15		-1.005697e-01
3.475216e-01		-1.619935e-03		-1.005592e-01
3.481115e-01		-3.250815e-03		-1.004092e-01
3.491116e-01		-4.905532e-03		-1.000298e-01
3.505357e-01		-6.566448e-03		-9.890262e-02
3.737743e-01		-8.147375e-03		9.374964e-02
3.707707e-01		-4.022931e-03		9.518244e-02
3.698038e-01		2.350445e-15		9.531835e-02
3.707707e-01		4.022931e-03		9.518244e-02
3.737743e-01		8.147375e-03		9.374964e-02
3.768716e-01		-4.083874e-03		4.498743e-02
3.739432e-01		-2.042960e-03		4.609568e-02
3.730322e-01		1.435674e-15		4.633128e-02
3.739432e-01		2.042960e-03		4.609568e-02
3.768716e-01		4.083874e-03		4.498743e-02
3.779143e-01		4.707237e-16		6.962530e-16
3.749914e-01		4.785253e-16		9.711590e-16
3.740975e-01		6.013256e-16		1.213102e-15
3.749914e-01		8.460072e-16		1.504325e-15
3.779143e-01		8.537953e-16		1.843481e-15
3.768716e-01		4.083874e-03		-4.498743e-02
3.739432e-01		2.042960e-03		-4.609568e-02
3.730322e-01		-3.439332e-16		-4.633128e-02
3.739432e-01		-2.042960e-03		-4.609568e-02
3.768716e-01		-4.083874e-03		-4.498743e-02
3.737743e-01		8.147375e-03		-9.374964e-02
3.707707e-01		4.022931e-03		-9.518244e-02
3.698038e-01		-1.223048e-15		-9.531835e-02
3.707707e-01		-4.022931e-03		-9.518244e-02
3.737743e-01		-8.147375e-03		-9.374964e-02
3.957321e-01		-9.658421e-03		8.750500e-02
3.936345e-01		-7.199986e-03		8.850941e-02
3.921792e-01		-4.748416e-03		8.880675e-02
3.913255e-01		-2.363904e-03		8.891085e-02
3.910450e-01		1.960428e-15		8.889667e-02
3.913255e-01		2.363904e-03		8.891085e-02
3.921792e-01		4.748416e-03		8.880675e-02
3.936345e-01		7.199986e-03		8.850941e-02
3.957321e-01		9.658421e-03		8.750500e-02
3.978842e-01		-7.250596e-03		6.393586e-02
3.944155e-01		-3.597015e-03		6.532488e-02
3.933336e-01		1.569814e-15		6.552616e-02
3.944155e-01		3.597015e-03		6.532488e-02
3.978842e-01		7.250596e-03		6.393586e-02
3.994310e-01		-4.841473e-03		4.190699e-02
3.973874e-01		-3.640426e-03		4.256761e-02
3.960099e-01		-2.419709e-03		4.291718e-02
3.952221e-01		-1.209695e-03		4.307974e-02
3.949696e-01		1.153606e-15		4.310551e-02
3.952221e-01		1.209695e-03		4.307974e-02
3.960099e-01		2.419709e-03		4.291718e-02
3.973874e-01		3.640426e-03		4.256761e-02
3.994310e-01		4.841473e-03		4.190699e-02
4.003727e-01		-2.428114e-03		2.074329e-02
3.969630e-01		-1.218263e-03		2.127553e-02
3.959478e-01		8.992823e-16		2.138813e-02
3.969630e-01		1.218263e-03		2.127553e-02
4.003727e-01		2.428114e-03		2.074329e-02
4.007023e-01		3.068113e-16		7.095114e-16
3.986517e-01		3.412763e-16		8.055696e-16
3.972924e-01		3.772247e-16		9.574211e-16
3.965265e-01		3.931243e-16		1.022720e-15
3.962847e-01		4.791929e-16		1.121625e-15
3.965265e-01		6.568563e-16		1.264257e-15
3.972924e-01		7.077578e-16		1.370354e-15
3.986517e-01		7.236227e-16		1.550660e-15
4.007023e-01		7.313313e-16		1.630115e-15
4.003727e-01		2.428114e-03		-2.074329e-02
3.969630e-01		1.218263e-03		-2.127553e-02
3.959478e-01		2.261662e-17		-2.138813e-02
3.969630e-01		-1.218263e-03		-2.127553e-02
4.003727e-01		-2.428114e-03		-2.074329e-02
3.994310e-01		4.841473e-03		-4.190699e-02
3.973874e-01		3.640426e-03		-4.256761e-02
3.960099e-01		2.419709e-03		-4.291718e-02
3.952221e-01		1.209695e-03		-4.307974e-02
3.949696e-01		-4.297692e-16		-4.310551e-02
3.952221e-01		-1.209695e-03		-4.307974e-02
3.960099e-01		-2.419709e-03		-4.291718e-02
3.973874e-01		-3.640426e-03		-4.256761e-02
3.994310e-01		-4.841473e-03		-4.190699e-02
3.978842e-01		7.250596e-03		-6.393586e-02
3.944155e-01		3.597015e-03		-6.532488e-02
3.933336e-01		-8.496351e-16		-6.552616e-02
3.944155e-01		-3.597015e-03		-6.532488e-02
3.978842e-01		-7.250596e-03		-6.393586e-02
3.957321e-01		9.658421e-03		-8.750500e-02
3.936345e-01		7.199986e-03		-8.850941e-02
3.921792e-01		4.748416e-03		-8.880675e-02
3.913255e-01		2.363904e-03		-8.891085e-02
3.910450e-01		-1.345287e-15		-8.889667e-02
3.913255e-01		-2.363904e-03		-8.891085e-02
3.921792e-01		-4.748416e-03		-8.880675e-02
3.936345e-01		-7.199986e-03		-8.850941e-02
3.957321e-01		-9.658421e-03		-8.750500e-02
4.161305e-01		-1.106697e-02		8.015807e-02
4.120702e-01		-5.411616e-03		8.127185e-02
4.107821e-01		1.750365e-15		8.129506e-02
4.120702e-01		5.411616e-03		8.127185e-02
4.161305e-01		1.106697e-02		8.015807e-02
4.204319e-01		-5.549454e-03		3.830833e-02
4.165853e-01		-2.768004e-03		3.917300e-02
4.154463e-01		1.096668e-15		3.929739e-02
4.165853e-01		2.768004e-03		3.917300e-02
4.204319e-01		5.549454e-03		3.830833e-02
4.219502e-01		2.689098e-16		6.040299e-16
4.181183e-01		3.352235e-16		8.525780e-16
4.170339e-01		4.235984e-16		9.991113e-16
4.181183e-01		5.616943e-16		1.227709e-15
4.219502e-01		6.383941e-16		1.503369e-15
4.204319e-01		5.549454e-03		-3.830833e-02
4.165853e-01		2.768004e-03		-3.917300e-02
4.154463e-01		-3.551459e-16		-3.929739e-02
4.165853e-01		-2.768004e-03		-3.917300e-02
4.204319e-01		-5.549454e-03		-3.830833e-02
4.161305e-01		1.106697e-02		-8.015807e-02
4.120702e-01		5.411616e-03		-8.127185e-02
4.107821e-01		-1.270765e-15		-8.129506e-02
4.120702e-01		-5.411616e-03		-8.127185e-02
4.161305e-01		-1.106697e-02		-8.015807e-02
4.346867e-01		-1.229128e-02		7.178798e-02
4.320305e-01		-9.066762e-03		7.249577e-02
4.302057e-01		-5.935035e-03		7.261116e-02
4.291404e-01		-2.924133e-03		7.255448e-02
4.287843e-01		1.458479e-15		7.252270e-02
4.291404e-01		2.924133e-03		7.255448e-02
4.302057e-01		5.935035e-03		7.261116e-02
4.320305e-01		9.066762e-03		7.249577e-02
4.346867e-01		1.229128e-02		7.178798e-02
4.375422e-01		-9.226520e-03		5.230982e-02
4.332662e-01		-4.511068e-03		5.318536e-02
4.319827e-01		1.302810e-15		5.318244e-02
4.332662e-01		4.511068e-03		5.318536e-02
4.375422e-01		9.226520e-03		5.230982e-02
4.396031e-01		-6.176641e-03		3.419119e-02
4.370671e-01		-4.620182e-03		3.465252e-02
4.354463e-01		-3.052531e-03		3.482424e-02
4.345458e-01		-1.506222e-03		3.484421e-02
4.342688e-01		1.010391e-15		3.483977e-02
4.345458e-01		1.506222e-03		3.484421e-02
4.354463e-01		3.052531e-03		3.482424e-02
4.370671e-01		4.620182e-03		3.465252e-02
4.396031e-01		6.176641e-03		3.419119e-02
4.409363e-01		-3.107510e-03		1.686724e-02
4.368110e-01		-1.546153e-03		1.720004e-02
4.357042e-01		6.586203e-16		1.720752e-02
4.368110e-01		1.546153e-03		1.720004e-02
4.409363e-01		3.107510e-03		1.686724e-02
4.413923e-01		2.396531e-16		5.522747e-16
4.388342e-01		2.305790e-16		5.865484e-16
4.372571e-01		2.877688e-16		7.009815e-16
4.364193e-01		3.089797e-16		8.552955e-16
4.361681e-01		3.789170e-16		8.628470e-16
4.364193e-01		4.176792e-16		9.849261e-16
4.372571e-01		4.513075e-16		1.078831e-15
4.388342e-01		4.828857e-16		1.142603e-15
4.413923e-01		4.579001e-16		1.345484e-15
4.409363e-01		3.107510e-03		-1.686724e-02
4.368110e-01		1.546153e-03		-1.720004e-02
4.357042e-01		1.804557e-17		-1.720752e-02
4.368110e-01		-1.546153e-03		-1.720004e-02
4.409363e-01		-3.107510e-03		-1.686724e-02
4.396031e-01		6.176641e-03		-3.419119e-02
4.370671e-01		4.620182e-03		-3.465252e-02
4.354463e-01		3.052531e-03		-3.482424e-02
4.345458e-01		1.506222e-03		-3.484421e-02
4.342688e-01		-3.806140e-16		-3.483977e-02
4.345458e-01		-1.506222e-03		-3.484421e-02
4.354463e-01		-3.052531e-03		-3.482424e-02
4.370671e-01		-4.620182e-03		-3.465252e-02
4.396031e-01		-6.176641e-03		-3.419119e-02
4.375422e-01		9.226520e-03		-5.230982e-02
4.332662e-01		4.511068e-03		-5.318536e-02
4.319827e-01		-7.163555e-16		-5.318244e-02
4.332662e-01		-4.511068e-03		-5.318536e-02
4.375422e-01		-9.226520e-03		-5.230982e-02
4.346867e-01		1.229128e-02		-7.178798e-02
4.320305e-01		9.066762e-03		-7.249577e-02
4.302057e-01		5.935035e-03		-7.261116e-02
4.291404e-01		2.924133e-03		-7.255448e-02
4.287843e-01		-1.098025e-15		-7.252270e-02
4.291404e-01		-2.924133e-03		-7.255448e-02
4.302057e-01		-5.935035e-03		-7.261116e-02
4.320305e-01		-9.066762e-03		-7.249577e-02
4.346867e-01		-1.229128e-02		-7.178798e-02
4.512013e-01		-1.316013e-02		6.250830e-02
4.464187e-01		-6.218987e-03		6.282701e-02
4.449133e-01		1.306206e-15		6.261440e-02
4.464187e-01		6.218987e-03		6.282701e-02
4.512013e-01		1.316013e-02		6.250830e-02
4.566848e-01		-6.647615e-03		2.952454e-02
4.523763e-01		-3.218800e-03		2.979702e-02
4.512250e-01		8.638614e-16		2.967856e-02
4.523763e-01		3.218800e-03		2.979702e-02
4.566848e-01		6.647615e-03		2.952454e-02
4.587696e-01		1.632070e-16		5.980742e-16
4.544828e-01		1.742944e-16		6.491706e-16
4.534486e-01		2.713082e-16		8.412532e-16
4.544828e-01		3.715181e-16		9.178379e-16
4.587696e-01		4.142598e-16		9.577537e-16
4.566848e-01		6.647615e-03		-2.952454e-02
4.523763e-01		3.218800e-03		-2.979702e-02
4.512250e-01		-3.820333e-16		-2.967856e-02
4.523763e-01		-3.218800e-03		-2.979702e-02
4.566848e-01		-6.647615e-03		-2.952454e-02
4.512013e-01		1.316013e-02		-6.250830e-02
4.464187e-01		6.218987e-03		-6.282701e-02
4.449133e-01		-1.079464e-15		-6.261440e-02
4.464187e-01		-6.218987e-03		-6.282701e-02
4.512013e-01		-1.316013e-02		-6.250830e-02
4.654304e-01		-1.356567e-02		5.249696e-02
4.624872e-01		-9.888116e-03		5.244180e-02
4.604793e-01		-6.093691e-03		5.202683e-02
4.593321e-01		-2.947387e-03		5.190226e-02
4.589735e-01		1.066666e-15		5.182539e-02
4.593321e-01		2.947387e-03		5.190226e-02
4.604793e-01		6.093691e-03		5.202683e-02
4.624872e-01		9.888116e-03		5.244180e-02
4.654304e-01		1.356567e-02		5.249696e-02
4.687053e-01		-1.026418e-02		3.792485e-02
4.642306e-01		-4.625748e-03		3.756391e-02
4.629595e-01		8.556336e-16		3.731745e-02
4.642306e-01		4.625748e-03		3.756391e-02
4.687053e-01		1.026418e-02		3.792485e-02
4.714231e-01		-6.957186e-03		2.433786e-02
4.687931e-01		-5.133796e-03		2.436265e-02
4.672271e-01		-3.163262e-03		2.403130e-02
4.664211e-01		-1.520458e-03		2.388826e-02
4.661801e-01		7.422702e-16		2.382501e-02
4.664211e-01		1.520458e-03		2.388826e-02
4.672271e-01		3.163262e-03		2.403130e-02
4.687931e-01		5.133796e-03		2.436265e-02
4.714231e-01		6.957186e-03		2.433786e-02
4.730813e-01		-3.561912e-03		1.195000e-02
4.689004e-01		-1.616640e-03		1.178547e-02
4.679790e-01		4.895094e-16		1.166162e-02
4.689004e-01		1.616640e-03		1.178547e-02
4.730813e-01		3.561912e-03		1.195000e-02
4.736698e-01		1.188263e-16		5.145943e-16
4.709074e-01		1.595467e-16		6.036245e-16
4.694479e-01		1.221603e-16		6.901386e-16
4.687466e-01		1.334560e-16		6.601760e-16
4.685391e-01		1.637702e-16		7.803951e-16
4.687466e-01		2.264857e-16		7.272790e-16
4.694479e-01		3.520443e-16		7.362602e-16
4.709074e-01		4.315335e-16		7.849138e-16
4.736698e-01		5.061382e-16		7.287275e-16
4.730813e-01		3.561912e-03		-1.195000e-02
4.689004e-01		1.616640e-03		-1.178547e-02
4.679790e-01		-1.046684e-16		-1.166162e-02
4.689004e-01		-1.616640e-03		-1.178547e-02
4.730813e-01		-3.561912e-03		-1.195000e-02
4.714231e-01		6.957186e-03		-2.433786e-02
4.687931e-01		5.133796e-03		-2.436265e-02
4.672271e-01		3.163262e-03		-2.403130e-02
4.664211e-01		1.520458e-03		-2.388826e-02
4.661801e-01		-3.685050e-16		-2.382501e-02
4.664211e-01		-1.520458e-03		-2.388826e-02
4.672271e-01		-3.163262e-03		-2.403130e-02
4.687931e-01		-5.133796e-03		-2.436265e-02
4.714231e-01		-6.957186e-03		-2.433786e-02
4.687053e-01		1.026418e-02		-3.792485e-02
4.642306e-01		4.625748e-03		-3.756391e-02
4.629595e-01		-5.610372e-16		-3.731745e-02
4.642306e-01		-4.625748e-03		-3.756391e-02
4.687053e-01		-1.026418e-02		-3.792485e-02
4.654304e-01		1.356567e-02		-5.249696e-02
4.624872e-01		9.888116e-03		-5.244180e-02
4.604793e-01		6.093691e-03		-5.202683e-02
4.593321e-01		2.947387e-03		-5.190226e-02
4.589735e-01		-9.094312e-16		-5.182539e-02
4.593321e-01		-2.947387e-03		-5.190226e-02
4.604793e-01		-6.093691e-03		-5.202683e-02
4.624872e-01		-9.888116e-03		-5.244180e-02
4.654304e-01		-1.356567e-02		-5.249696e-02
4.769890e-01		-1.340673e-02		4.214988e-02
4.720831e-01		-5.564202e-03		4.074766e-02
4.707122e-01		9.410025e-16		4.054067e-02
4.720831e-01		5.564202e-03		4.074766e-02
4.769890e-01		1.340673e-02		4.214988e-02
4.834533e-01		-7.058226e-03		1.907918e-02
4.796624e-01		-2.901301e-03		1.794947e-02
4.787744e-01		5.534769e-16		1.760972e-02
4.796624e-01		2.901301e-03		1.794947e-02
4.834533e-01		7.058226e-03		1.907918e-02
4.857163e-01		-2.877649e-17		3.157185e-16
4.818693e-01		8.939572e-17		5.437789e-16
4.811303e-01		6.828847e-17		6.238365e-16
4.818693e-01		3.168001e-16		5.134406e-16
4.857163e-01		5.674234e-16		5.852623e-16
4.834533e-01		7.058226e-03		-1.907918e-02
4.796624e-01		2.901301e-03		-1.794947e-02
4.787744e-01		-2.823489e-16		-1.760972e-02
4.796624e-01		-2.901301e-03		-1.794947e-02
4.834533e-01		-7.058226e-03		-1.907918e-02
4.769890e-01		1.340673e-02		-4.214988e-02
4.720831e-01		5.564202e-03		-4.074766e-02
4.707122e-01		-7.762674e-16		-4.054067e-02
4.720831e-01		-5.564202e-03		-4.074766e-02
4.769890e-01		-1.340673e-02		-4.214988e-02
4.861900e-01		-1.176176e-02		3.043504e-02
4.836188e-01		-7.306919e-03		2.843941e-02
4.820205e-01		-4.432541e-03		2.846257e-02
4.812694e-01		-1.925000e-03		2.825904e-02
4.810365e-01		7.426419e-16		2.826950e-02
4.812694e-01		1.925000e-03		2.825904e-02
4.820205e-01		4.432541e-03		2.846257e-02
4.836188e-01		7.306919e-03		2.843941e-02
4.861900e-01		1.176176e-02		3.043504e-02
4.904465e-01		-9.005271e-03		2.109239e-02
4.871264e-01		-3.342467e-03		1.856472e-02
4.863188e-01		5.329683e-16		1.811611e-02
4.871264e-01		3.342467e-03		1.856472e-02
4.904465e-01		9.005271e-03		2.109239e-02
4.925379e-01		-6.313274e-03		1.341626e-02
4.904068e-01		-3.886514e-03		1.201501e-02
4.894691e-01		-2.299480e-03		1.167507e-02
4.889335e-01		-9.737628e-04		1.137150e-02
4.887650e-01		3.909899e-16		1.131832e-02
4.889335e-01		9.737628e-04		1.137150e-02
4.894691e-01		2.299480e-03		1.167507e-02
4.904068e-01		3.886514e-03		1.201501e-02
4.925379e-01		6.313274e-03		1.341626e-02
4.940379e-01		-3.225746e-03		6.368744e-03
4.909706e-01		-1.173291e-03		5.456279e-03
4.903743e-01		1.819022e-16		5.258059e-03
4.909706e-01		1.173291e-03		5.456279e-03
4.940379e-01		3.225746e-03		6.368744e-03
4.945565e-01		2.289307e-17		1.631278e-16
4.922831e-01		8.287014e-17		2.856901e-16
4.914438e-01		5.703834e-17		2.612347e-16
4.909920e-01		3.119699e-17		3.165408e-16
4.908653e-01		5.077793e-17		3.869482e-16
4.909920e-01		6.878320e-17		3.410796e-16
4.914438e-01		2.154371e-16		3.826484e-16
4.922831e-01		4.092675e-16		4.239340e-16
4.945565e-01		5.498654e-16		5.290768e-16
4.940379e-01		3.225746e-03		-6.368744e-03
4.909706e-01		1.173291e-03		-5.456279e-03
4.903743e-01		-5.017381e-17		-5.258059e-03
4.909706e-01		-1.173291e-03		-5.456279e-03
4.940379e-01		-3.225746e-03		-6.368744e-03
4.925379e-01		6.313274e-03		-1.341626e-02
4.904068e-01		3.886514e-03		-1.201501e-02
4.894691e-01		2.299480e-03		-1.167507e-02
4.889335e-01		9.737628e-04		-1.137150e-02
4.887650e-01		-2.753160e-16		-1.131832e-02
4.889335e-01		-9.737628e-04		-1.137150e-02
4.894691e-01		-2.299480e-03		-1.167507e-02
4.904068e-01		-3.886514e-03		-1.201501e-02
4.925379e-01		-6.313274e-03		-1.341626e-02
4.904465e-01		9.005271e-03		-2.109239e-02
4.871264e-01		3.342467e-03		-1.856472e-02
4.863188e-01		-3.049567e-16		-1.811611e-02
4.871264e-01		-3.342467e-03		-1.856472e-02
4.904465e-01		-9.005271e-03		-2.109239e-02
4.861900e-01		1.176176e-02		-3.043504e-02
4.836188e-01		7.306919e-03		-2.843941e-02
4.820205e-01		4.432541e-03		-2.846257e-02
4.812694e-01		1.925000e-03		-2.825904e-02
4.810365e-01		-5.060049e-16		-2.826950e-02
4.812694e-01		-1.925000e-03		-2.825904e-02
4.820205e-01		-4.432541e-03		-2.846257e-02
4.836188e-01		-7.306919e-03		-2.843941e-02
4.861900e-01		-1.176176e-02		-3.043504e-02
4.932113e-01		-7.941817e-03		1.613756e-02
4.911370e-01		-2.119759e-03		1.403871e-02
4.906355e-01		4.075982e-16		1.453489e-02
4.911370e-01		2.119759e-03		1.403871e-02
4.932113e-01		7.941817e-03		1.613756e-02
4.986926e-01		-4.035971e-03		6.630638e-03
4.967573e-01		-1.071257e-03		4.903464e-03
4.965173e-01		1.598172e-16		4.980789e-03
4.967573e-01		1.071257e-03		4.903464e-03
4.986926e-01		4.035971e-03		6.630638e-03
4.992600e-01		-2.553126e-17		4.995252e-17
4.973013e-01		2.595721e-18		5.217151e-17
4.970558e-01		-2.946458e-17		2.045320e-16
4.973013e-01		8.624569e-17		1.812359e-16
4.992600e-01		2.757759e-16		2.962857e-16
4.986926e-01		4.035971e-03		-6.630638e-03
4.967573e-01		1.071257e-03		-4.903464e-03
4.965173e-01		-1.334671e-16		-4.980789e-03
4.967573e-01		-1.071257e-03		-4.903464e-03
4.986926e-01		-4.035971e-03		-6.630638e-03
4.932113e-01		7.941817e-03		-1.613756e-02
4.911370e-01		2.119759e-03		-1.403871e-02
4.906355e-01		-3.204634e-16		-1.453489e-02
4.911370e-01		-2.119759e-03		-1.403871e-02
4.932113e-01		-7.941817e-03		-1.613756e-02
5.000000e-01		0.000000e+00		0.000000e+00
5.000000e-01		0.000000e+00		0.000000e+00
5.000000e-01		0.000000e+00		0.000000e+00
5.000000e-01		0.000000e+00		0.000000e+00
5.000000e-01		0.000000e+00		0.000000e+00
5.000000e-01		0.000000e+00		0.000000e+00
5.000000e-01		0.000000e+00		0.000000e+00
5.000000e-01		0.000000e+00		0.000000e+00
5.000000e-01		0.000000e+00		0.000000e+00
5.000000e-01		0.000000e+00		0.000000e+00
5.000000e-01		0.000000e+00		0.000000e+00
5.000000e-01		0.000000e+00		0.000000e+00
5.000000e-01		0.000000e+00		0.000000e+00
5.000000e-01		0.000000e+00		0.000000e+00
5.000000e-01		0.000000e+00		0.000000e+00
5.000000e-01		0.000000e+00		0.000000e+00
5.000000e-01		0.000000e+00		0.000000e+00
5.000000e-01		0.000000e+00		0.000000e+00
5.000000e-01		0.000000e+00		0.000000e+00
5.000000e-01		0.000000e+00		0.000000e+00
5.000000e-01		0.000000e+00		0.000000e+00
5.000000e-01		0.000000e+00		0.000000e+00
5.000000e-01		0.000000e+00		0.000000e+00
5.000000e-01		0.000000e+00		0.000000e+00
5.000000e-01		0.000000e+00		0.000000e+00
5.000000e-01		0.000000e+00		0.000000e+00
5.000000e-01		0.000000e+00		0.000000e+00
5.000000e-01		0.000000e+00		0.000000e+00
5.000000e-01		0.000000e+00		0.000000e+00
5.000000e-01		0.000000e+00		0.000000e+00
5.000000e-01		0.000000e+00		0.000000e+00
5.000000e-01		0.000000e+00		0.000000e+00
5.000000e-01		0.000000e+00		0.000000e+00
5.000000e-01		0.000000e+00		0.000000e+00
5.000000e-01		0.000000e+00		0.000000e+00
5.000000e-01		0.000000e+00		0.000000e+00
5.000000e-01		0.000000e+00		0.000000e+00
5.000000e-01		0.000000e+00		0.000000e+00
5.000000e-01		0.000000e+00		0.000000e+00
5.000000e-01		0.000000e+00		0.000000e+00
5.000000e-01		0.000000e+00		0.000000e+00
5.000000e-01		0.000000e+00		0.000000e+00
5.000000e-01		0.000000e+00		0.000000e+00
5.000000e-01		0.000000e+00		0.000000e+00
5.000000e-01		0.000000e+00		0.000000e+00
5.000000e-01		0.000000e+00		0.000000e+00
5.000000e-01		0.000000e+00		0.000000e+00
5.000000e-01		0.000000e+00		0.000000e+00
5.000000e-01		0.000000e+00		0.000000e+00
5.000000e-01		0.000000e+00		0.000000e+00
5.000000e-01		0.000000e+00		0.000000e+00
5.000000e-01		0.000000e+00		0.000000e+00
5.000000e-01		0.000000e+00		0.000000e+00
5.000000e-01		0.000000e+00		0.000000e+00
5.000000e-01		0.000000e+00		0.000000e+00
5.000000e-01		0.000000e+00		0.000000e+00
5.000000e-01		0.000000e+00		0.000000e+00
5.000000e-01		0.000000e+00		0.000000e+00
5.000000e-01		0.000000e+00		0.000000e+00
5.000000e-01		0.000000e+00		0.000000e+00
5.000000e-01		0.000000e+00		0.000000e+00
5.000000e-01		0.000000e+00		0.000000e+00
5.000000e-01		0.000000e+00		0.000000e+00
5.000000e-01		0.000000e+00		0.000000e+00
5.000000e-01		0.000000e+00		0.000000e+00
VECTORS force double
-3.778611e+07		-3.308515e+07		1.211239e+07
-1.799739e+08		-6.387590e+07		-5.247175e+08
-6.737997e+07		1.095432e+07		8.202554e+07
-2.017050e+08		-3.266005e+07		-5.697097e+08
-6.747586e+07		1.598150e-06		8.431886e+07
-2.017050e+08		3.266005e+07		-5.697097e+08
-6.737997e+07		-1.095432e+07		8.202554e+07
-1.799739e+08		6.387590e+07		-5.247175e+08
-3.778611e+07		3.308515e+07		1.211239e+07
1.941202e+06		-1.810897e+08		-4.678578e+08
-5.773652e+07		-1.057093e+08		-7.267565e+08
-7.238231e+07		-7.405877e-06		-7.359466e+08
-5.773652e+07		1.057093e+08		-7.267565e+08
1.941202e+06		1.810897e+08		-4.678578e+08
1.000739e+07		-1.797908e+07		7.909712e+07
-5.116961e+07		-7.426742e+07		-4.706006e+08
1.078847e+07		2.277699e+07		2.382397e+08
-1.034122e+08		-3.747146e+07		-4.914257e+08
2.330846e+07		2.484812e-06		2.473873e+08
-1.034122e+08		3.747146e+07		-4.914257e+08
1.078847e+07		-2.277699e+07		2.382397e+08
-5.116961e+07		7.426742e+07		-4.706006e+08
1.000739e+07		1.797908e+07		7.909712e+07
7.613523e+06		-5.735728e+07		-1.580305e+08
-6.062965e+07		-3.327049e+07		-2.428118e+08
-8.579172e+07		-3.067716e-06		-2.441246e+08
-6.062965e+07		3.327049e+07		-2.428118e+08
7.613523e+06		5.735728e+07		-1.580305e+08
1.770182e+07		-6.705523e-07		1.847744e-06
-1.360173e+07		-1.892447e-06		-1.205876e-05
2.699385e+07		7.264316e-07		5.044043e-06
-7.368873e+07		-1.713634e-06		-8.743256e-06
4.591588e+07		5.401671e-07		3.680587e-06
-7.368873e+07		-4.768372e-07		-5.874783e-06
2.699385e+07		6.705523e-08		2.563000e-06
-1.360173e+07		4.395843e-07		-3.591180e-06
1.770182e+07		4.458707e-08		7.301569e-07
7.613523e+06		5.735728e+07		1.580305e+08
-6.062965e+07		3.327049e+07		2.428118e+08
-8.579172e+07		1.087785e-06		2.441246e+08
-6.062965e+07		-3.327049e+07		2.428118e+08
7.613523e+06		-5.735728e+07		1.580305e+08
1.000739e+07		1.797908e+07		-7.909712e+07
-5.116961e+07		7.426742e+07		4.706006e+08
1.078847e+07		-2.277699e+07		-2.382397e+08
-1.034122e+08		3.747146e+07		4.914257e+08
2.330846e+07		-1.534820e-06		-2.473873e+08
-1.034122e+08		-3.747146e+07		4.914257e+08
1.078847e+07		2.277699e+07		-2.382397e+08
-5.116961e+07		-7.426742e+07		4.706006e+08
1.000739e+07		-1.797908e+07		-7.909712e+07
1.941202e+06		1.810897e+08		4.678578e+08
-5.773652e+07		1.057093e+08		7.267565e+08
-7.238231e+07		6.109476e-06		7.359466e+08
-5.773652e+07		-1.057093e+08		7.267565e+08
1.941202e+06		-1.810897e+08		4.678578e+08
-3.778611e+07		3.308515e+07		-1.211239e+07
-1.799739e+08		6.387590e+07		5.247175e+08
-6.737997e+07		-1.095432e+07		-8.202554e+07
-2.017050e+08		3.266005e+07		5.697097e+08
-6.747586e+07		-9.164214e-07		-8.431886e+07
-2.017050e+08		-3.266005e+07		5.697097e+08
-6.737997e+07		1.095432e+07		-8.202554e+07
-1.799739e+08		-6.387590e+07		5.247175e+08
-3.778611e+07		-3.308515e+07		-1.211239e+07
0.000000e+00		0.000000e+00		0.000000e+00
0.000000e+00		0.000000e+00		0.000000e+00
0.000000e+00		0.000000e+00		0.000000e+00
0.000000e+00		0.000000e+00		0.000000e+00
0.000000e+00		0.000000e+00		0.000000e+00
0.000000e+00		0.000000e+00		0.000000e+00
0.000000e+00		0.000000e+00		0.000000e+00
0.000000e+00		0.000000e+00		0.000000e+00
0.000000e+00		0.000000e+00		0.000000e+00
0.000000e+00		0.000000e+00		0.000000e+00
0.000000e+00		0.000000e+00		0.000000e+00
0.000000e+00		0.000000e+00		0.000000e+00
0.000000e+00		0.000000e+00		0.000000e+00
0.000000e+00		0.000000e+00		0.000000e+00
0.000000e+00		0.000000e+00		0.000000e+00
0.000000e+00		0.000000e+00		0.000000e+00
0.000000e+00		0.000000e+00		0.000000e+00
0.000000e+00		0.000000e+00		0.000000e+00
0.000000e+00		0.000000e+00		0.000000e+00
0.000000e+00		0.000000e+00		0.000000e+00
0.000000e+00		0.000000e+00		0.000000e+00
0.000000e+00		0.000000e+00		0.000000e+00
0.000000e+00		0.000000e+00		0.000000e+00
0.000000e+00		0.000000e+00		0.000000e+00
0.000000e+00		0.000000e+00		0.000000e+00
0.000000e+00		0.000000e+00		0.000000e+00
0.000000e+00		0.000000e+00		0.000000e+00
0.000000e+00		0.000000e+00		0.000000e+00
0.000000e+00		0.000000e+00		0.000000e+00
0.000000e+00		0.000000e+00		0.000000e+00
0.000000e+00		0.000000e+00		0.000000e+00
0.000000e+00		0.000000e+00		0.000000e+00
0.000000e+00		0.000000e+00		0.000000e+00
0.000000e+00		0.000000e+00		0.000000e+00
0.000000e+00		0.000000e+00		0.000000e+00
0.000000e+00		0.000000e+00		0.000000e+00
0.000000e+00		0.000000e+00		0.000000e+00
0.000000e+00		0.000000e+00		0.000000e+00
0.000000e+00		0.000000e+00		0.000000e+00
0.000000e+00		0.000000e+00		0.000000e+00
0.000000e+00		0.000000e+00		0.000000e+00
0.000000e+00		0.000000e+00		0.000000e+00
0.000000e+00		0.000000e+00		0.000000e+00
0.000000e+00		0.000000e+00		0.000000e+00
0.000000e+00		0.000000e+00		0.000000e+00
0.000000e+00		0.000000e+00		0.000000e+00
0.000000e+00		0.000000e+00		0.000000e+00
0.000000e+00		0.000000e+00		0.000000e+00
0.000000e+00		0.000000e+00		0.000000e+00
0.000000e+00		0.000000e+00		0.000000e+00
0.000000e+00		0.000000e+00		0.000000e+00
0.000000e+00		0.000000e+00		0.000000e+00
0.000000e+00		0.000000e+00		0.000000e+00
0.000000e+00		0.000000e+00		0.000000e+00
0.000000e+00		0.000000e+00		0.000000e+00
0.000000e+00		0.000000e+00		0.000000e+00
0.000000e+00		0.000000e+00		0.000000e+00
0.000000e+00		0.000000e+00		0.000000e+00
0.000000e+00		0.000000e+00		0.000000e+00
0.000000e+00		0.000000e+00		0.000000e+00
0.000000e+00		0.000000e+00		0.000000e+00
0.000000e+00		0.000000e+00		0.000000e+00
0.000000e+00		0.000000e+00		0.000000e+00
0.000000e+00		0.000000e+00		0.000000e+00
0.000000e+00		0.000000e+00		0.000000e+00
0.000000e+00		0.000000e+00		0.000000e+00
0.000000e+00		0.000000e+00		0.000000e+00
0.000000e+00		0.000000e+00		0.000000e+00
0.000000e+00		0.000000e+00		0.000000e+00
0.000000e+00		0.000000e+00		0.000000e+00
0.000000e+00		0.000000e+00		0.000000e+00
0.000000e+00		0.000000e+00		0.000000e+00
0.000000e+00		0.000000e+00		0.000000e+00
0.000000e+00		0.000000e+00		0.000000e+00
0.000000e+00		0.000000e+00		0.000000e+00
0.000000e+00		0.000000e+00		0.000000e+00
0.000000e+00		0.000000e+00		0.000000e+00
0.000000e+00		0.000000e+00		0.000000e+00
0.000000e+00		0.000000e+00		0.000000e+00
0.000000e+00		0.000000e+00		0.000000e+00
0.000000e+00		0.000000e+00		0.000000e+00
0.000000e+00		0.000000e+00		0.000000e+00
0.000000e+00		0.000000e+00		0.000000e+00
0.000000e+00		0.000000e+00		0.000000e+00
0.000000e+00		0.000000e+00		0.000000e+00
0.000000e+00		0.000000e+00		0.000000e+00
0.000000e+00		0.000000e+00		0.000000e+00
0.000000e+00		0.000000e+00		0.000000e+00
0.000000e+00		0.000000e+00		0.000000e+00
0.000000e+00		0.000000e+00		0.000000e+00
0.000000e+00		0.000000e+00		0.000000e+00
0.000000e+00		0.000000e+00		0.000000e+00
0.000000e+00		0.000000e+00		0.000000e+00
0.000000e+00		0.000000e+00		0.000000e+00
0.000000e+00		0.000000e+00		0.000000e+00
0.000000e+00		0.000000e+00		0.000000e+00
0.000000e+00		0.000000e+00		0.000000e+00
0.000000e+00		0.000000e+00		0.000000e+00
0.000000e+00		0.000000e+00		0.000000e+00
0.000000e+00		0.000000e+00		0.000000e+00
0.000000e+00		0.000000e+00		0.000000e+00
0.000000e+00		0.000000e+00		0.000000e+00
0.000000e+00		0.000000e+00		0.000000e+00
0.000000e+00		0.000000e+00		0.000000e+00
0.000000e+00		0.000000e+00		0.000000e+00
0.000000e+00		0.000000e+00		0.000000e+00
0.000000e+00		0.000000e+00		0.000000e+00
0.000000e+00		0.000000e+00		0.000000e+00
0.000000e+00		0.000000e+00		0.000000e+00
0.000000e+00		0.000000e+00		0.000000e+00
0.000000e+00		0.000000e+00		0.000000e+00
0.000000e+00		0.000000e+00		0.000000e+00
0.000000e+00		0.000000e+00		0.000000e+00
0.000000e+00		0.000000e+00		0.000000e+00
0.000000e+00		0.000000e+00		0.000000e+00
0.000000e+00		0.000000e+00		0.000000e+00
0.000000e+00		0.000000e+00		0.000000e+00
0.000000e+00		0.000000e+00		0.000000e+00
0.000000e+00		0.000000e+00		0.000000e+00
0.000000e+00		0.000000e+00		0.000000e+00
0.000000e+00		0.000000e+00		0.000000e+00
0.000000e+00		0.000000e+00		0.000000e+00
0.000000e+00		0.000000e+00		0.000000e+00
0.000000e+00		0.000000e+00		0.000000e+00
0.000000e+00		0.000000e+00		0.000000e+00
0.000000e+00		0.000000e+00		0.000000e+00
0.000000e+00		0.000000e+00		0.000000e+00
0.000000e+00		0.000000e+00		0.000000e+00
0.000000e+00		0.000000e+00		0.000000e+00
0.000000e+00		0.000000e+00		0.000000e+00
0.000000e+00		0.000000e+00		0.000000e+00
0.000000e+00		0.000000e+00		0.000000e+00
0.000000e+00		0.000000e+00		0.000000e+00
0.000000e+00		0.000000e+00		0.000000e+00
0.000000e+00		0.000000e+00		0.000000e+00
0.000000e+00		0.000000e+00		0.000000e+00
0.000000e+00		0.000000e+00		0.000000e+00
0.000000e+00		0.000000e+00		0.000000e+00
0.000000e+00		0.000000e+00		0.000000e+00
0.000000e+00		0.000000e+00		0.000000e+00
0.000000e+00		0.000000e+00		0.000000e+00
0.000000e+00		0.000000e+00		0.000000e+00
0.000000e+00		0.000000e+00		0.000000e+00
0.000000e+00		0.000000e+00		0.000000e+00
0.000000e+00		0.000000e+00		0.000000e+00
0.000000e+00		0.000000e+00		0.000000e+00
0.000000e+00		0.000000e+00		0.000000e+00
0.000000e+00		0.000000e+00		0.000000e+00
0.000000e+00		0.000000e+00		0.000000e+00
0.000000e+00		0.000000e+00		0.000000e+00
0.000000e+00		0.000000e+00		0.000000e+00
0.000000e+00		0.000000e+00		0.000000e+00
0.000000e+00		0.000000e+00		0.000000e+00
0.000000e+00		0.000000e+00		0.000000e+00
0.000000e+00		0.000000e+00		0.000000e+00
0.000000e+00		0.000000e+00		0.000000e+00
0.000000e+00		0.000000e+00		0.000000e+00
0.000000e+00		0.000000e+00		0.000000e+00
0.000000e+00		0.000000e+00		0.000000e+00
0.000000e+00		0.000000e+00		0.000000e+00
0.000000e+00		0.000000e+00		0.000000e+00
0.000000e+00		0.000000e+00		0.000000e+00
0.000000e+00		0.000000e+00		0.000000e+00
0.000000e+00		0.000000e+00		0.000000e+00
0.000000e+00		0.000000e+00		0.000000e+00
0.000000e+00		0.000000e+00		0.000000e+00
0.000000e+00		0.000000e+00		0.000000e+00
0.000000e+00		0.000000e+00		0.000000e+00
0.000000e+00		0.000000e+00		0.000000e+00
0.000000e+00		0.000000e+00		0.000000e+00
0.000000e+00		0.000000e+00		0.000000e+00
0.000000e+00		0.000000e+00		0.000000e+00
0.000000e+00		0.000000e+00		0.000000e+00
0.000000e+00		0.000000e+00		0.000000e+00
0.000000e+00		0.000000e+00		0.000000e+00
0.000000e+00		0.000000e+00		0.000000e+00
0.000000e+00		0.000000e+00		0.000000e+00
0.000000e+00		0.000000e+00		0.000000e+00
0.000000e+00		0.000000e+00		0.000000e+00
0.000000e+00		0.000000e+00		0.000000e+00
0.000000e+00		0.000000e+00		0.000000e+00
0.000000e+00		0.000000e+00		0.000000e+00
0.000000e+00		0.000000e+00		0.000000e+00
0.000000e+00		0.000000e+00		0.000000e+00
0.000000e+00		0.000000e+00		0.000000e+00
0.000000e+00		0.000000e+00		0.000000e+00
0.000000e+00		0.000000e+00		0.000000e+00
0.000000e+00		0.000000e+00		0.000000e+00
0.000000e+00		0.000000e+00		0.000000e+00
0.000000e+00		0.000000e+00		0.000000e+00
0.000000e+00		0.000000e+00		0.000000e+00
0.000000e+00		0.000000e+00		0.000000e+00
0.000000e+00		0.000000e+00		0.000000e+00
0.000000e+00		0.000000e+00		0.000000e+00
0.000000e+00		0.000000e+00		0.000000e+00
0.000000e+00		0.000000e+00		0.000000e+00
0.000000e+00		0.000000e+00		0.000000e+00
0.000000e+00		0.000000e+00		0.000000e+00
0.000000e+00		0.000000e+00		0.000000e+00
0.000000e+00		0.000000e+00		0.000000e+00
0.000000e+00		0.000000e+00		0.000000e+00
0.000000e+00		0.000000e+00		0.000000e+00
0.000000e+00		0.000000e+00		0.000000e+00
0.000000e+00		0.000000e+00		0.000000e+00
0.000000e+00		0.000000e+00		0.000000e+00
0.000000e+00		0.000000e+00		0.000000e+00
0.000000e+00		0.000000e+00		0.000000e+00
0.000000e+00		0.000000e+00		0.000000e+00
0.000000e+00		0.000000e+00		0.000000e+00
0.000000e+00		0.000000e+00		0.000000e+00
0.000000e+00		0.000000e+00		0.000000e+00
0.000000e+00		0.000000e+00		0.000000e+00
0.000000e+00		0.000000e+00		0.000000e+00
0.000000e+00		0.000000e+00		0.000000e+00
0.000000e+00		0.000000e+00		0.000000e+00
0.000000e+00		0.000000e+00		0.000000e+00
0.000000e+00		0.000000e+00		0.000000e+00
0.000000e+00		0.000000e+00		0.000000e+00
0.000000e+00		0.000000e+00		0.000000e+00
0.000000e+00		0.000000e+00		0.000000e+00
0.000000e+00		0.000000e+00		0.000000e+00
0.000000e+00		0.000000e+00		0.000000e+00
0.000000e+00		0.000000e+00		0.000000e+00
0.000000e+00		0.000000e+00		0.000000e+00
0.000000e+00		0.000000e+00		0.000000e+00
0.000000e+00		0.000000e+00		0.000000e+00
0.000000e+00		0.000000e+00		0.000000e+00
0.000000e+00		0.000000e+00		0.000000e+00
0.000000e+00		0.000000e+00		0.000000e+00
0.000000e+00		0.000000e+00		0.000000e+00
0.000000e+00		0.000000e+00		0.000000e+00
0.000000e+00		0.000000e+00		0.000000e+00
0.000000e+00		0.000000e+00		0.000000e+00
0.000000e+00		0.000000e+00		0.000000e+00
0.000000e+00		0.000000e+00		0.000000e+00
0.000000e+00		0.000000e+00		0.000000e+00
0.000000e+00		0.000000e+00		0.000000e+00
0.000000e+00		0.000000e+00		0.000000e+00
0.000000e+00		0.000000e+00		0.000000e+00
0.000000e+00		0.000000e+00		0.000000e+00
0.000000e+00		0.000000e+00		0.000000e+00
0.000000e+00		0.000000e+00		0.000000e+00
0.000000e+00		0.000000e+00		0.000000e+00
0.000000e+00		0.000000e+00		0.000000e+00
0.000000e+00		0.000000e+00		0.000000e+00
0.000000e+00		0.000000e+00		0.000000e+00
0.000000e+00		0.000000e+00		0.000000e+00
0.000000e+00		0.000000e+00		0.000000e+00
0.000000e+00		0.000000e+00		0.000000e+00
0.000000e+00		0.000000e+00		0.000000e+00
0.000000e+00		0.000000e+00		0.000000e+00
0.000000e+00		0.000000e+00		0.000000e+00
0.000000e+00		0.000000e+00		0.000000e+00
0.000000e+00		0.000000e+00		0.000000e+00
0.000000e+00		0.000000e+00		0.000000e+00
0.000000e+00		0.000000e+00		0.000000e+00
0.000000e+00		0.000000e+00		0.000000e+00
0.000000e+00		0.000000e+00		0.000000e+00
0.000000e+00		0.000000e+00		0.000000e+00
0.000000e+00		0.000000e+00		0.000000e+00
0.000000e+00		0.000000e+00		0.000000e+00
0.000000e+00		0.000000e+00		0.000000e+00
0.000000e+00		0.000000e+00		0.000000e+00
0.000000e+00		0.000000e+00		0.000000e+00
0.000000e+00		0.000000e+00		0.000000e+00
0.000000e+00		0.000000e+00		0.000000e+00
0.000000e+00		0.000000e+00		0.000000e+00
0.000000e+00		0.000000e+00		0.000000e+00
0.000000e+00		0.000000e+00		0.000000e+00
0.000000e+00		0.000000e+00		0.000000e+00
0.000000e+00		0.000000e+00		0.000000e+00
0.000000e+00		0.000000e+00		0.000000e+00
0.000000e+00		0.000000e+00		0.000000e+00
0.000000e+00		0.000000e+00		0.000000e+00
0.000000e+00		0.000000e+00		0.000000e+00
0.000000e+00		0.000000e+00		0.000000e+00
0.000000e+00		0.000000e+00		0.000000e+00
0.000000e+00		0.000000e+00		0.000000e+00
0.000000e+00		0.000000e+00		0.000000e+00
0.000000e+00		0.000000e+00		0.000000e+00
0.000000e+00		0.000000e+00		0.000000e+00
0.000000e+00		0.000000e+00		0.000000e+00
0.000000e+00		0.000000e+00		0.000000e+00
0.000000e+00		0.000000e+00		0.000000e+00
0.000000e+00		0.000000e+00		0.000000e+00
0.000000e+00		0.000000e+00		0.000000e+00
0.000000e+00		0.000000e+00		0.000000e+00
0.000000e+00		0.000000e+00		0.000000e+00
0.000000e+00		0.000000e+00		0.000000e+00
0.000000e+00		0.000000e+00		0.000000e+00
0.000000e+00		0.000000e+00		0.000000e+00
0.000000e+00		0.000000e+00		0.000000e+00
0.000000e+00		0.000000e+00		0.000000e+00
0.000000e+00		0.000000e+00		0.000000e+00
0.000000e+00		0.000000e+00		0.000000e+00
0.000000e+00		0.000000e+00		0.000000e+00
0.000000e+00		0.000000e+00		0.000000e+00
0.000000e+00		0.000000e+00		0.000000e+00
0.000000e+00		0.000000e+00		0.000000e+00
0.000000e+00		0.000000e+00		0.000000e+00
0.000000e+00		0.000000e+00		0.000000e+00
0.000000e+00		0.000000e+00		0.000000e+00
0.000000e+00		0.000000e+00		0.000000e+00
0.000000e+00		0.000000e+00		0.000000e+00
0.000000e+00		0.000000e+00		0.000000e+00
0.000000e+00		0.000000e+00		0.000000e+00
0.000000e+00		0.000000e+00		0.000000e+00
0.000000e+00		0.000000e+00		0.000000e+00
0.000000e+00		0.000000e+00		0.000000e+00
0.000000e+00		0.000000e+00		0.000000e+00
0.000000e+00		0.000000e+00		0.000000e+00
0.000000e+00		0.000000e+00		0.000000e+00
0.000000e+00		0.000000e+00		0.000000e+00
0.000000e+00		0.000000e+00		0.000000e+00
0.000000e+00		0.000000e+00		0.000000e+00
0.000000e+00		0.000000e+00		0.000000e+00
0.000000e+00		0.000000e+00		0.000000e+00
0.000000e+00		0.000000e+00		0.000000e+00
0.000000e+00		0.000000e+00		0.000000e+00
0.000000e+00		0.000000e+00		0.000000e+00
0.000000e+00		0.000000e+00		0.000000e+00
0.000000e+00		0.000000e+00		0.000000e+00
0.000000e+00		0.000000e+00		0.000000e+00
0.000000e+00		0.000000e+00		0.000000e+00
0.000000e+00		0.000000e+00		0.000000e+00
0.000000e+00		0.000000e+00		0.000000e+00
0.000000e+00		0.000000e+00		0.000000e+00
0.000000e+00		0.000000e+00		0.000000e+00
0.000000e+00		0.000000e+00		0.000000e+00
0.000000e+00		0.000000e+00		0.000000e+00
0.000000e+00		0.000000e+00		0.000000e+00
0.000000e+00		0.000000e+00		0.000000e+00
0.000000e+00		0.000000e+00		0.000000e+00
0.000000e+00		0.000000e+00		0.000000e+00
0.000000e+00		0.000000e+00		0.000000e+00
0.000000e+00		0.000000e+00		0.000000e+00
0.000000e+00		0.000000e+00		0.000000e+00
0.000000e+00		0.000000e+00		0.000000e+00
0.000000e+00		0.000000e+00		0.000000e+00
0.000000e+00		0.000000e+00		0.000000e+00
0.000000e+00		0.000000e+00		0.000000e+00
0.000000e+00		0.000000e+00		0.000000e+00
0.000000e+00		0.000000e+00		0.000000e+00
0.000000e+00		0.000000e+00		0.000000e+00
0.000000e+00		0.000000e+00		0.000000e+00
0.000000e+00		0.000000e+00		0.000000e+00
0.000000e+00		0.000000e+00		0.000000e+00
0.000000e+00		0.000000e+00		0.000000e+00
0.000000e+00		0.000000e+00		0.000000e+00
0.000000e+00		0.000000e+00		0.000000e+00
0.000000e+00		0.000000e+00		0.000000e+00
0.000000e+00		0.000000e+00		0.000000e+00
0.000000e+00		0.000000e+00		0.000000e+00
0.000000e+00		0.000000e+00		0.000000e+00
0.000000e+00		0.000000e+00		0.000000e+00
0.000000e+00		0.000000e+00		0.000000e+00
0.000000e+00		0.000000e+00		0.000000e+00
0.000000e+00		0.000000e+00		0.000000e+00
0.000000e+00		0.000000e+00		0.000000e+00
0.000000e+00		0.000000e+00		0.000000e+00
0.000000e+00		0.000000e+00		0.000000e+00
0.000000e+00		0.000000e+00		0.000000e+00
0.000000e+00		0.000000e+00		0.000000e+00
0.000000e+00		0.000000e+00		0.000000e+00
0.000000e+00		0.000000e+00		0.000000e+00
0.000000e+00		0.000000e+00		0.000000e+00
0.000000e+00		0.000000e+00		0.000000e+00
0.000000e+00		0.000000e+00		0.000000e+00
0.000000e+00		0.000000e+00		0.000000e+00
0.000000e+00		0.000000e+00		0.000000e+00
0.000000e+00		0.000000e+00		0.000000e+00
0.000000e+00		0.000000e+00		0.000000e+00
0.000000e+00		0.000000e+00		0.000000e+00
0.000000e+00		0.000000e+00		0.000000e+00
0.000000e+00		0.000000e+00		0.000000e+00
0.000000e+00		0.000000e+00		0.000000e+00
0.000000e+00		0.000000e+00		0.000000e+00
0.000000e+00		0.000000e+00		0.000000e+00
0.000000e+00		0.000000e+00		0.000000e+00
0.000000e+00		0.000000e+00		0.000000e+00
0.000000e+00		0.000000e+00		0.000000e+00
0.000000e+00		0.000000e+00		0.000000e+00
0.000000e+00		0.000000e+00		0.000000e+00
0.000000e+00		0.000000e+00		0.000000e+00
0.000000e+00		0.000000e+00		0.000000e+00
0.000000e+00		0.000000e+00		0.000000e+00
0.000000e+00		0.000000e+00		0.000000e+00
0.000000e+00		0.000000e+00		0.000000e+00
0.000000e+00		0.000000e+00		0.000000e+00
0.000000e+00		0.000000e+00		0.000000e+00
0.000000e+00		0.000000e+00		0.000000e+00
0.000000e+00		0.000000e+00		0.000000e+00
0.000000e+00		0.000000e+00		0.000000e+00
0.000000e+00		0.000000e+00		0.000000e+00
0.000000e+00		0.000000e+00		0.000000e+00
0.000000e+00		0.000000e+00		0.000000e+00
0.000000e+00		0.000000e+00		0.000000e+00
0.000000e+00		0.000000e+00		0.000000e+00
0.000000e+00		0.000000e+00		0.000000e+00
0.000000e+00		0.000000e+00		0.000000e+00
0.000000e+00		0.000000e+00		0.000000e+00
0.000000e+00		0.000000e+00		0.000000e+00
0.000000e+00		0.000000e+00		0.000000e+00
0.000000e+00		0.000000e+00		0.000000e+00
0.000000e+00		0.000000e+00		0.000000e+00
0.000000e+00		0.000000e+00		0.000000e+00
0.000000e+00		0.000000e+00		0.000000e+00
0.000000e+00		0.000000e+00		0.000000e+00
0.000000e+00		0.000000e+00		0.000000e+00
0.000000e+00		0.000000e+00		0.000000e+00
0.000000e+00		0.000000e+00		0.000000e+00
0.000000e+00		0.000000e+00		0.000000e+00
0.000000e+00		0.000000e+00		0.000000e+00
0.000000e+00		0.000000e+00		0.000000e+00
0.000000e+00		0.000000e+00		0.000000e+00
0.000000e+00		0.000000e+00		0.000000e+00
0.000000e+00		0.000000e+00		0.000000e+00
0.000000e+00		0.000000e+00		0.000000e+00
0.000000e+00		0.000000e+00		0.000000e+00
0.000000e+00		0.000000e+00		0.000000e+00
0.000000e+00		0.000000e+00		0.000000e+00
0.000000e+00		0.000000e+00		0.000000e+00
0.000000e+00		0.000000e+00		0.000000e+00
0.000000e+00		0.000000e+00		0.000000e+00
0.000000e+00		0.000000e+00		0.000000e+00
0.000000e+00		0.000000e+00		0.000000e+00
0.000000e+00		0.000000e+00		0.000000e+00
0.000000e+00		0.000000e+00		0.000000e+00
0.000000e+00		0.000000e+00		0.000000e+00
0.000000e+00		0.000000e+00		0.000000e+00
0.000000e+00		0.000000e+00		0.000000e+00
0.000000e+00		0.000000e+00		0.000000e+00
0.000000e+00		0.000000e+00		0.000000e+00
0.000000e+00		0.000000e+00		0.000000e+00
0.000000e+00		0.000000e+00		0.000000e+00
0.000000e+00		0.000000e+00		0.000000e+00
0.000000e+00		0.000000e+00		0.000000e+00
0.000000e+00		0.000000e+00		0.000000e+00
0.000000e+00		0.000000e+00		0.000000e+00
0.000000e+00		0.000000e+00		0.000000e+00
0.000000e+00		0.000000e+00		0.000000e+00
0.000000e+00		0.000000e+00		0.000000e+00
0.000000e+00		0.000000e+00		0.000000e+00
0.000000e+00		0.000000e+00		0.000000e+00
0.000000e+00		0.000000e+00		0.000000e+00
0.000000e+00		0.000000e+00		0.000000e+00
0.000000e+00		0.000000e+00		0.000000e+00
0.000000e+00		0.000000e+00		0.000000e+00
0.000000e+00		0.000000e+00		0.000000e+00
0.000000e+00		0.000000e+00		0.000000e+00
0.000000e+00		0.000000e+00		0.000000e+00
0.000000e+00		0.000000e+00		0.000000e+00
0.000000e+00		0.000000e+00		0.000000e+00
0.000000e+00		0.000000e+00		0.000000e+00
0.000000e+00		0.000000e+00		0.000000e+00
0.000000e+00		0.000000e+00		0.000000e+00
0.000000e+00		0.000000e+00		0.000000e+00
0.000000e+00		0.000000e+00		0.000000e+00
0.000000e+00		0.000000e+00		0.000000e+00
0.000000e+00		0.000000e+00		0.000000e+00
0.000000e+00		0.000000e+00		0.000000e+00
0.000000e+00		0.000000e+00		0.000000e+00
0.000000e+00		0.000000e+00		0.000000e+00
0.000000e+00		0.000000e+00		0.000000e+00
0.000000e+00		0.000000e+00		0.000000e+00
0.000000e+00		0.000000e+00		0.000000e+00
0.000000e+00		0.000000e+00		0.000000e+00
0.000000e+00		0.000000e+00		0.000000e+00
0.000000e+00		0.000000e+00		0.000000e+00
0.000000e+00		0.000000e+00		0.000000e+00
0.000000e+00		0.000000e+00		0.000000e+00
0.000000e+00		0.000000e+00		0.000000e+00
0.000000e+00		0.000000e+00		0.000000e+00
0.000000e+00		0.000000e+00		0.000000e+00
0.000000e+00		0.000000e+00		0.000000e+00
0.000000e+00		0.000000e+00		0.000000e+00
0.000000e+00		0.000000e+00		0.000000e+00
0.000000e+00		0.000000e+00		0.000000e+00
0.000000e+00		0.000000e+00		0.000000e+00
0.000000e+00		0.000000e+00		0.000000e+00
0.000000e+00		0.000000e+00		0.000000e+00
0.000000e+00		0.000000e+00		0.000000e+00
0.000000e+00		0.000000e+00		0.000000e+00
0.000000e+00		0.000000e+00		0.000000e+00
0.000000e+00		0.000000e+00		0.000000e+00
0.000000e+00		0.000000e+00		0.000000e+00
0.000000e+00		0.000000e+00		0.000000e+00
0.000000e+00		0.000000e+00		0.000000e+00
0.000000e+00		0.000000e+00		0.000000e+00
0.000000e+00		0.000000e+00		0.000000e+00
0.000000e+00		0.000000e+00		0.000000e+00
0.000000e+00		0.000000e+00		0.000000e+00
0.000000e+00		0.000000e+00		0.000000e+00
0.000000e+00		0.000000e+00		0.000000e+00
0.000000e+00		0.000000e+00		0.000000e+00
0.000000e+00		0.000000e+00		0.000000e+00
0.000000e+00		0.000000e+00		0.000000e+00
0.000000e+00		0.000000e+00		0.000000e+00
0.000000e+00		0.000000e+00		0.000000e+00
0.000000e+00		0.000000e+00		0.000000e+00
0.000000e+00		0.000000e+00		0.000000e+00
0.000000e+00		0.000000e+00		0.000000e+00
0.000000e+00		0.000000e+00		0.000000e+00
0.000000e+00		0.000000e+00		0.000000e+00
0.000000e+00		0.000000e+00		0.000000e+00
0.000000e+00		0.000000e+00		0.000000e+00
0.000000e+00		0.000000e+00		0.000000e+00
0.000000e+00		0.000000e+00		0.000000e+00
0.000000e+00		0.000000e+00		0.000000e+00
0.000000e+00		0.000000e+00		0.000000e+00
0.000000e+00		0.000000e+00		0.000000e+00
0.000000e+00		0.000000e+00		0.000000e+00
0.000000e+00		0.000000e+00		0.000000e+00
0.000000e+00		0.000000e+00		0.000000e+00
0.000000e+00		0.000000e+00		0.000000e+00
0.000000e+00		0.000000e+00		0.000000e+00
0.000000e+00		0.000000e+00		0.000000e+00
0.000000e+00		0.000000e+00		0.000000e+00
0.000000e+00		0.000000e+00		0.000000e+00
0.000000e+00		0.000000e+00		0.000000e+00
0.000000e+00		0.000000e+00		0.000000e+00
0.000000e+00		0.000000e+00		0.000000e+00
0.000000e+00		0.000000e+00		0.000000e+00
0.000000e+00		0.000000e+00		0.000000e+00
0.000000e+00		0.000000e+00		0.000000e+00
0.000000e+00		0.000000e+00		0.000000e+00
0.000000e+00		0.000000e+00		0.000000e+00
0.000000e+00		0.000000e+00		0.000000e+00
0.000000e+00		0.000000e+00		0.000000e+00
0.000000e+00		0.000000e+00		0.000000e+00
0.000000e+00		0.000000e+00		0.000000e+00
0.000000e+00		0.000000e+00		0.000000e+00
0.000000e+00		0.000000e+00		0.000000e+00
0.000000e+00		0.000000e+00		0.000000e+00
0.000000e+00		0.000000e+00		0.000000e+00
0.000000e+00		0.000000e+00		0.000000e+00
0.000000e+00		0.000000e+00		0.000000e+00
0.000000e+00		0.000000e+00		0.000000e+00
0.000000e+00		0.000000e+00		0.000000e+00
0.000000e+00		0.000000e+00		0.000000e+00
0.000000e+00		0.000000e+00		0.000000e+00
0.000000e+00		0.000000e+00		0.000000e+00
0.000000e+00		0.000000e+00		0.000000e+00
0.000000e+00		0.000000e+00		0.000000e+00
0.000000e+00		0.000000e+00		0.000000e+00
0.000000e+00		0.000000e+00		0.000000e+00
0.000000e+00		0.000000e+00		0.000000e+00
0.000000e+00		0.000000e+00		0.000000e+00
0.000000e+00		0.000000e+00		0.000000e+00
0.000000e+00		0.000000e+00		0.000000e+00
0.000000e+00		0.000000e+00		0.000000e+00
0.000000e+00		0.000000e+00		0.000000e+00
0.000000e+00		0.000000e+00		0.000000e+00
0.000000e+00		0.000000e+00		0.000000e+00
0.000000e+00		0.000000e+00		0.000000e+00
0.000000e+00		0.000000e+00		0.000000e+00
0.000000e+00		0.000000e+00		0.000000e+00
0.000000e+00		0.000000e+00		0.000000e+00
0.000000e+00		0.000000e+00		0.000000e+00
0.000000e+00		0.000000e+00		0.000000e+00
0.000000e+00		0.000000e+00		0.000000e+00
0.000000e+00		0.000000e+00		0.000000e+00
0.000000e+00		0.000000e+00		0.000000e+00
0.000000e+00		0.000000e+00		0.000000e+00
0.000000e+00		0.000000e+00		0.000000e+00
0.000000e+00		0.000000e+00		0.000000e+00
0.000000e+00		0.000000e+00		0.000000e+00
0.000000e+00		0.000000e+00		0.000000e+00
0.000000e+00		0.000000e+00		0.000000e+00
0.000000e+00		0.000000e+00		0.000000e+00
0.000000e+00		0.000000e+00		0.000000e+00
0.000000e+00		0.000000e+00		0.000000e+00
0.000000e+00		0.000000e+00		0.000000e+00
0.000000e+00		0.000000e+00		0.000000e+00
0.000000e+00		0.000000e+00		0.000000e+00
0.000000e+00		0.000000e+00		0.000000e+00
0.000000e+00		0.000000e+00		0.000000e+00
0.000000e+00		0.000000e+00		0.000000e+00
0.000000e+00		0.000000e+00		0.000000e+00
0.000000e+00		0.000000e+00		0.000000e+00
0.000000e+00		0.000000e+00		0.000000e+00
0.000000e+00		0.000000e+00		0.000000e+00
0.000000e+00		0.000000e+00		0.000000e+00
0.000000e+00		0.000000e+00		0.000000e+00
0.000000e+00		0.000000e+00		0.000000e+00
0.000000e+00		0.000000e+00		0.000000e+00
0.000000e+00		0.000000e+00		0.000000e+00
0.000000e+00		0.000000e+00		0.000000e+00
0.000000e+00		0.000000e+00		0.000000e+00
0.000000e+00		0.000000e+00		0.000000e+00
0.000000e+00		0.000000e+00		0.000000e+00
0.000000e+00		0.000000e+00		0.000000e+00
0.000000e+00		0.000000e+00		0.000000e+00
0.000000e+00		0.000000e+00		0.000000e+00
0.000000e+00		0.000000e+00		0.000000e+00
0.000000e+00		0.000000e+00		0.000000e+00
0.000000e+00		0.000000e+00		0.000000e+00
0.000000e+00		0.000000e+00		0.000000e+00
0.000000e+00		0.000000e+00		0.000000e+00
0.000000e+00		0.000000e+00		0.000000e+00
0.000000e+00		0.000000e+00		0.000000e+00
0.000000e+00		0.000000e+00		0.000000e+00
0.000000e+00		0.000000e+00		0.000000e+00
0.000000e+00		0.000000e+00		0.000000e+00
0.000000e+00		0.000000e+00		0.000000e+00
0.000000e+00		0.000000e+00		0.000000e+00
0.000000e+00		0.000000e+00		0.000000e+00
0.000000e+00		0.000000e+00		0.000000e+00
0.000000e+00		0.000000e+00		0.000000e+00
0.000000e+00		0.000000e+00		0.000000e+00
0.000000e+00		0.000000e+00		0.000000e+00
0.000000e+00		0.000000e+00		0.000000e+00
0.000000e+00		0.000000e+00		0.000000e+00
0.000000e+00		0.000000e+00		0.000000e+00
0.000000e+00		0.000000e+00		0.000000e+00
0.000000e+00		0.000000e+00		0.000000e+00
0.000000e+00		0.000000e+00		0.000000e+00
0.000000e+00		0.000000e+00		0.000000e+00
0.000000e+00		0.000000e+00		0.000000e+00
0.000000e+00		0.000000e+00		0.000000e+00
0.000000e+00		0.000000e+00		0.000000e+00
0.000000e+00		0.000000e+00		0.000000e+00
0.000000e+00		0.000000e+00		0.000000e+00
0.000000e+00		0.000000e+00		0.000000e+00
0.000000e+00		0.000000e+00		0.000000e+00
0.000000e+00		0.000000e+00		0.000000e+00
0.000000e+00		0.000000e+00		0.000000e+00
0.000000e+00		0.000000e+00		0.000000e+00
0.000000e+00		0.000000e+00		0.000000e+00
0.000000e+00		0.000000e+00		0.000000e+00
0.000000e+00		0.000000e+00		0.000000e+00
0.000000e+00		0.000000e+00		0.000000e+00
0.000000e+00		0.000000e+00		0.000000e+00
0.000000e+00		0.000000e+00		0.000000e+00
0.000000e+00		0.000000e+00		0.000000e+00
0.000000e+00		0.000000e+00		0.000000e+00
0.000000e+00		0.000000e+00		0.000000e+00
0.000000e+00		0.000000e+00		0.000000e+00
0.000000e+00		0.000000e+00		0.000000e+00
0.000000e+00		0.000000e+00		0.000000e+00
0.000000e+00		0.000000e+00		0.000000e+00
0.000000e+00		0.000000e+00		0.000000e+00
0.000000e+00		0.000000e+00		0.000000e+00
0.000000e+00		0.000000e+00		0.000000e+00
0.000000e+00		0.000000e+00		0.000000e+00
0.000000e+00		0.000000e+00		0.000000e+00
0.000000e+00		0.000000e+00		0.000000e+00
0.000000e+00		0.000000e+00		0.000000e+00
0.000000e+00		0.000000e+00		0.000000e+00
0.000000e+00		0.000000e+00		0.000000e+00
0.000000e+00		0.000000e+00		0.000000e+00
0.000000e+00		0.000000e+00		0.000000e+00
0.000000e+00		0.000000e+00		0.000000e+00
0.000000e+00		0.000000e+00		0.000000e+00
0.000000e+00		0.000000e+00		0.000000e+00
0.000000e+00		0.000000e+00		0.000000e+00
0.000000e+00		0.000000e+00		0.000000e+00
0.000000e+00		0.000000e+00		0.000000e+00
0.000000e+00		0.000000e+00		0.000000e+00
0.000000e+00		0.000000e+00		0.000000e+00
0.000000e+00		0.000000e+00		0.000000e+00
0.000000e+00		0.000000e+00		0.000000e+00
0.000000e+00		0.000000e+00		0.000000e+00
0.000000e+00		0.000000e+00		0.000000e+00
0.000000e+00		0.000000e+00		0.000000e+00
0.000000e+00		0.000000e+00		0.000000e+00
0.000000e+00		0.000000e+00		0.000000e+00
0.000000e+00		0.000000e+00		0.000000e+00
0.000000e+00		0.000000e+00		0.000000e+00
0.000000e+00		0.000000e+00		0.000000e+00
0.000000e+00		0.000000e+00		0.000000e+00
0.000000e+00		0.000000e+00		0.000000e+00
0.000000e+00		0.000000e+00		0.000000e+00
0.000000e+00		0.000000e+00		0.000000e+00
0.000000e+00		0.000000e+00		0.000000e+00
0.000000e+00		0.000000e+00		0.000000e+00
0.000000e+00		0.000000e+00		0.000000e+00
0.000000e+00		0.000000e+00		0.000000e+00
0.000000e+00		0.000000e+00		0.000000e+00
0.000000e+00		0.000000e+00		0.000000e+00
0.000000e+00		0.000000e+00		0.000000e+00
0.000000e+00		0.000000e+00		0.000000e+00
0.000000e+00		0.000000e+00		0.000000e+00
0.000000e+00		0.000000e+00		0.000000e+00
0.000000e+00		0.000000e+00		0.000000e+00
0.000000e+00		0.000000e+00		0.000000e+00
0.000000e+00		0.000000e+00		0.000000e+00
0.000000e+00		0.000000e+00		0.000000e+00
0.000000e+00		0.000000e+00		0.000000e+00
0.000000e+00		0.000000e+00		0.000000e+00
0.000000e+00		0.000000e+00		0.000000e+00
0.000000e+00		0.000000e+00		0.000000e+00
0.000000e+00		0.000000e+00		0.000000e+00
0.000000e+00		0.000000e+00		0.000000e+00
0.000000e+00		0.000000e+00		0.000000e+00
0.000000e+00		0.000000e+00		0.000000e+00
0.000000e+00		0.000000e+00		0.000000e+00
0.000000e+00		0.000000e+00		0.000000e+00
0.000000e+00		0.000000e+00		0.000000e+00
0.000000e+00		0.000000e+00		0.000000e+00
0.000000e+00		0.000000e+00		0.000000e+00
0.000000e+00		0.000000e+00		0.000000e+00
0.000000e+00		0.000000e+00		0.000000e+00
0.000000e+00		0.000000e+00		0.000000e+00
0.000000e+00		0.000000e+00		0.000000e+00
0.000000e+00		0.000000e+00		0.000000e+00
0.000000e+00		0.000000e+00		0.000000e+00
0.000000e+00		0.000000e+00		0.000000e+00
0.000000e+00		0.000000e+00		0.000000e+00
0.000000e+00		0.000000e+00		0.000000e+00
0.000000e+00		0.000000e+00		0.000000e+00
0.000000e+00		0.000000e+00		0.000000e+00
0.000000e+00		0.000000e+00		0.000000e+00
0.000000e+00		0.000000e+00		0.000000e+00
0.000000e+00		0.000000e+00		0.000000e+00
0.000000e+00		0.000000e+00		0.000000e+00
0.000000e+00		0.000000e+00		0.000000e+00
0.000000e+00		0.000000e+00		0.000000e+00
0.000000e+00		0.000000e+00		0.000000e+00
0.000000e+00		0.000000e+00		0.000000e+00
0.000000e+00		0.000000e+00		0.000000e+00
0.000000e+00		0.000000e+00		0.000000e+00
0.000000e+00		0.000000e+00		0.000000e+00
0.000000e+00		0.000000e+00		0.000000e+00
0.000000e+00		0.000000e+00		0.000000e+00
0.000000e+00		0.000000e+00		0.000000e+00
0.000000e+00		0.000000e+00		0.000000e+00
0.000000e+00		0.000000e+00		0.000000e+00
0.000000e+00		0.000000e+00		0.000000e+00
0.000000e+00		0.000000e+00		0.000000e+00
0.000000e+00		0.000000e+00		0.000000e+00
0.000000e+00		0.000000e+00		0.000000e+00
0.000000e+00		0.000000e+00		0.000000e+00
0.000000e+00		0.000000e+00		0.000000e+00
0.000000e+00		0.000000e+00		0.000000e+00
0.000000e+00		0.000000e+00		0.000000e+00
0.000000e+00		0.000000e+00		0.000000e+00
0.000000e+00		0.000000e+00		0.000000e+00
0.000000e+00		0.000000e+00		0.000000e+00
0.000000e+00		0.000000e+00		0.000000e+00
0.000000e+00		0.000000e+00		0.000000e+00
0.000000e+00		0.000000e+00		0.000000e+00
0.000000e+00		0.000000e+00		0.000000e+00
0.000000e+00		0.000000e+00		0.000000e+00
0.000000e+00		0.000000e+00		0.000000e+00
0.000000e+00		0.000000e+00		0.000000e+00
0.000000e+00		0.000000e+00		0.000000e+00
0.000000e+00		0.000000e+00		0.000000e+00
0.000000e+00		0.000000e+00		0.000000e+00
0.000000e+00		0.000000e+00		0.000000e+00
0.000000e+00		0.000000e+00		0.000000e+00
0.000000e+00		0.000000e+00		0.000000e+00
0.000000e+00		0.000000e+00		0.000000e+00
0.000000e+00		0.000000e+00		0.000000e+00
0.000000e+00		0.000000e+00		0.000000e+00
0.000000e+00		0.000000e+00		0.000000e+00
0.000000e+00		0.000000e+00		0.000000e+00
0.000000e+00		0.000000e+00		0.000000e+00
0.000000e+00		0.000000e+00		0.000000e+00
0.000000e+00		0.000000e+00		0.000000e+00
0.000000e+00		0.000000e+00		0.000000e+00
0.000000e+00		0.000000e+00		0.000000e+00
0.000000e+00		0.000000e+00		0.000000e+00
0.000000e+00		0.000000e+00		0.000000e+00
0.000000e+00		0.000000e+00		0.000000e+00
0.000000e+00		0.000000e+00		0.000000e+00
0.000000e+00		0.000000e+00		0.000000e+00
0.000000e+00		0.000000e+00		0.000000e+00
0.000000e+00		0.000000e+00		0.000000e+00
0.000000e+00		0.000000e+00		0.000000e+00
0.000000e+00		0.000000e+00		0.000000e+00
0.000000e+00		0.000000e+00		0.000000e+00
0.000000e+00		0.000000e+00		0.000000e+00
0.000000e+00		0.000000e+00		0.000000e+00
0.000000e+00		0.000000e+00		0.000000e+00
0.000000e+00		0.000000e+00		0.000000e+00
0.000000e+00		0.000000e+00		0.000000e+00
0.000000e+00		0.000000e+00		0.000000e+00
0.000000e+00		0.000000e+00		0.000000e+00
0.000000e+00		0.000000e+00		0.000000e+00
0.000000e+00		0.000000e+00		0.000000e+00
0.000000e+00		0.000000e+00		0.000000e+00
0.000000e+00		0.000000e+00		0.000000e+00
0.000000e+00		0.000000e+00		0.000000e+00
0.000000e+00		0.000000e+00		0.000000e+00
0.000000e+00		0.000000e+00		0.000000e+00
0.000000e+00		0.000000e+00		0.000000e+00
0.000000e+00		0.000000e+00		0.000000e+00
0.000000e+00		0.000000e+00		0.000000e+00
0.000000e+00		0.000000e+00		0.000000e+00
0.000000e+00		0.000000e+00		0.000000e+00
0.000000e+00		0.000000e+00		0.000000e+00
0.000000e+00		0.000000e+00		0.000000e+00
0.000000e+00		0.000000e+00		0.000000e+00
0.000000e+00		0.000000e+00		0.000000e+00
0.000000e+00		0.000000e+00		0.000000e+00
0.000000e+00		0.000000e+00		0.000000e+00
0.000000e+00		0.000000e+00		0.000000e+00
0.000000e+00		0.000000e+00		0.000000e+00
0.000000e+00		0.000000e+00		0.000000e+00
0.000000e+00		0.000000e+00		0.000000e+00
0.000000e+00		0.000000e+00		0.000000e+00
0.000000e+00		0.000000e+00		0.000000e+00
0.000000e+00		0.000000e+00		0.000000e+00
0.000000e+00		0.000000e+00		0.000000e+00
0.000000e+00		0.000000e+00		0.000000e+00
0.000000e+00		0.000000e+00		0.000000e+00
0.000000e+00		0.000000e+00		0.000000e+00
0.000000e+00		0.000000e+00		0.000000e+00
0.000000e+00		0.000000e+00		0.000000e+00
0.000000e+00		0.000000e+00		0.000000e+00
0.000000e+00		0.000000e+00		0.000000e+00
0.000000e+00		0.000000e+00		0.000000e+00
0.000000e+00		0.000000e+00		0.000000e+00
0.000000e+00		0.000000e+00		0.000000e+00
0.000000e+00		0.000000e+00		0.000000e+00
0.000000e+00		0.000000e+00		0.000000e+00
0.000000e+00		0.000000e+00		0.000000e+00
0.000000e+00		0.000000e+00		0.000000e+00
0.000000e+00		0.000000e+00		0.000000e+00
0.000000e+00		0.000000e+00		0.000000e+00
0.000000e+00		0.000000e+00		0.000000e+00
0.000000e+00		0.000000e+00		0.000000e+00
0.000000e+00		0.000000e+00		0.000000e+00
0.000000e+00		0.000000e+00		0.000000e+00
0.000000e+00		0.000000e+00		0.000000e+00
0.000000e+00		0.000000e+00		0.000000e+00
0.000000e+00		0.000000e+00		0.000000e+00
0.000000e+00		0.000000e+00		0.000000e+00
0.000000e+00		0.000000e+00		0.000000e+00
0.000000e+00		0.000000e+00		0.000000e+00
0.000000e+00		0.000000e+00		0.000000e+00
0.000000e+00		0.000000e+00		0.000000e+00
0.000000e+00		0.000000e+00		0.000000e+00
0.000000e+00		0.000000e+00		0.000000e+00
0.000000e+00		0.000000e+00		0.000000e+00
0.000000e+00		0.000000e+00		0.000000e+00
0.000000e+00		0.000000e+00		0.000000e+00
0.000000e+00		0.000000e+00		0.000000e+00
0.000000e+00		0.000000e+00		0.000000e+00
0.000000e+00		0.000000e+00		0.000000e+00
0.000000e+00		0.000000e+00		0.000000e+00
0.000000e+00		0.000000e+00		0.000000e+00
0.000000e+00		0.000000e+00		0.000000e+00
0.000000e+00		0.000000e+00		0.000000e+00
0.000000e+00		0.000000e+00		0.000000e+00
0.000000e+00		0.000000e+00		0.000000e+00
0.000000e+00		0.000000e+00		0.000000e+00
0.000000e+00		0.000000e+00		0.000000e+00
0.000000e+00		0.000000e+00		0.000000e+00
0.000000e+00		0.000000e+00		0.000000e+00
0.000000e+00		0.000000e+00		0.000000e+00
0.000000e+00		0.000000e+00		0.000000e+00
0.000000e+00		0.000000e+00		0.000000e+00
0.000000e+00		0.000000e+00		0.000000e+00
0.000000e+00		0.000000e+00		0.000000e+00
0.000000e+00		0.000000e+00		0.000000e+00
0.000000e+00		0.000000e+00		0.000000e+00
0.000000e+00		0.000000e+00		0.000000e+00
0.000000e+00		0.000000e+00		0.000000e+00
0.000000e+00		0.000000e+00		0.000000e+00
0.000000e+00		0.000000e+00		0.000000e+00
0.000000e+00		0.000000e+00		0.000000e+00
0.000000e+00		0.000000e+00		0.000000e+00
0.000000e+00		0.000000e+00		0.000000e+00
0.000000e+00		0.000000e+00		0.000000e+00
0.000000e+00		0.000000e+00		0.000000e+00
0.000000e+00		0.000000e+00		0.000000e+00
0.000000e+00		0.000000e+00		0.000000e+00
0.000000e+00		0.000000e+00		0.000000e+00
0.000000e+00		0.000000e+00		0.000000e+00
0.000000e+00		0.000000e+00		0.000000e+00
0.000000e+00		0.000000e+00		0.000000e+00
0.000000e+00		0.000000e+00		0.000000e+00
0.000000e+00		0.000000e+00		0.000000e+00
0.000000e+00		0.000000e+00		0.000000e+00
0.000000e+00		0.000000e+00		0.000000e+00
0.000000e+00		0.000000e+00		0.000000e+00
0.000000e+00		0.000000e+00		0.000000e+00
0.000000e+00		0.000000e+00		0.000000e+00
0.000000e+00		0.000000e+00		0.000000e+00
0.000000e+00		0.000000e+00		0.000000e+00
0.000000e+00		0.000000e+00		0.000000e+00
0.000000e+00		0.000000e+00		0.000000e+00
0.000000e+00		0.000000e+00		0.000000e+00
0.000000e+00		0.000000e+00		0.000000e+00
0.000000e+00		0.000000e+00		0.000000e+00
0.000000e+00		0.000000e+00		0.000000e+00
0.000000e+00		0.000000e+00		0.000000e+00
0.000000e+00		0.000000e+00		0.000000e+00
0.000000e+00		0.000000e+00		0.000000e+00
0.000000e+00		0.000000e+00		0.000000e+00
0.000000e+00		0.000000e+00		0.000000e+00
0.000000e+00		0.000000e+00		0.000000e+00
0.000000e+00		0.000000e+00		0.000000e+00
0.000000e+00		0.000000e+00		0.000000e+00
0.000000e+00		0.000000e+00		0.000000e+00
0.000000e+00		0.000000e+00		0.000000e+00
0.000000e+00		0.000000e+00		0.000000e+00
0.000000e+00		0.000000e+00		0.000000e+00
0.000000e+00		0.000000e+00		0.000000e+00
0.000000e+00		0.000000e+00		0.000000e+00
0.000000e+00		0.000000e+00		0.000000e+00
0.000000e+00		0.000000e+00		0.000000e+00
0.000000e+00		0.000000e+00		0.000000e+00
0.000000e+00		0.000000e+00		0.000000e+00
0.000000e+00		0.000000e+00		0.000000e+00
0.000000e+00		0.000000e+00		0.000000e+00
0.000000e+00		0.000000e+00		0.000000e+00
0.000000e+00		0.000000e+00		0.000000e+00
0.000000e+00		0.000000e+00		0.000000e+00
0.000000e+00		0.000000e+00		0.000000e+00
0.000000e+00		0.000000e+00		0.000000e+00
0.000000e+00		0.000000e+00		0.000000e+00
0.000000e+00		0.000000e+00		0.000000e+00
0.000000e+00		0.000000e+00		0.000000e+00
0.000000e+00		0.000000e+00		0.000000e+00
0.000000e+00		0.000000e+00		0.000000e+00
0.000000e+00		0.000000e+00		0.000000e+00
0.000000e+00		0.000000e+00		0.000000e+00
0.000000e+00		0.000000e+00		0.000000e+00
0.000000e+00		0.000000e+00		0.000000e+00
0.000000e+00		0.000000e+00		0.000000e+00
0.000000e+00		0.000000e+00		0.000000e+00
0.000000e+00		0.000000e+00		0.000000e+00
0.000000e+00		0.000000e+00		0.000000e+00
0.000000e+00		0.000000e+00		0.000000e+00
0.000000e+00		0.000000e+00		0.000000e+00
0.000000e+00		0.000000e+00		0.000000e+00
0.000000e+00		0.000000e+00		0.000000e+00
0.000000e+00		0.000000e+00		0.000000e+00
0.000000e+00		0.000000e+00		0.000000e+00
0.000000e+00		0.000000e+00		0.000000e+00
0.000000e+00		0.000000e+00		0.000000e+00
0.000000e+00		0.000000e+00		0.000000e+00
0.000000e+00		0.000000e+00		0.000000e+00
0.000000e+00		0.000000e+00		0.000000e+00
0.000000e+00		0.000000e+00		0.000000e+00
0.000000e+00		0.000000e+00		0.000000e+00
0.000000e+00		0.000000e+00		0.000000e+00
0.000000e+00		0.000000e+00		0.000000e+00
0.000000e+00		0.000000e+00		0.000000e+00
0.000000e+00		0.000000e+00		0.000000e+00
0.000000e+00		0.000000e+00		0.000000e+00
0.000000e+00		0.000000e+00		0.000000e+00
0.000000e+00		0.000000e+00		0.000000e+00
0.000000e+00		0.000000e+00		0.000000e+00
0.000000e+00		0.000000e+00		0.000000e+00
0.000000e+00		0.000000e+00		0.000000e+00
0.000000e+00		0.000000e+00		0.000000e+00
0.000000e+00		0.000000e+00		0.000000e+00
0.000000e+00		0.000000e+00		0.000000e+00
0.000000e+00		0.000000e+00		0.000000e+00
0.000000e+00		0.000000e+00		0.000000e+00
0.000000e+00		0.000000e+00		0.000000e+00
0.000000e+00		0.000000e+00		0.000000e+00
0.000000e+00		0.000000e+00		0.000000e+00
0.000000e+00		0.000000e+00		0.000000e+00
0.000000e+00		0.000000e+00		0.000000e+00
0.000000e+00		0.000000e+00		0.000000e+00
0.000000e+00		0.000000e+00		0.000000e+00
0.000000e+00		0.000000e+00		0.000000e+00
0.000000e+00		0.000000e+00		0.000000e+00
0.000000e+00		0.000000e+00		0.000000e+00
0.000000e+00		0.000000e+00		0.000000e+00
0.000000e+00		0.000000e+00		0.000000e+00
0.000000e+00		0.000000e+00		0.000000e+00
0.000000e+00		0.000000e+00		0.000000e+00
0.000000e+00		0.000000e+00		0.000000e+00
0.000000e+00		0.000000e+00		0.000000e+00
0.000000e+00		0.000000e+00		0.000000e+00
0.000000e+00		0.000000e+00		0.000000e+00
0.000000e+00		0.000000e+00		0.000000e+00
0.000000e+00		0.000000e+00		0.000000e+00
0.000000e+00		0.000000e+00		0.000000e+00
0.000000e+00		0.000000e+00		0.000000e+00
0.000000e+00		0.000000e+00		0.000000e+00
0.000000e+00		0.000000e+00		0.000000e+00
0.000000e+00		0.000000e+00		0.000000e+00
0.000000e+00		0.000000e+00		0.000000e+00
0.000000e+00		0.000000e+00		0.000000e+00
0.000000e+00		0.000000e+00		0.000000e+00
0.000000e+00		0.000000e+00		0.000000e+00
0.000000e+00		0.000000e+00		0.000000e+00
0.000000e+00		0.000000e+00		0.000000e+00
0.000000e+00		0.000000e+00		0.000000e+00
0.000000e+00		0.000000e+00		0.000000e+00
0.000000e+00		0.000000e+00		0.000000e+00
0.000000e+00		0.000000e+00		0.000000e+00
0.000000e+00		0.000000e+00		0.000000e+00
0.000000e+00		0.000000e+00		0.000000e+00
0.000000e+00		0.000000e+00		0.000000e+00
0.000000e+00		0.000000e+00		0.000000e+00
0.000000e+00		0.000000e+00		0.000000e+00
0.000000e+00		0.000000e+00		0.000000e+00
0.000000e+00		0.000000e+00		0.000000e+00
0.000000e+00		0.000000e+00		0.000000e+00
0.000000e+00		0.000000e+00		0.000000e+00
0.000000e+00		0.000000e+00		0.000000e+00
0.000000e+00		0.000000e+00		0.000000e+00
0.000000e+00		0.000000e+00		0.000000e+00
0.000000e+00		0.000000e+00		0.000000e+00
0.000000e+00		0.000000e+00		0.000000e+00
0.000000e+00		0.000000e+00		0.000000e+00
0.000000e+00		0.000000e+00		0.000000e+00
0.000000e+00		0.000000e+00		0.000000e+00
0.000000e+00		0.000000e+00		0.000000e+00
0.000000e+00		0.000000e+00		0.000000e+00
0.000000e+00		0.000000e+00		0.000000e+00
0.000000e+00		0.000000e+00		0.000000e+00
0.000000e+00		0.000000e+00		0.000000e+00
0.000000e+00		0.000000e+00		0.000000e+00
0.000000e+00		0.000000e+00		0.000000e+00
0.000000e+00		0.000000e+00		0.000000e+00
0.000000e+00		0.000000e+00		0.000000e+00
0.000000e+00		0.000000e+00		0.000000e+00
0.000000e+00		0.000000e+00		0.000000e+00
0.000000e+00		0.000000e+00		0.000000e+00
0.000000e+00		0.000000e+00		0.000000e+00
0.000000e+00		0.000000e+00		0.000000e+00
0.000000e+00		0.000000e+00		0.000000e+00
0.000000e+00		0.000000e+00		0.000000e+00
0.000000e+00		0.000000e+00		0.000000e+00
0.000000e+00		0.000000e+00		0.000000e+00
0.000000e+00		0.000000e+00		0.000000e+00
0.000000e+00		0.000000e+00		0.000000e+00
0.000000e+00		0.000000e+00		0.000000e+00
0.000000e+00		0.000000e+00		0.000000e+00
0.000000e+00		0.000000e+00		0.000000e+00
0.000000e+00		0.000000e+00		0.000000e+00
0.000000e+00		0.000000e+00		0.000000e+00
0.000000e+00		0.000000e+00		0.000000e+00
0.000000e+00		0.000000e+00		0.000000e+00
0.000000e+00		0.000000e+00		0.000000e+00
0.000000e+00		0.000000e+00		0.000000e+00
0.000000e+00		0.000000e+00		0.000000e+00
0.000000e+00		0.000000e+00		0.000000e+00
0.000000e+00		0.000000e+00		0.000000e+00
0.000000e+00		0.000000e+00		0.000000e+00
0.000000e+00		0.000000e+00		0.000000e+00
0.000000e+00		0.000000e+00		0.000000e+00
0.000000e+00		0.000000e+00		0.000000e+00
0.000000e+00		0.000000e+00		0.000000e+00
0.000000e+00		0.000000e+00		0.000000e+00
0.000000e+00		0.000000e+00		0.000000e+00
0.000000e+00		0.000000e+00		0.000000e+00
0.000000e+00		0.000000e+00		0.000000e+00
0.000000e+00		0.000000e+00		0.000000e+00
0.000000e+00		0.000000e+00		0.000000e+00
0.000000e+00		0.000000e+00		0.000000e+00
0.000000e+00		0.000000e+00		0.000000e+00
0.000000e+00		0.000000e+00		0.000000e+00
0.000000e+00		0.000000e+00		0.000000e+00
0.000000e+00		0.000000e+00		0.000000e+00
0.000000e+00		0.000000e+00		0.000000e+00
0.000000e+00		0.000000e+00		0.000000e+00
0.000000e+00		0.000000e+00		0.000000e+00
0.000000e+00		0.000000e+00		0.000000e+00
0.000000e+00		0.000000e+00		0.000000e+00
0.000000e+00		0.000000e+00		0.000000e+00
0.000000e+00		0.000000e+00		0.000000e+00
0.000000e+00		0.000000e+00		0.000000e+00
0.000000e+00		0.000000e+00		0.000000e+00
0.000000e+00		0.000000e+00		0.000000e+00
0.000000e+00		0.000000e+00		0.000000e+00
0.000000e+00		0.000000e+00		0.000000e+00
0.000000e+00		0.000000e+00		0.000000e+00
0.000000e+00		0.000000e+00		0.000000e+00
0.000000e+00		0.000000e+00		0.000000e+00
0.000000e+00		0.000000e+00		0.000000e+00
0.000000e+00		0.000000e+00		0.000000e+00
0.000000e+00		0.000000e+00		0.000000e+00
0.000000e+00		0.000000e+00		0.000000e+00
0.000000e+00		0.000000e+00		0.000000e+00
0.000000e+00		0.000000e+00		0.000000e+00
0.000000e+00		0.000000e+00		0.000000e+00
0.000000e+00		0.000000e+00		0.000000e+00
0.000000e+00		0.000000e+00		0.000000e+00
0.000000e+00		0.000000e+00		0.000000e+00
0.000000e+00		0.000000e+00		0.000000e+00
0.000000e+00		0.000000e+00		0.000000e+00
0.000000e+00		0.000000e+00		0.000000e+00
0.000000e+00		0.000000e+00		0.000000e+00
0.000000e+00		0.000000e+00		0.000000e+00
0.000000e+00		0.000000e+00		0.000000e+00
0.000000e+00		0.000000e+00		0.000000e+00
0.000000e+00		0.000000e+00		0.000000e+00
0.000000e+00		0.000000e+00		0.000000e+00
0.000000e+00		0.000000e+00		0.000000e+00
0.000000e+00		0.000000e+00		0.000000e+00
0.000000e+00		0.000000e+00		0.000000e+00
0.000000e+00		0.000000e+00		0.000000e+00
0.000000e+00		0.000000e+00		0.000000e+00
0.000000e+00		0.000000e+00		0.000000e+00
0.000000e+00		0.000000e+00		0.000000e+00
0.000000e+00		0.000000e+00		0.000000e+00
0.000000e+00		0.000000e+00		0.000000e+00
0.000000e+00		0.000000e+00		0.000000e+00
0.000000e+00		0.000000e+00		0.000000e+00
0.000000e+00		0.000000e+00		0.000000e+00
0.000000e+00		0.000000e+00		0.000000e+00
0.000000e+00		0.000000e+00		0.000000e+00
0.000000e+00		0.000000e+00		0.000000e+00
0.000000e+00		0.000000e+00		0.000000e+00
0.000000e+00		0.000000e+00		0.000000e+00
0.000000e+00		0.000000e+00		0.000000e+00
0.000000e+00		0.000000e+00		0.000000e+00
0.000000e+00		0.000000e+00		0.000000e+00
0.000000e+00		0.000000e+00		0.000000e+00
0.000000e+00		0.000000e+00		0.000000e+00
0.000000e+00		0.000000e+00		0.000000e+00
0.000000e+00		0.000000e+00		0.000000e+00
0.000000e+00		0.000000e+00		0.000000e+00
0.000000e+00		0.000000e+00		0.000000e+00
0.000000e+00		0.000000e+00		0.000000e+00
0.000000e+00		0.000000e+00		0.000000e+00
0.000000e+00		0.000000e+00		0.000000e+00
0.000000e+00		0.000000e+00		0.000000e+00
0.000000e+00		0.000000e+00		0.000000e+00
0.000000e+00		0.000000e+00		0.000000e+00
0.000000e+00		0.000000e+00		0.000000e+00
0.000000e+00		0.000000e+00		0.000000e+00
0.000000e+00		0.000000e+00		0.000000e+00
0.000000e+00		0.000000e+00		0.000000e+00
0.000000e+00		0.000000e+00		0.000000e+00
0.000000e+00		0.000000e+00		0.000000e+00
0.000000e+00		0.000000e+00		0.000000e+00
0.000000e+00		0.000000e+00		0.000000e+00
0.000000e+00		0.000000e+00		0.000000e+00
0.000000e+00		0.000000e+00		0.000000e+00
0.000000e+00		0.000000e+00		0.000000e+00
0.000000e+00		0.000000e+00		0.000000e+00
0.000000e+00		0.000000e+00		0.000000e+00
0.000000e+00		0.000000e+00		0.000000e+00
0.000000e+00		0.000000e+00		0.000000e+00
0.000000e+00		0.000000e+00		0.000000e+00
0.000000e+00		0.000000e+00		0.000000e+00
0.000000e+00		0.000000e+00		0.000000e+00
0.000000e+00		0.000000e+00		0.000000e+00
0.000000e+00		0.000000e+00		0.000000e+00
0.000000e+00		0.000000e+00		0.000000e+00
0.000000e+00		0.000000e+00		0.000000e+00
0.000000e+00		0.000000e+00		0.000000e+00
0.000000e+00		0.000000e+00		0.000000e+00
0.000000e+00		0.000000e+00		0.000000e+00
0.000000e+00		0.000000e+00		0.000000e+00
0.000000e+00		0.000000e+00		0.000000e+00
0.000000e+00		0.000000e+00		0.000000e+00
0.000000e+00		0.000000e+00		0.000000e+00
0.000000e+00		0.000000e+00		0.000000e+00
0.000000e+00		0.000000e+00		0.000000e+00
0.000000e+00		0.000000e+00		0.000000e+00
0.000000e+00		0.000000e+00		0.000000e+00
0.000000e+00		0.000000e+00		0.000000e+00
0.000000e+00		0.000000e+00		0.000000e+00
0.000000e+00		0.000000e+00		0.000000e+00
0.000000e+00		0.000000e+00		0.000000e+00
0.000000e+00		0.000000e+00		0.000000e+00
0.000000e+00		0.000000e+00		0.000000e+00
0.000000e+00		0.000000e+00		0.000000e+00
0.000000e+00		0.000000e+00		0.000000e+00
0.000000e+00		0.000000e+00		0.000000e+00
0.000000e+00		0.000000e+00		0.000000e+00
0.000000e+00		0.000000e+00		0.000000e+00
0.000000e+00		0.000000e+00		0.000000e+00
0.000000e+00		0.000000e+00		0.000000e+00
0.000000e+00		0.000000e+00		0.000000e+00
0.000000e+00		0.000000e+00		0.000000e+00
0.000000e+00		0.000000e+00		0.000000e+00
0.000000e+00		0.000000e+00		0.000000e+00
0.000000e+00		0.000000e+00		0.000000e+00
0.000000e+00		0.000000e+00		0.000000e+00
0.000000e+00		0.000000e+00		0.000000e+00
0.000000e+00		0.000000e+00		0.000000e+00
0.000000e+00		0.000000e+00		0.000000e+00
0.000000e+00		0.000000e+00		0.000000e+00
0.000000e+00		0.000000e+00		0.000000e+00
0.000000e+00		0.000000e+00		0.000000e+00
0.000000e+00		0.000000e+00		0.000000e+00
0.000000e+00		0.000000e+00		0.000000e+00
0.000000e+00		0.000000e+00		0.000000e+00
0.000000e+00		0.000000e+00		0.000000e+00
0.000000e+00		0.000000e+00		0.000000e+00
0.000000e+00		0.000000e+00		0.000000e+00
0.000000e+00		0.000000e+00		0.000000e+00
0.000000e+00		0.000000e+00		0.000000e+00
0.000000e+00		0.000000e+00		0.000000e+00
0.000000e+00		0.000000e+00		0.000000e+00
0.000000e+00		0.000000e+00		0.000000e+00
0.000000e+00		0.000000e+00		0.000000e+00
0.000000e+00		0.000000e+00		0.000000e+00
0.000000e+00		0.000000e+00		0.000000e+00
0.000000e+00		0.000000e+00		0.000000e+00
0.000000e+00		0.000000e+00		0.000000e+00
0.000000e+00		0.000000e+00		0.000000e+00
3.778611e+07		3.308515e+07		1.211239e+07
1.799739e+08		6.387590e+07		-5.247175e+08
6.737997e+07		-1.095432e+07		8.202554e+07
2.017050e+08		3.266005e+07		-5.697097e+08
6.747586e+07		6.308779e-06		8.431886e+07
2.017050e+08		-3.266005e+07		-5.697097e+08
6.737997e+07		1.095432e+07		8.202554e+07
1.799739e+08		-6.387590e+07		-5.247175e+08
3.778611e+07		-3.308515e+07		1.211239e+07
-1.941202e+06		1.810897e+08		-4.678578e+08
5.773652e+07		1.057093e+08		-7.267565e+08
7.238231e+07		-1.639873e-05		-7.359466e+08
5.773652e+07		-1.057093e+08		-7.267565e+08
-1.941202e+06		-1.810897e+08		-4.678578e+08
-1.000739e+07		1.797908e+07		7.909712e+07
5.116961e+07		7.426742e+07		-4.706006e+08
-1.078847e+07		-2.277699e+07		2.382397e+08
1.034122e+08		3.747146e+07		-4.914257e+08
-2.330846e+07		6.279145e-06		2.473873e+08
1.034122e+08		-3.747146e+07		-4.914257e+08
-1.078847e+07		2.277699e+07		2.382397e+08
5.116961e+07		-7.426742e+07		-4.706006e+08
-1.000739e+07		-1.797908e+07		7.909712e+07
-7.613523e+06		5.735728e+07		-1.580305e+08
6.062965e+07		3.327049e+07		-2.428118e+08
8.579172e+07		3.495160e-07		-2.441246e+08
6.062965e+07		-3.327049e+07		-2.428118e+08
-7.613523e+06		-5.735728e+07		-1.580305e+08
-1.770182e+07		2.194196e-06		2.818182e-06
1.360173e+07		-2.168119e-06		6.034970e-07
-2.699385e+07		1.111999e-06		2.274290e-06
7.368873e+07		8.724630e-06		-4.895031e-06
-4.591588e+07		4.019588e-06		3.591180e-06
7.368873e+07		-1.870096e-06		-1.051649e-05
-2.699385e+07		6.254762e-06		2.928078e-06
1.360173e+07		-4.492700e-06		-1.650676e-05
-1.770182e+07		-3.430992e-06		-2.339482e-06
-7.613523e+06		-5.735728e+07		1.580305e+08
6.062965e+07		-3.327049e+07		2.428118e+08
8.579172e+07		4.477799e-06		2.441246e+08
6.062965e+07		3.327049e+07		2.428118e+08
-7.613523e+06		5.735728e+07		1.580305e+08
-1.000739e+07		-1.797908e+07		-7.909712e+07
5.116961e+07		-7.426742e+07		4.706006e+08
-1.078847e+07		2.277699e+07		-2.382397e+08
1.034122e+08		-3.747146e+07		4.914257e+08
-2.330846e+07		-3.173947e-06		-2.473873e+08
1.034122e+08		3.747146e+07		4.914257e+08
-1.078847e+07		-2.277699e+07		-2.382397e+08
5.116961e+07		7.426742e+07		4.706006e+08
-1.000739e+07		1.797908e+07		-7.909712e+07
-1.941202e+06		-1.810897e+08		4.678578e+08
5.773652e+07		-1.057093e+08		7.267565e+08
7.238231e+07		1.564622e-05		7.359466e+08
5.773652e+07		1.057093e+08		7.267565e+08
-1.941202e+06		1.810897e+08		4.678578e+08
3.778611e+07		-3.308515e+07		-1.211239e+07
1.799739e+08		-6.387590e+07		5.247175e+08
6.737997e+07		1.095432e+07		-8.202554e+07
2.017050e+08		-3.266005e+07		5.697097e+08
6.747586e+07		-3.859401e-06		-8.431886e+07
2.017050e+08		3.266005e+07		5.697097e+08
6.737997e+07		-1.095432e+07		-8.202554e+07
1.799739e+08		6.387590e+07		5.247175e+08
3.778611e+07		3.308515e+07		-1.211239e+07
VECTORS velocity double
0.000000e+00		0.000000e+00		0.000000e+00
0.000000e+00		0.000000e+00		0.000000e+00
0.000000e+00		0.000000e+00		0.000000e+00
0.000000e+00		0.000000e+00		0.000000e+00
0.000000e+00		0.000000e+00		0.000000e+00
0.000000e+00		0.000000e+00		0.000000e+00
0.000000e+00		0.000000e+00		0.000000e+00
0.000000e+00		0.000000e+00		0.000000e+00
0.000000e+00		0.000000e+00		0.000000e+00
0.000000e+00		0.000000e+00		0.000000e+00
0.000000e+00		0.000000e+00		0.000000e+00
0.000000e+00		0.000000e+00		0.000000e+00
0.000000e+00		0.000000e+00		0.000000e+00
0.000000e+00		0.000000e+00		0.000000e+00
0.000000e+00		0.000000e+00		0.000000e+00
0.000000e+00		0.000000e+00		0.000000e+00
0.000000e+00		0.000000e+00		0.000000e+00
0.000000e+00		0.000000e+00		0.000000e+00
0.000000e+00		0.000000e+00		0.000000e+00
0.000000e+00		0.000000e+00		0.000000e+00
0.000000e+00		0.000000e+00		0.000000e+00
0.000000e+00		0.000000e+00		0.000000e+00
0.000000e+00		0.000000e+00		0.000000e+00
0.000000e+00		0.000000e+00		0.000000e+00
0.000000e+00		0.000000e+00		0.000000e+00
0.000000e+00		0.000000e+00		0.000000e+00
0.000000e+00		0.000000e+00		0.000000e+00
0.000000e+00		0.000000e+00		0.000000e+00
0.000000e+00		0.000000e+00		0.000000e+00
0.000000e+00		0.000000e+00		0.000000e+00
0.000000e+00		0.000000e+00		0.000000e+00
0.000000e+00		0.000000e+00		0.000000e+00
0.000000e+00		0.000000e+00		0.000000e+00
0.000000e+00		0.000000e+00		0.000000e+00
0.000000e+00		0.000000e+00		0.000000e+00
0.000000e+00		0.000000e+00		0.000000e+00
0.000000e+00		0.000000e+00		0.000000e+00
0.000000e+00		0.000000e+00		0.000000e+00
0.000000e+00		0.000000e+00		0.000000e+00
0.000000e+00		0.000000e+00		0.000000e+00
0.000000e+00		0.000000e+00		0.000000e+00
0.000000e+00		0.000000e+00		0.000000e+00
0.000000e+00		0.000000e+00		0.000000e+00
0.000000e+00		0.000000e+00		0.000000e+00
0.000000e+00		0.000000e+00		0.000000e+00
0.000000e+00		0.000000e+00		0.000000e+00
0.000000e+00		0.000000e+00		0.000000e+00
0.000000e+00		0.000000e+00		0.000000e+00
0.000000e+00		0.000000e+00		0.000000e+00
0.000000e+00		0.000000e+00		0.000000e+00
0.000000e+00		0.000000e+00		0.000000e+00
0.000000e+00		0.000000e+00		0.000000e+00
0.000000e+00		0.000000e+00		0.000000e+00
0.000000e+00		0.000000e+00		0.000000e+00
0.000000e+00		0.000000e+00		0.000000e+00
0.000000e+00		0.000000e+00		0.000000e+00
0.000000e+00		0.000000e+00		0.000000e+00
0.000000e+00		0.000000e+00		0.000000e+00
0.000000e+00		0.000000e+00		0.000000e+00
0.000000e+00		0.000000e+00		0.000000e+00
0.000000e+00		0.000000e+00		0.000000e+00
0.000000e+00		0.000000e+00		0.000000e+00
0.000000e+00		0.000000e+00		0.000000e+00
0.000000e+00		0.000000e+00		0.000000e+00
0.000000e+00		0.000000e+00		0.000000e+00
0.000000e+00		0.000000e+00		0.000000e+00
0.000000e+00		0.000000e+00		0.000000e+00
0.000000e+00		0.000000e+00		0.000000e+00
0.000000e+00		0.000000e+00		0.000000e+00
0.000000e+00		0.000000e+00		0.000000e+00
0.000000e+00		0.000000e+00		0.000000e+00
0.000000e+00		0.000000e+00		0.000000e+00
0.000000e+00		0.000000e+00		0.000000e+00
0.000000e+00		0.000000e+00		0.000000e+00
0.000000e+00		0.000000e+00		0.000000e+00
0.000000e+00		0.000000e+00		0.000000e+00
0.000000e+00		0.000000e+00		0.000000e+00
0.000000e+00		0.000000e+00		0.000000e+00
0.000000e+00		0.000000e+00		0.000000e+00
0.000000e+00		0.000000e+00		0.000000e+00
0.000000e+00		0.000000e+00		0.000000e+00
0.000000e+00		0.000000e+00		0.000000e+00
0.000000e+00		0.000000e+00		0.000000e+00
0.000000e+00		0.000000e+00		0.000000e+00
0.000000e+00		0.000000e+00		0.000000e+00
0.000000e+00		0.000000e+00		0.000000e+00
0.000000e+00		0.000000e+00		0.000000e+00
0.000000e+00		0.000000e+00		0.000000e+00
0.000000e+00		0.000000e+00		0.000000e+00
0.000000e+00		0.000000e+00		0.000000e+00
0.000000e+00		0.000000e+00		0.000000e+00
0.000000e+00		0.000000e+00		0.000000e+00
0.000000e+00		0.000000e+00		0.000000e+00
0.000000e+00		0.000000e+00		0.000000e+00
0.000000e+00		0.000000e+00		0.000000e+00
0.000000e+00		0.000000e+00		0.000000e+00
0.000000e+00		0.000000e+00		0.000000e+00
0.000000e+00		0.000000e+00		0.000000e+00
0.000000e+00		0.000000e+00		0.000000e+00
0.000000e+00		0.000000e+00		0.000000e+00
0.000000e+00		0.000000e+00		0.000000e+00
0.000000e+00		0.000000e+00		0.000000e+00
0.000000e+00		0.000000e+00		0.000000e+00
0.000000e+00		0.000000e+00		0.000000e+00
0.000000e+00		0.000000e+00		0.000000e+00
0.000000e+00		0.000000e+00		0.000000e+00
0.000000e+00		0.000000e+00		0.000000e+00
0.000000e+00		0.000000e+00		0.000000e+00
0.000000e+00		0.000000e+00		0.000000e+00
0.000000e+00		0.000000e+00		0.000000e+00
0.000000e+00		0.000000e+00		0.000000e+00
0.000000e+00		0.000000e+00		0.000000e+00
0.000000e+00		0.000000e+00		0.000000e+00
0.000000e+00		0.000000e+00		0.000000e+00
0.000000e+00		0.000000e+00		0.000000e+00
0.000000e+00		0.000000e+00		0.000000e+00
0.000000e+00		0.000000e+00		0.000000e+00
0.000000e+00		0.000000e+00		0.000000e+00
0.000000e+00		0.000000e+00		0.000000e+00
0.000000e+00		0.000000e+00		0.000000e+00
0.000000e+00		0.000000e+00		0.000000e+00
0.000000e+00		0.000000e+00		0.000000e+00
0.000000e+00		0.000000e+00		0.000000e+00
0.000000e+00		0.000000e+00		0.000000e+00
0.000000e+00		0.000000e+00		0.000000e+00
0.000000e+00		0.000000e+00		0.000000e+00
0.000000e+00		0.000000e+00		0.000000e+00
0.000000e+00		0.000000e+00		0.000000e+00
0.000000e+00		0.000000e+00		0.000000e+00
0.000000e+00		0.000000e+00		0.000000e+00
0.000000e+00		0.000000e+00		0.000000e+00
0.000000e+00		0.000000e+00		0.000000e+00
0.000000e+00		0.000000e+00		0.000000e+00
0.000000e+00		0.000000e+00		0.000000e+00
0.000000e+00		0.000000e+00		0.000000e+00
0.000000e+00		0.000000e+00		0.000000e+00
0.000000e+00		0.000000e+00		0.000000e+00
0.000000e+00		0.000000e+00		0.000000e+00
0.000000e+00		0.000000e+00		0.000000e+00
0.000000e+00		0.000000e+00		0.000000e+00
0.000000e+00		0.000000e+00		0.000000e+00
0.000000e+00		0.000000e+00		0.000000e+00
0.000000e+00		0.000000e+00		0.000000e+00
0.000000e+00		0.000000e+00		0.000000e+00
0.000000e+00		0.000000e+00		0.000000e+00
0.000000e+00		0.000000e+00		0.000000e+00
0.000000e+00		0.000000e+00		0.000000e+00
0.000000e+00		0.000000e+00		0.000000e+00
0.000000e+00		0.000000e+00		0.000000e+00
0.000000e+00		0.000000e+00		0.000000e+00
0.000000e+00		0.000000e+00		0.000000e+00
0.000000e+00		0.000000e+00		0.000000e+00
0.000000e+00		0.000000e+00		0.000000e+00
0.000000e+00		0.000000e+00		0.000000e+00
0.000000e+00		0.000000e+00		0.000000e+00
0.000000e+00		0.000000e+00		0.000000e+00
0.000000e+00		0.000000e+00		0.000000e+00
0.000000e+00		0.000000e+00		0.000000e+00
0.000000e+00		0.000000e+00		0.000000e+00
0.000000e+00		0.000000e+00		0.000000e+00
0.000000e+00		0.000000e+00		0.000000e+00
0.000000e+00		0.000000e+00		0.000000e+00
0.000000e+00		0.000000e+00		0.000000e+00
0.000000e+00		0.000000e+00		0.000000e+00
0.000000e+00		0.000000e+00		0.000000e+00
0.000000e+00		0.000000e+00		0.000000e+00
0.000000e+00		0.000000e+00		0.000000e+00
0.000000e+00		0.000000e+00		0.000000e+00
0.000000e+00		0.000000e+00		0.000000e+00
0.000000e+00		0.000000e+00		0.000000e+00
0.000000e+00		0.000000e+00		0.000000e+00
0.000000e+00		0.000000e+00		0.000000e+00
0.000000e+00		0.000000e+00		0.000000e+00
0.000000e+00		0.000000e+00		0.000000e+00
0.000000e+00		0.000000e+00		0.000000e+00
0.000000e+00		0.000000e+00		0.000000e+00
0.000000e+00		0.000000e+00		0.000000e+00
0.000000e+00		0.000000e+00		0.000000e+00
0.000000e+00		0.000000e+00		0.000000e+00
0.000000e+00		0.000000e+00		0.000000e+00
0.000000e+00		0.000000e+00		0.000000e+00
0.000000e+00		0.000000e+00		0.000000e+00
0.000000e+00		0.000000e+00		0.000000e+00
0.000000e+00		0.000000e+00		0.000000e+00
0.000000e+00		0.000000e+00		0.000000e+00
0.000000e+00		0.000000e+00		0.000000e+00
0.000000e+00		0.000000e+00		0.000000e+00
0.000000e+00		0.000000e+00		0.000000e+00
0.000000e+00		0.000000e+00		0.000000e+00
0.000000e+00		0.000000e+00		0.000000e+00
0.000000e+00		0.000000e+00		0.000000e+00
0.000000e+00		0.000000e+00		0.000000e+00
0.000000e+00		0.000000e+00		0.000000e+00
0.000000e+00		0.000000e+00		0.000000e+00
0.000000e+00		0.000000e+00		0.000000e+00
0.000000e+00		0.000000e+00		0.000000e+00
0.000000e+00		0.000000e+00		0.000000e+00
0.000000e+00		0.000000e+00		0.000000e+00
0.000000e+00		0.000000e+00		0.000000e+00
0.000000e+00		0.000000e+00		0.000000e+00
0.000000e+00		0.000000e+00		0.000000e+00
0.000000e+00		0.000000e+00		0.000000e+00
0.000000e+00		0.000000e+00		0.000000e+00
0.000000e+00		0.000000e+00		0.000000e+00
0.000000e+00		0.000000e+00		0.000000e+00
0.000000e+00		0.000000e+00		0.000000e+00
0.000000e+00		0.000000e+00		0.000000e+00
0.000000e+00		0.000000e+00		0.000000e+00
0.000000e+00		0.000000e+00		0.000000e+00
0.000000e+00		0.000000e+00		0.000000e+00
0.000000e+00		0.000000e+00		0.000000e+00
0.000000e+00		0.000000e+00		0.000000e+00
0.000000e+00		0.000000e+00		0.000000e+00
0.000000e+00		0.000000e+00		0.000000e+00
0.000000e+00		0.000000e+00		0.000000e+00
0.000000e+00		0.000000e+00		0.000000e+00
0.000000e+00		0.000000e+00		0.000000e+00
0.000000e+00		0.000000e+00		0.000000e+00
0.000000e+00		0.000000e+00		0.000000e+00
0.000000e+00		0.000000e+00		0.000000e+00
0.000000e+00		0.000000e+00		0.000000e+00
0.000000e+00		0.000000e+00		0.000000e+00
0.000000e+00		0.000000e+00		0.000000e+00
0.000000e+00		0.000000e+00		0.000000e+00
0.000000e+00		0.000000e+00		0.000000e+00
0.000000e+00		0.000000e+00		0.000000e+00
0.000000e+00		0.000000e+00		0.000000e+00
0.000000e+00		0.000000e+00		0.000000e+00
0.000000e+00		0.000000e+00		0.000000e+00
0.000000e+00		0.000000e+00		0.000000e+00
0.000000e+00		0.000000e+00		0.000000e+00
0.000000e+00		0.000000e+00		0.000000e+00
0.000000e+00		0.000000e+00		0.000000e+00
0.000000e+00		0.000000e+00		0.000000e+00
0.000000e+00		0.000000e+00		0.000000e+00
0.000000e+00		0.000000e+00		0.000000e+00
0.000000e+00		0.000000e+00		0.000000e+00
0.000000e+00		0.000000e+00		0.000000e+00
0.000000e+00		0.000000e+00		0.000000e+00
0.000000e+00		0.000000e+00		0.000000e+00
0.000000e+00		0.000000e+00		0.000000e+00
0.000000e+00		0.000000e+00		0.000000e+00
0.000000e+00		0.000000e+00		0.000000e+00
0.000000e+00		0.000000e+00		0.000000e+00
0.000000e+00		0.000000e+00		0.000000e+00
0.000000e+00		0.000000e+00		0.000000e+00
0.000000e+00		0.000000e+00		0.000000e+00
0.000000e+00		0.000000e+00		0.000000e+00
0.000000e+00		0.000000e+00		0.000000e+00
0.000000e+00		0.000000e+00		0.000000e+00
0.000000e+00		0.000000e+00		0.000000e+00
0.000000e+00		0.000000e+00		0.000000e+00
0.000000e+00		0.000000e+00		0.000000e+00
0.000000e+00		0.000000e+00		0.000000e+00
0.000000e+00		0.000000e+00		0.000000e+00
0.000000e+00		0.000000e+00		0.000000e+00
0.000000e+00		0.000000e+00		0.000000e+00
0.000000e+00		0.000000e+00		0.000000e+00
0.000000e+00		0.000000e+00		0.000000e+00
0.000000e+00		0.000000e+00		0.000000e+00
0.000000e+00		0.000000e+00		0.000000e+00
0.000000e+00		0.000000e+00		0.000000e+00
0.000000e+00		0.000000e+00		0.000000e+00
0.000000e+00		0.000000e+00		0.000000e+00
0.000000e+00		0.000000e+00		0.000000e+00
0.000000e+00		0.000000e+00		0.000000e+00
0.000000e+00		0.000000e+00		0.000000e+00
0.000000e+00		0.000000e+00		0.000000e+00
0.000000e+00		0.000000e+00		0.000000e+00
0.000000e+00		0.000000e+00		0.000000e+00
0.000000e+00		0.000000e+00		0.000000e+00
0.000000e+00		0.000000e+00		0.000000e+00
0.000000e+00		0.000000e+00		0.000000e+00
0.000000e+00		0.000000e+00		0.000000e+00
0.000000e+00		0.000000e+00		0.000000e+00
0.000000e+00		0.000000e+00		0.000000e+00
0.000000e+00		0.000000e+00		0.000000e+00
0.000000e+00		0.000000e+00		0.000000e+00
0.000000e+00		0.000000e+00		0.000000e+00
0.000000e+00		0.000000e+00		0.000000e+00
0.000000e+00		0.000000e+00		0.000000e+00
0.000000e+00		0.000000e+00		0.000000e+00
0.000000e+00		0.000000e+00		0.000000e+00
0.000000e+00		0.000000e+00		0.000000e+00
0.000000e+00		0.000000e+00		0.000000e+00
0.000000e+00		0.000000e+00		0.000000e+00
0.000000e+00		0.000000e+00		0.000000e+00
0.000000e+00		0.000000e+00		0.000000e+00
0.000000e+00		0.000000e+00		0.000000e+00
0.000000e+00		0.000000e+00		0.000000e+00
0.000000e+00		0.000000e+00		0.000000e+00
0.000000e+00		0.000000e+00		0.000000e+00
0.000000e+00		0.000000e+00		0.000000e+00
0.000000e+00		0.000000e+00		0.000000e+00
0.000000e+00		0.000000e+00		0.000000e+00
0.000000e+00		0.000000e+00		0.000000e+00
0.000000e+00		0.000000e+00		0.000000e+00
0.000000e+00		0.000000e+00		0.000000e+00
0.000000e+00		0.000000e+00		0.000000e+00
0.000000e+00		0.000000e+00		0.000000e+00
0.000000e+00		0.000000e+00		0.000000e+00
0.000000e+00		0.000000e+00		0.000000e+00
0.000000e+00		0.000000e+00		0.000000e+00
0.000000e+00		0.000000e+00		0.000000e+00
0.000000e+00		0.000000e+00		0.000000e+00
0.000000e+00		0.000000e+00		0.000000e+00
0.000000e+00		0.000000e+00		0.000000e+00
0.000000e+00		0.000000e+00		0.000000e+00
0.000000e+00		0.000000e+00		0.000000e+00
0.000000e+00		0.000000e+00		0.000000e+00
0.000000e+00		0.000000e+00		0.000000e+00
0.000000e+00		0.000000e+00		0.000000e+00
0.000000e+00		0.000000e+00		0.000000e+00
0.000000e+00		0.000000e+00		0.000000e+00
0.000000e+00		0.000000e+00		0.000000e+00
0.000000e+00		0.000000e+00		0.000000e+00
0.000000e+00		0.000000e+00		0.000000e+00
0.000000e+00		0.000000e+00		0.000000e+00
0.000000e+00		0.000000e+00		0.000000e+00
0.000000e+00		0.000000e+00		0.000000e+00
0.000000e+00		0.000000e+00		0.000000e+00
0.000000e+00		0.000000e+00		0.000000e+00
0.000000e+00		0.000000e+00		0.000000e+00
0.000000e+00		0.000000e+00		0.000000e+00
0.000000e+00		0.000000e+00		0.000000e+00
0.000000e+00		0.000000e+00		0.000000e+00
0.000000e+00		0.000000e+00		0.000000e+00
0.000000e+00		0.000000e+00		0.000000e+00
0.000000e+00		0.000000e+00		0.000000e+00
0.000000e+00		0.000000e+00		0.000000e+00
0.000000e+00		0.000000e+00		0.000000e+00
0.000000e+00		0.000000e+00		0.000000e+00
0.000000e+00		0.000000e+00		0.000000e+00
0.000000e+00		0.000000e+00		0.000000e+00
0.000000e+00		0.000000e+00		0.000000e+00
0.000000e+00		0.000000e+00		0.000000e+00
0.000000e+00		0.000000e+00		0.000000e+00
0.000000e+00		0.000000e+00		0.000000e+00
0.000000e+00		0.000000e+00		0.000000e+00
0.000000e+00		0.000000e+00		0.000000e+00
0.000000e+00		0.000000e+00		0.000000e+00
0.000000e+00		0.000000e+00		0.000000e+00
0.000000e+00		0.000000e+00		0.000000e+00
0.000000e+00		0.000000e+00		0.000000e+00
0.000000e+00		0.000000e+00		0.000000e+00
0.000000e+00		0.000000e+00		0.000000e+00
0.000000e+00		0.000000e+00		0.000000e+00
0.000000e+00		0.000000e+00		0.000000e+00
0.000000e+00		0.000000e+00		0.000000e+00
0.000000e+00		0.000000e+00		0.000000e+00
0.000000e+00		0.000000e+00		0.000000e+00
0.000000e+00		0.000000e+00		0.000000e+00
0.000000e+00		0.000000e+00		0.000000e+00
0.000000e+00		0.000000e+00		0.000000e+00
0.000000e+00		0.000000e+00		0.000000e+00
0.000000e+00		0.000000e+00		0.000000e+00
0.000000e+00		0.000000e+00		0.000000e+00
0.000000e+00		0.000000e+00		0.000000e+00
0.000000e+00		0.000000e+00		0.000000e+00
0.000000e+00		0.000000e+00		0.000000e+00
0.000000e+00		0.000000e+00		0.000000e+00
0.000000e+00		0.000000e+00		0.000000e+00
0.000000e+00		0.000000e+00		0.000000e+00
0.000000e+00		0.000000e+00		0.000000e+00
0.000000e+00		0.000000e+00		0.000000e+00
0.000000e+00		0.000000e+00		0.000000e+00
0.000000e+00		0.000000e+00		0.000000e+00
0.000000e+00		0.000000e+00		0.000000e+00
0.000000e+00		0.000000e+00		0.000000e+00
0.000000e+00		0.000000e+00		0.000000e+00
0.000000e+00		0.000000e+00		0.000000e+00
0.000000e+00		0.000000e+00		0.000000e+00
0.000000e+00		0.000000e+00		0.000000e+00
0.000000e+00		0.000000e+00		0.000000e+00
0.000000e+00		0.000000e+00		0.000000e+00
0.000000e+00		0.000000e+00		0.000000e+00
0.000000e+00		0.000000e+00		0.000000e+00
0.000000e+00		0.000000e+00		0.000000e+00
0.000000e+00		0.000000e+00		0.000000e+00
0.000000e+00		0.000000e+00		0.000000e+00
0.000000e+00		0.000000e+00		0.000000e+00
0.000000e+00		0.000000e+00		0.000000e+00
0.000000e+00		0.000000e+00		0.000000e+00
0.000000e+00		0.000000e+00		0.000000e+00
0.000000e+00		0.000000e+00		0.000000e+00
0.000000e+00		0.000000e+00		0.000000e+00
0.000000e+00		0.000000e+00		0.000000e+00
0.000000e+00		0.000000e+00		0.000000e+00
0.000000e+00		0.000000e+00		0.000000e+00
0.000000e+00		0.000000e+00		0.000000e+00
0.000000e+00		0.000000e+00		0.000000e+00
0.000000e+00		0.000000e+00		0.000000e+00
0.000000e+00		0.000000e+00		0.000000e+00
0.000000e+00		0.000000e+00		0.000000e+00
0.000000e+00		0.000000e+00		0.000000e+00
0.000000e+00		0.000000e+00		0.000000e+00
0.000000e+00		0.000000e+00		0.000000e+00
0.000000e+00		0.000000e+00		0.000000e+00
0.000000e+00		0.000000e+00		0.000000e+00
0.000000e+00		0.000000e+00		0.000000e+00
0.000000e+00		0.000000e+00		0.000000e+00
0.000000e+00		0.000000e+00		0.000000e+00
0.000000e+00		0.000000e+00		0.000000e+00
0.000000e+00		0.000000e+00		0.000000e+00
0.000000e+00		0.000000e+00		0.000000e+00
0.000000e+00		0.000000e+00		0.000000e+00
0.000000e+00		0.000000e+00		0.000000e+00
0.000000e+00		0.000000e+00		0.000000e+00
0.000000e+00		0.000000e+00		0.000000e+00
0.000000e+00		0.000000e+00		0.000000e+00
0.000000e+00		0.000000e+00		0.000000e+00
0.000000e+00		0.000000e+00		0.000000e+00
0.000000e+00		0.000000e+00		0.000000e+00
0.000000e+00		0.000000e+00		0.000000e+00
0.000000e+00		0.000000e+00		0.000000e+00
0.000000e+00		0.000000e+00		0.000000e+00
0.000000e+00		0.000000e+00		0.000000e+00
0.000000e+00		0.000000e+00		0.000000e+00
0.000000e+00		0.000000e+00		0.000000e+00
0.000000e+00		0.000000e+00		0.000000e+00
0.000000e+00		0.000000e+00		0.000000e+00
0.000000e+00		0.000000e+00		0.000000e+00
0.000000e+00		0.000000e+00		0.000000e+00
0.000000e+00		0.000000e+00		0.000000e+00
0.000000e+00		0.000000e+00		0.000000e+00
0.000000e+00		0.000000e+00		0.000000e+00
0.000000e+00		0.000000e+00		0.000000e+00
0.000000e+00		0.000000e+00		0.000000e+00
0.000000e+00		0.000000e+00		0.000000e+00
0.000000e+00		0.000000e+00		0.000000e+00
0.000000e+00		0.000000e+00		0.000000e+00
0.000000e+00		0.000000e+00		0.000000e+00
0.000000e+00		0.000000e+00		0.000000e+00
0.000000e+00		0.000000e+00		0.000000e+00
0.000000e+00		0.000000e+00		0.000000e+00
0.000000e+00		0.000000e+00		0.000000e+00
0.000000e+00		0.000000e+00		0.000000e+00
0.000000e+00		0.000000e+00		0.000000e+00
0.000000e+00		0.000000e+00		0.000000e+00
0.000000e+00		0.000000e+00		0.000000e+00
0.000000e+00		0.000000e+00		0.000000e+00
0.000000e+00		0.000000e+00		0.000000e+00
0.000000e+00		0.000000e+00		0.000000e+00
0.000000e+00		0.000000e+00		0.000000e+00
0.000000e+00		0.000000e+00		0.000000e+00
0.000000e+00		0.000000e+00		0.000000e+00
0.000000e+00		0.000000e+00		0.000000e+00
0.000000e+00		0.000000e+00		0.000000e+00
0.000000e+00		0.000000e+00		0.000000e+00
0.000000e+00		0.000000e+00		0.000000e+00
0.000000e+00		0.000000e+00		0.000000e+00
0.000000e+00		0.000000e+00		0.000000e+00
0.000000e+00		0.000000e+00		0.000000e+00
0.000000e+00		0.000000e+00		0.000000e+00
0.000000e+00		0.000000e+00		0.000000e+00
0.000000e+00		0.000000e+00		0.000000e+00
0.000000e+00		0.000000e+00		0.000000e+00
0.000000e+00		0.000000e+00		0.000000e+00
0.000000e+00		0.000000e+00		0.000000e+00
0.000000e+00		0.000000e+00		0.000000e+00
0.000000e+00		0.000000e+00		0.000000e+00
0.000000e+00		0.000000e+00		0.000000e+00
0.000000e+00		0.000000e+00		0.000000e+00
0.000000e+00		0.000000e+00		0.000000e+00
0.000000e+00		0.000000e+00		0.000000e+00
0.000000e+00		0.000000e+00		0.000000e+00
0.000000e+00		0.000000e+00		0.000000e+00
0.000000e+00		0.000000e+00		0.000000e+00
0.000000e+00		0.000000e+00		0.000000e+00
0.000000e+00		0.000000e+00		0.000000e+00
0.000000e+00		0.000000e+00		0.000000e+00
0.000000e+00		0.000000e+00		0.000000e+00
0.000000e+00		0.000000e+00		0.000000e+00
0.000000e+00		0.000000e+00		0.000000e+00
0.000000e+00		0.000000e+00		0.000000e+00
0.000000e+00		0.000000e+00		0.000000e+00
0.000000e+00		0.000000e+00		0.000000e+00
0.000000e+00		0.000000e+00		0.000000e+00
0.000000e+00		0.000000e+00		0.000000e+00
0.000000e+00		0.000000e+00		0.000000e+00
0.000000e+00		0.000000e+00		0.000000e+00
0.000000e+00		0.000000e+00		0.000000e+00
0.000000e+00		0.000000e+00		0.000000e+00
0.000000e+00		0.000000e+00		0.000000e+00
0.000000e+00		0.000000e+00		0.000000e+00
0.000000e+00		0.000000e+00		0.000000e+00
0.000000e+00		0.000000e+00		0.000000e+00
0.000000e+00		0.000000e+00		0.000000e+00
0.000000e+00		0.000000e+00		0.000000e+00
0.000000e+00		0.000000e+00		0.000000e+00
0.000000e+00		0.000000e+00		0.000000e+00
0.000000e+00		0.000000e+00		0.000000e+00
0.000000e+00		0.000000e+00		0.000000e+00
0.000000e+00		0.000000e+00		0.000000e+00
0.000000e+00		0.000000e+00		0.000000e+00
0.000000e+00		0.000000e+00		0.000000e+00
0.000000e+00		0.000000e+00		0.000000e+00
0.000000e+00		0.000000e+00		0.000000e+00
0.000000e+00		0.000000e+00		0.000000e+00
0.000000e+00		0.000000e+00		0.000000e+00
0.000000e+00		0.000000e+00		0.000000e+00
0.000000e+00		0.000000e+00		0.000000e+00
0.000000e+00		0.000000e+00		0.000000e+00
0.000000e+00		0.000000e+00		0.000000e+00
0.000000e+00		0.000000e+00		0.000000e+00
0.000000e+00		0.000000e+00		0.000000e+00
0.000000e+00		0.000000e+00		0.000000e+00
0.000000e+00		0.000000e+00		0.000000e+00
0.000000e+00		0.000000e+00		0.000000e+00
0.000000e+00		0.000000e+00		0.000000e+00
0.000000e+00		0.000000e+00		0.000000e+00
0.000000e+00		0.000000e+00		0.000000e+00
0.000000e+00		0.000000e+00		0.000000e+00
0.000000e+00		0.000000e+00		0.000000e+00
0.000000e+00		0.000000e+00		0.000000e+00
0.000000e+00		0.000000e+00		0.000000e+00
0.000000e+00		0.000000e+00		0.000000e+00
0.000000e+00		0.000000e+00		0.000000e+00
0.000000e+00		0.000000e+00		0.000000e+00
0.000000e+00		0.000000e+00		0.000000e+00
0.000000e+00		0.000000e+00		0.000000e+00
0.000000e+00		0.000000e+00		0.000000e+00
0.000000e+00		0.000000e+00		0.000000e+00
0.000000e+00		0.000000e+00		0.000000e+00
0.000000e+00		0.000000e+00		0.000000e+00
0.000000e+00		0.000000e+00		0.000000e+00
0.000000e+00		0.000000e+00		0.000000e+00
0.000000e+00		0.000000e+00		0.000000e+00
0.000000e+00		0.000000e+00		0.000000e+00
0.000000e+00		0.000000e+00		0.000000e+00
0.000000e+00		0.000000e+00		0.000000e+00
0.000000e+00		0.000000e+00		0.000000e+00
0.000000e+00		0.000000e+00		0.000000e+00
0.000000e+00		0.000000e+00		0.000000e+00
0.000000e+00		0.000000e+00		0.000000e+00
0.000000e+00		0.000000e+00		0.000000e+00
0.000000e+00		0.000000e+00		0.000000e+00
0.000000e+00		0.000000e+00		0.000000e+00
0.000000e+00		0.000000e+00		0.000000e+00
0.000000e+00		0.000000e+00		0.000000e+00
0.000000e+00		0.000000e+00		0.000000e+00
0.000000e+00		0.000000e+00		0.000000e+00
0.000000e+00		0.000000e+00		0.000000e+00
0.000000e+00		0.000000e+00		0.000000e+00
0.000000e+00		0.000000e+00		0.000000e+00
0.000000e+00		0.000000e+00		0.000000e+00
0.000000e+00		0.000000e+00		0.000000e+00
0.000000e+00		0.000000e+00		0.000000e+00
0.000000e+00		0.000000e+00		0.000000e+00
0.000000e+00		0.000000e+00		0.000000e+00
0.000000e+00		0.000000e+00		0.000000e+00
0.000000e+00		0.000000e+00		0.000000e+00
0.000000e+00		0.000000e+00		0.000000e+00
0.000000e+00		0.000000e+00		0.000000e+00
0.000000e+00		0.000000e+00		0.000000e+00
0.000000e+00		0.000000e+00		0.000000e+00
0.000000e+00		0.000000e+00		0.000000e+00
0.000000e+00		0.000000e+00		0.000000e+00
0.000000e+00		0.000000e+00		0.000000e+00
0.000000e+00		0.000000e+00		0.000000e+00
0.000000e+00		0.000000e+00		0.000000e+00
0.000000e+00		0.000000e+00		0.000000e+00
0.000000e+00		0.000000e+00		0.000000e+00
0.000000e+00		0.000000e+00		0.000000e+00
0.000000e+00		0.000000e+00		0.000000e+00
0.000000e+00		0.000000e+00		0.000000e+00
0.000000e+00		0.000000e+00		0.000000e+00
0.000000e+00		0.000000e+00		0.000000e+00
0.000000e+00		0.000000e+00		0.000000e+00
0.000000e+00		0.000000e+00		0.000000e+00
0.000000e+00		0.000000e+00		0.000000e+00
0.000000e+00		0.000000e+00		0.000000e+00
0.000000e+00		0.000000e+00		0.000000e+00
0.000000e+00		0.000000e+00		0.000000e+00
0.000000e+00		0.000000e+00		0.000000e+00
0.000000e+00		0.000000e+00		0.000000e+00
0.000000e+00		0.000000e+00		0.000000e+00
0.000000e+00		0.000000e+00		0.000000e+00
0.000000e+00		0.000000e+00		0.000000e+00
0.000000e+00		0.000000e+00		0.000000e+00
0.000000e+00		0.000000e+00		0.000000e+00
0.000000e+00		0.000000e+00		0.000000e+00
0.000000e+00		0.000000e+00		0.000000e+00
0.000000e+00		0.000000e+00		0.000000e+00
0.000000e+00		0.000000e+00		0.000000e+00
0.000000e+00		0.000000e+00		0.000000e+00
0.000000e+00		0.000000e+00		0.000000e+00
0.000000e+00		0.000000e+00		0.000000e+00
0.000000e+00		0.000000e+00		0.000000e+00
0.000000e+00		0.000000e+00		0.000000e+00
0.000000e+00		0.000000e+00		0.000000e+00
0.000000e+00		0.000000e+00		0.000000e+00
0.000000e+00		0.000000e+00		0.000000e+00
0.000000e+00		0.000000e+00		0.000000e+00
0.000000e+00		0.000000e+00		0.000000e+00
0.000000e+00		0.000000e+00		0.000000e+00
0.000000e+00		0.000000e+00		0.000000e+00
0.000000e+00		0.000000e+00		0.000000e+00
0.000000e+00		0.000000e+00		0.000000e+00
0.000000e+00		0.000000e+00		0.000000e+00
0.000000e+00		0.000000e+00		0.000000e+00
0.000000e+00		0.000000e+00		0.000000e+00
0.000000e+00		0.000000e+00		0.000000e+00
0.000000e+00		0.000000e+00		0.000000e+00
0.000000e+00		0.000000e+00		0.000000e+00
0.000000e+00		0.000000e+00		0.000000e+00
0.000000e+00		0.000000e+00		0.000000e+00
0.000000e+00		0.000000e+00		0.000000e+00
0.000000e+00		0.000000e+00		0.000000e+00
0.000000e+00		0.000000e+00		0.000000e+00
0.000000e+00		0.000000e+00		0.000000e+00
0.000000e+00		0.000000e+00		0.000000e+00
0.000000e+00		0.000000e+00		0.000000e+00
0.000000e+00		0.000000e+00		0.000000e+00
0.000000e+00		0.000000e+00		0.000000e+00
0.000000e+00		0.000000e+00		0.000000e+00
0.000000e+00		0.000000e+00		0.000000e+00
0.000000e+00		0.000000e+00		0.000000e+00
0.000000e+00		0.000000e+00		0.000000e+00
0.000000e+00		0.000000e+00		0.000000e+00
0.000000e+00		0.000000e+00		0.000000e+00
0.000000e+00		0.000000e+00		0.000000e+00
0.000000e+00		0.000000e+00		0.000000e+00
0.000000e+00		0.000000e+00		0.000000e+00
0.000000e+00		0.000000e+00		0.000000e+00
0.000000e+00		0.000000e+00		0.000000e+00
0.000000e+00		0.000000e+00		0.000000e+00
0.000000e+00		0.000000e+00		0.000000e+00
0.000000e+00		0.000000e+00		0.000000e+00
0.000000e+00		0.000000e+00		0.000000e+00
0.000000e+00		0.000000e+00		0.000000e+00
0.000000e+00		0.000000e+00		0.000000e+00
0.000000e+00		0.000000e+00		0.000000e+00
0.000000e+00		0.000000e+00		0.000000e+00
0.000000e+00		0.000000e+00		0.000000e+00
0.000000e+00		0.000000e+00		0.000000e+00
0.000000e+00		0.000000e+00		0.000000e+00
0.000000e+00		0.000000e+00		0.000000e+00
0.000000e+00		0.000000e+00		0.000000e+00
0.000000e+00		0.000000e+00		0.000000e+00
0.000000e+00		0.000000e+00		0.000000e+00
0.000000e+00		0.000000e+00		0.000000e+00
0.000000e+00		0.000000e+00		0.000000e+00
0.000000e+00		0.000000e+00		0.000000e+00
0.000000e+00		0.000000e+00		0.000000e+00
0.000000e+00		0.000000e+00		0.000000e+00
0.000000e+00		0.000000e+00		0.000000e+00
0.000000e+00		0.000000e+00		0.000000e+00
0.000000e+00		0.000000e+00		0.000000e+00
0.000000e+00		0.000000e+00		0.000000e+00
0.000000e+00		0.000000e+00		0.000000e+00
0.000000e+00		0.000000e+00		0.000000e+00
0.000000e+00		0.000000e+00		0.000000e+00
0.000000e+00		0.000000e+00		0.000000e+00
0.000000e+00		0.000000e+00		0.000000e+00
0.000000e+00		0.000000e+00		0.000000e+00
0.000000e+00		0.000000e+00		0.000000e+00
0.000000e+00		0.000000e+00		0.000000e+00
0.000000e+00		0.000000e+00		0.000000e+00
0.000000e+00		0.000000e+00		0.000000e+00
0.000000e+00		0.000000e+00		0.000000e+00
0.000000e+00		0.000000e+00		0.000000e+00
0.000000e+00		0.000000e+00		0.000000e+00
0.000000e+00		0.000000e+00		0.000000e+00
0.000000e+00		0.000000e+00		0.000000e+00
0.000000e+00		0.000000e+00		0.000000e+00
0.000000e+00		0.000000e+00		0.000000e+00
0.000000e+00		0.000000e+00		0.000000e+00
0.000000e+00		0.000000e+00		0.000000e+00
0.000000e+00		0.000000e+00		0.000000e+00
0.000000e+00		0.000000e+00		0.000000e+00
0.000000e+00		0.000000e+00		0.000000e+00
0.000000e+00		0.000000e+00		0.000000e+00
0.000000e+00		0.000000e+00		0.000000e+00
0.000000e+00		0.000000e+00		0.000000e+00
0.000000e+00		0.000000e+00		0.000000e+00
0.000000e+00		0.000000e+00		0.000000e+00
0.000000e+00		0.000000e+00		0.000000e+00
0.000000e+00		0.000000e+00		0.000000e+00
0.000000e+00		0.000000e+00		0.000000e+00
0.000000e+00		0.000000e+00		0.000000e+00
0.000000e+00		0.000000e+00		0.000000e+00
0.000000e+00		0.000000e+00		0.000000e+00
0.000000e+00		0.000000e+00		0.000000e+00
0.000000e+00		0.000000e+00		0.000000e+00
0.000000e+00		0.000000e+00		0.000000e+00
0.000000e+00		0.000000e+00		0.000000e+00
0.000000e+00		0.000000e+00		0.000000e+00
0.000000e+00		0.000000e+00		0.000000e+00
0.000000e+00		0.000000e+00		0.000000e+00
0.000000e+00		0.000000e+00		0.000000e+00
0.000000e+00		0.000000e+00		0.000000e+00
0.000000e+00		0.000000e+00		0.000000e+00
0.000000e+00		0.000000e+00		0.000000e+00
0.000000e+00		0.000000e+00		0.000000e+00
0.000000e+00		0.000000e+00		0.000000e+00
0.000000e+00		0.000000e+00		0.000000e+00
0.000000e+00		0.000000e+00		0.000000e+00
0.000000e+00		0.000000e+00		0.000000e+00
0.000000e+00		0.000000e+00		0.000000e+00
0.000000e+00		0.000000e+00		0.000000e+00
0.000000e+00		0.000000e+00		0.000000e+00
0.000000e+00		0.000000e+00		0.000000e+00
0.000000e+00		0.000000e+00		0.000000e+00
0.000000e+00		0.000000e+00		0.000000e+00
0.000000e+00		0.000000e+00		0.000000e+00
0.000000e+00		0.000000e+00		0.000000e+00
0.000000e+00		0.000000e+00		0.000000e+00
0.000000e+00		0.000000e+00		0.000000e+00
0.000000e+00		0.000000e+00		0.000000e+00
0.000000e+00		0.000000e+00		0.000000e+00
0.000000e+00		0.000000e+00		0.000000e+00
0.000000e+00		0.000000e+00		0.000000e+00
0.000000e+00		0.000000e+00		0.000000e+00
0.000000e+00		0.000000e+00		0.000000e+00
0.000000e+00		0.000000e+00		0.000000e+00
0.000000e+00		0.000000e+00		0.000000e+00
0.000000e+00		0.000000e+00		0.000000e+00
0.000000e+00		0.000000e+00		0.000000e+00
0.000000e+00		0.000000e+00		0.000000e+00
0.000000e+00		0.000000e+00		0.000000e+00
0.000000e+00		0.000000e+00		0.000000e+00
0.000000e+00		0.000000e+00		0.000000e+00
0.000000e+00		0.000000e+00		0.000000e+00
0.000000e+00		0.000000e+00		0.000000e+00
0.000000e+00		0.000000e+00		0.000000e+00
0.000000e+00		0.000000e+00		0.000000e+00
0.000000e+00		0.000000e+00		0.000000e+00
0.000000e+00		0.000000e+00		0.000000e+00
0.000000e+00		0.000000e+00		0.000000e+00
0.000000e+00		0.000000e+00		0.000000e+00
0.000000e+00		0.000000e+00		0.000000e+00
0.000000e+00		0.000000e+00		0.000000e+00
0.000000e+00		0.000000e+00		0.000000e+00
0.000000e+00		0.000000e+00		0.000000e+00
0.000000e+00		0.000000e+00		0.000000e+00
0.000000e+00		0.000000e+00		0.000000e+00
0.000000e+00		0.000000e+00		0.000000e+00
0.000000e+00		0.000000e+00		0.000000e+00
0.000000e+00		0.000000e+00		0.000000e+00
0.000000e+00		0.000000e+00		0.000000e+00
0.000000e+00		0.000000e+00		0.000000e+00
0.000000e+00		0.000000e+00		0.000000e+00
0.000000e+00		0.000000e+00		0.000000e+00
0.000000e+00		0.000000e+00		0.000000e+00
0.000000e+00		0.000000e+00		0.000000e+00
0.000000e+00		0.000000e+00		0.000000e+00
0.000000e+00		0.000000e+00		0.000000e+00
0.000000e+00		0.000000e+00		0.000000e+00
0.000000e+00		0.000000e+00		0.000000e+00
0.000000e+00		0.000000e+00		0.000000e+00
0.000000e+00		0.000000e+00		0.000000e+00
0.000000e+00		0.000000e+00		0.000000e+00
0.000000e+00		0.000000e+00		0.000000e+00
0.000000e+00		0.000000e+00		0.000000e+00
0.000000e+00		0.000000e+00		0.000000e+00
0.000000e+00		0.000000e+00		0.000000e+00
0.000000e+00		0.000000e+00		0.000000e+00
0.000000e+00		0.000000e+00		0.000000e+00
0.000000e+00		0.000000e+00		0.000000e+00
0.000000e+00		0.000000e+00		0.000000e+00
0.000000e+00		0.000000e+00		0.000000e+00
0.000000e+00		0.000000e+00		0.000000e+00
0.000000e+00		0.000000e+00		0.000000e+00
0.000000e+00		0.000000e+00		0.000000e+00
0.000000e+00		0.000000e+00		0.000000e+00
0.000000e+00		0.000000e+00		0.000000e+00
0.000000e+00		0.000000e+00		0.000000e+00
0.000000e+00		0.000000e+00		0.000000e+00
0.000000e+00		0.000000e+00		0.000000e+00
0.000000e+00		0.000000e+00		0.000000e+00
0.000000e+00		0.000000e+00		0.000000e+00
0.000000e+00		0.000000e+00		0.000000e+00
0.000000e+00		0.000000e+00		0.000000e+00
0.000000e+00		0.000000e+00		0.000000e+00
0.000000e+00		0.000000e+00		0.000000e+00
0.000000e+00		0.000000e+00		0.000000e+00
0.000000e+00		0.000000e+00		0.000000e+00
0.000000e+00		0.000000e+00		0.000000e+00
0.000000e+00		0.000000e+00		0.000000e+00
0.000000e+00		0.000000e+00		0.000000e+00
0.000000e+00		0.000000e+00		0.000000e+00
0.000000e+00		0.000000e+00		0.000000e+00
0.000000e+00		0.000000e+00		0.000000e+00
0.000000e+00		0.000000e+00		0.000000e+00
0.000000e+00		0.000000e+00		0.000000e+00
0.000000e+00		0.000000e+00		0.000000e+00
0.000000e+00		0.000000e+00		0.000000e+00
0.000000e+00		0.000000e+00		0.000000e+00
0.000000e+00		0.000000e+00		0.000000e+00
0.000000e+00		0.000000e+00		0.000000e+00
0.000000e+00		0.000000e+00		0.000000e+00
0.000000e+00		0.000000e+00		0.000000e+00
0.000000e+00		0.000000e+00		0.000000e+00
0.000000e+00		0.000000e+00		0.000000e+00
0.000000e+00		0.000000e+00		0.000000e+00
0.000000e+00		0.000000e+00		0.000000e+00
0.000000e+00		0.000000e+00		0.000000e+00
0.000000e+00		0.000000e+00		0.000000e+00
0.000000e+00		0.000000e+00		0.000000e+00
0.000000e+00		0.000000e+00		0.000000e+00
0.000000e+00		0.000000e+00		0.000000e+00
0.000000e+00		0.000000e+00		0.000000e+00
0.000000e+00		0.000000e+00		0.000000e+00
0.000000e+00		0.000000e+00		0.000000e+00
0.000000e+00		0.000000e+00		0.000000e+00
0.000000e+00		0.000000e+00		0.000000e+00
0.000000e+00		0.000000e+00		0.000000e+00
0.000000e+00		0.000000e+00		0.000000e+00
0.000000e+00		0.000000e+00		0.000000e+00
0.000000e+00		0.000000e+00		0.000000e+00
0.000000e+00		0.000000e+00		0.000000e+00
0.000000e+00		0.000000e+00		0.000000e+00
0.000000e+00		0.000000e+00		0.000000e+00
0.000000e+00		0.000000e+00		0.000000e+00
0.000000e+00		0.000000e+00		0.000000e+00
0.000000e+00		0.000000e+00		0.000000e+00
0.000000e+00		0.000000e+00		0.000000e+00
0.000000e+00		0.000000e+00		0.000000e+00
0.000000e+00		0.000000e+00		0.000000e+00
0.000000e+00		0.000000e+00		0.000000e+00
0.000000e+00		0.000000e+00		0.000000e+00
0.000000e+00		0.000000e+00		0.000000e+00
0.000000e+00		0.000000e+00		0.000000e+00
0.000000e+00		0.000000e+00		0.000000e+00
0.000000e+00		0.000000e+00		0.000000e+00
0.000000e+00		0.000000e+00		0.000000e+00
0.000000e+00		0.000000e+00		0.000000e+00
0.000000e+00		0.000000e+00		0.000000e+00
0.000000e+00		0.000000e+00		0.000000e+00
0.000000e+00		0.000000e+00		0.000000e+00
0.000000e+00		0.000000e+00		0.000000e+00
0.000000e+00		0.000000e+00		0.000000e+00
0.000000e+00		0.000000e+00		0.000000e+00
0.000000e+00		0.000000e+00		0.000000e+00
0.000000e+00		0.000000e+00		0.000000e+00
0.000000e+00		0.000000e+00		0.000000e+00
0.000000e+00		0.000000e+00		0.000000e+00
0.000000e+00		0.000000e+00		0.000000e+00
0.000000e+00		0.000000e+00		0.000000e+00
0.000000e+00		0.000000e+00		0.000000e+00
0.000000e+00		0.000000e+00		0.000000e+00
0.000000e+00		0.000000e+00		0.000000e+00
0.000000e+00		0.000000e+00		0.000000e+00
0.000000e+00		0.000000e+00		0.000000e+00
0.000000e+00		0.000000e+00		0.000000e+00
0.000000e+00		0.000000e+00		0.000000e+00
0.000000e+00		0.000000e+00		0.000000e+00
0.000000e+00		0.000000e+00		0.000000e+00
0.000000e+00		0.000000e+00		0.000000e+00
0.000000e+00		0.000000e+00		0.000000e+00
0.000000e+00		0.000000e+00		0.000000e+00
0.000000e+00		0.000000e+00		0.000000e+00
0.000000e+00		0.000000e+00		0.000000e+00
0.000000e+00		0.000000e+00		0.000000e+00
0.000000e+00		0.000000e+00		0.000000e+00
0.000000e+00		0.000000e+00		0.000000e+00
0.000000e+00		0.000000e+00		0.000000e+00
0.000000e+00		0.000000e+00		0.000000e+00
0.000000e+00		0.000000e+00		0.000000e+00
0.000000e+00		0.000000e+00		0.000000e+00
0.000000e+00		0.000000e+00		0.000000e+00
0.000000e+00		0.000000e+00		0.000000e+00
0.000000e+00		0.000000e+00		0.000000e+00
0.000000e+00		0.000000e+00		0.000000e+00
0.000000e+00		0.000000e+00		0.000000e+00
0.000000e+00		0.000000e+00		0.000000e+00
0.000000e+00		0.000000e+00		0.000000e+00
0.000000e+00		0.000000e+00		0.000000e+00
0.000000e+00		0.000000e+00		0.000000e+00
0.000000e+00		0.000000e+00		0.000000e+00
0.000000e+00		0.000000e+00		0.000000e+00
0.000000e+00		0.000000e+00		0.000000e+00
0.000000e+00		0.000000e+00		0.000000e+00
0.000000e+00		0.000000e+00		0.000000e+00
0.000000e+00		0.000000e+00		0.000000e+00
0.000000e+00		0.000000e+00		0.000000e+00
0.000000e+00		0.000000e+00		0.000000e+00
0.000000e+00		0.000000e+00		0.000000e+00
0.000000e+00		0.000000e+00		0.000000e+00
0.000000e+00		0.000000e+00		0.000000e+00
0.000000e+00		0.000000e+00		0.000000e+00
0.000000e+00		0.000000e+00		0.000000e+00
0.000000e+00		0.000000e+00		0.000000e+00
0.000000e+00		0.000000e+00		0.000000e+00
0.000000e+00		0.000000e+00		0.000000e+00
0.000000e+00		0.000000e+00		0.000000e+00
0.000000e+00		0.000000e+00		0.000000e+00
0.000000e+00		0.000000e+00		0.000000e+00
0.000000e+00		0.000000e+00		0.000000e+00
0.000000e+00		0.000000e+00		0.000000e+00
0.000000e+00		0.000000e+00		0.000000e+00
0.000000e+00		0.000000e+00		0.000000e+00
0.000000e+00		0.000000e+00		0.000000e+00
0.000000e+00		0.000000e+00		0.000000e+00
0.000000e+00		0.000000e+00		0.000000e+00
0.000000e+00		0.000000e+00		0.000000e+00
0.000000e+00		0.000000e+00		0.000000e+00
0.000000e+00		0.000000e+00		0.000000e+00
0.000000e+00		0.000000e+00		0.000000e+00
0.000000e+00		0.000000e+00		0.000000e+00
0.000000e+00		0.000000e+00		0.000000e+00
0.000000e+00		0.000000e+00		0.000000e+00
0.000000e+00		0.000000e+00		0.000000e+00
0.000000e+00		0.000000e+00		0.000000e+00
0.000000e+00		0.000000e+00		0.000000e+00
0.000000e+00		0.000000e+00		0.000000e+00
0.000000e+00		0.000000e+00		0.000000e+00
0.000000e+00		0.000000e+00		0.000000e+00
0.000000e+00		0.000000e+00		0.000000e+00
0.000000e+00		0.000000e+00		0.000000e+00
0.000000e+00		0.000000e+00		0.000000e+00
0.000000e+00		0.000000e+00		0.000000e+00
0.000000e+00		0.000000e+00		0.000000e+00
0.000000e+00		0.000000e+00		0.000000e+00
0.000000e+00		0.000000e+00		0.000000e+00
0.000000e+00		0.000000e+00		0.000000e+00
0.000000e+00		0.000000e+00		0.000000e+00
0.000000e+00		0.000000e+00		0.000000e+00
0.000000e+00		0.000000e+00		0.000000e+00
0.000000e+00		0.000000e+00		0.000000e+00
0.000000e+00		0.000000e+00		0.000000e+00
0.000000e+00		0.000000e+00		0.000000e+00
0.000000e+00		0.000000e+00		0.000000e+00
0.000000e+00		0.000000e+00		0.000000e+00
0.000000e+00		0.000000e+00		0.000000e+00
0.000000e+00		0.000000e+00		0.000000e+00
0.000000e+00		0.000000e+00		0.000000e+00
0.000000e+00		0.000000e+00		0.000000e+00
0.000000e+00		0.000000e+00		0.000000e+00
0.000000e+00		0.000000e+00		0.000000e+00
0.000000e+00		0.000000e+00		0.000000e+00
0.000000e+00		0.000000e+00		0.000000e+00
0.000000e+00		0.000000e+00		0.000000e+00
0.000000e+00		0.000000e+00		0.000000e+00
0.000000e+00		0.000000e+00		0.000000e+00
0.000000e+00		0.000000e+00		0.000000e+00
0.000000e+00		0.000000e+00		0.000000e+00
0.000000e+00		0.000000e+00		0.000000e+00
0.000000e+00		0.000000e+00		0.000000e+00
0.000000e+00		0.000000e+00		0.000000e+00
0.000000e+00		0.000000e+00		0.000000e+00
0.000000e+00		0.000000e+00		0.000000e+00
0.000000e+00		0.000000e+00		0.000000e+00
0.000000e+00		0.000000e+00		0.000000e+00
0.000000e+00		0.000000e+00		0.000000e+00
0.000000e+00		0.000000e+00		0.000000e+00
0.000000e+00		0.000000e+00		0.000000e+00
0.000000e+00		0.000000e+00		0.000000e+00
0.000000e+00		0.000000e+00		0.000000e+00
0.000000e+00		0.000000e+00		0.000000e+00
0.000000e+00		0.000000e+00		0.000000e+00
0.000000e+00		0.000000e+00		0.000000e+00
0.000000e+00		0.000000e+00		0.000000e+00
0.000000e+00		0.000000e+00		0.000000e+00
0.000000e+00		0.000000e+00		0.000000e+00
0.000000e+00		0.000000e+00		0.000000e+00
0.000000e+00		0.000000e+00		0.000000e+00
0.000000e+00		0.000000e+00		0.000000e+00
0.000000e+00		0.000000e+00		0.000000e+00
0.000000e+00		0.000000e+00		0.000000e+00
0.000000e+00		0.000000e+00		0.000000e+00
0.000000e+00		0.000000e+00		0.000000e+00
0.000000e+00		0.000000e+00		0.000000e+00
0.000000e+00		0.000000e+00		0.000000e+00
0.000000e+00		0.000000e+00		0.000000e+00
0.000000e+00		0.000000e+00		0.000000e+00
0.000000e+00		0.000000e+00		0.000000e+00
0.000000e+00		0.000000e+00		0.000000e+00
0.000000e+00		0.000000e+00		0.000000e+00
0.000000e+00		0.000000e+00		0.000000e+00
0.000000e+00		0.000000e+00		0.000000e+00
0.000000e+00		0.000000e+00		0.000000e+00
0.000000e+00		0.000000e+00		0.000000e+00
0.000000e+00		0.000000e+00		0.000000e+00
0.000000e+00		0.000000e+00		0.000000e+00
0.000000e+00		0.000000e+00		0.000000e+00
0.000000e+00		0.000000e+00		0.000000e+00
0.000000e+00		0.000000e+00		0.000000e+00
0.000000e+00		0.000000e+00		0.000000e+00
0.000000e+00		0.000000e+00		0.000000e+00
0.000000e+00		0.000000e+00		0.000000e+00
0.000000e+00		0.000000e+00		0.000000e+00
0.000000e+00		0.000000e+00		0.000000e+00
0.000000e+00		0.000000e+00		0.000000e+00
0.000000e+00		0.000000e+00		0.000000e+00
0.000000e+00		0.000000e+00		0.000000e+00
0.000000e+00		0.000000e+00		0.000000e+00
0.000000e+00		0.000000e+00		0.000000e+00
0.000000e+00		0.000000e+00		0.000000e+00
0.000000e+00		0.000000e+00		0.000000e+00
0.000000e+00		0.000000e+00		0.000000e+00
0.000000e+00		0.000000e+00		0.000000e+00
0.000000e+00		0.000000e+00		0.000000e+00
0.000000e+00		0.000000e+00		0.000000e+00
0.000000e+00		0.000000e+00		0.000000e+00
0.000000e+00		0.000000e+00		0.000000e+00
0.000000e+00		0.000000e+00		0.000000e+00
0.000000e+00		0.000000e+00		0.000000e+00
0.000000e+00		0.000000e+00		0.000000e+00
0.000000e+00		0.000000e+00		0.000000e+00
0.000000e+00		0.000000e+00		0.000000e+00
0.000000e+00		0.000000e+00		0.000000e+00
0.000000e+00		0.000000e+00		0.000000e+00
0.000000e+00		0.000000e+00		0.000000e+00
0.000000e+00		0.000000e+00		0.000000e+00
0.000000e+00		0.000000e+00		0.000000e+00
0.000000e+00		0.000000e+00		0.000000e+00
0.000000e+00		0.000000e+00		0.000000e+00
0.000000e+00		0.000000e+00		0.000000e+00
0.000000e+00		0.000000e+00		0.000000e+00
0.000000e+00		0.000000e+00		0.000000e+00
0.000000e+00		0.000000e+00		0.000000e+00
0.000000e+00		0.000000e+00		0.000000e+00
0.000000e+00		0.000000e+00		0.000000e+00
0.000000e+00		0.000000e+00		0.000000e+00
0.000000e+00		0.000000e+00		0.000000e+00
0.000000e+00		0.000000e+00		0.000000e+00
0.000000e+00		0.000000e+00		0.000000e+00
0.000000e+00		0.000000e+00		0.000000e+00
0.000000e+00		0.000000e+00		0.000000e+00
0.000000e+00		0.000000e+00		0.000000e+00
0.000000e+00		0.000000e+00		0.000000e+00
0.000000e+00		0.000000e+00		0.000000e+00
0.000000e+00		0.000000e+00		0.000000e+00
0.000000e+00		0.000000e+00		0.000000e+00
0.000000e+00		0.000000e+00		0.000000e+00
0.000000e+00		0.000000e+00		0.000000e+00
0.000000e+00		0.000000e+00		0.000000e+00
0.000000e+00		0.000000e+00		0.000000e+00
0.000000e+00		0.000000e+00		0.000000e+00
0.000000e+00		0.000000e+00		0.000000e+00
0.000000e+00		0.000000e+00		0.000000e+00
0.000000e+00		0.000000e+00		0.000000e+00
0.000000e+00		0.000000e+00		0.000000e+00
0.000000e+00		0.000000e+00		0.000000e+00
0.000000e+00		0.000000e+00		0.000000e+00
0.000000e+00		0.000000e+00		0.000000e+00
0.000000e+00		0.000000e+00		0.000000e+00
0.000000e+00		0.000000e+00		0.000000e+00
0.000000e+00		0.000000e+00		0.000000e+00
0.000000e+00		0.000000e+00		0.000000e+00
0.000000e+00		0.000000e+00		0.000000e+00
0.000000e+00		0.000000e+00		0.000000e+00
0.000000e+00		0.000000e+00		0.000000e+00
0.000000e+00		0.000000e+00		0.000000e+00
0.000000e+00		0.000000e+00		0.000000e+00
0.000000e+00		0.000000e+00		0.000000e+00
0.000000e+00		0.000000e+00		0.000000e+00
0.000000e+00		0.000000e+00		0.000000e+00
0.000000e+00		0.000000e+00		0.000000e+00
0.000000e+00		0.000000e+00		0.000000e+00
0.000000e+00		0.000000e+00		0.000000e+00
0.000000e+00		0.000000e+00		0.000000e+00
0.000000e+00		0.000000e+00		0.000000e+00
0.000000e+00		0.000000e+00		0.000000e+00
0.000000e+00		0.000000e+00		0.000000e+00
0.000000e+00		0.000000e+00		0.000000e+00
0.000000e+00		0.000000e+00		0.000000e+00
0.000000e+00		0.000000e+00		0.000000e+00
0.000000e+00		0.000000e+00		0.000000e+00
0.000000e+00		0.000000e+00		0.000000e+00
0.000000e+00		0.000000e+00		0.000000e+00
0.000000e+00		0.000000e+00		0.000000e+00
0.000000e+00		0.000000e+00		0.000000e+00
0.000000e+00		0.000000e+00		0.000000e+00
0.000000e+00		0.000000e+00		0.000000e+00
0.000000e+00		0.000000e+00		0.000000e+00
0.000000e+00		0.000000e+00		0.000000e+00
0.000000e+00		0.000000e+00		0.000000e+00
0.000000e+00		0.000000e+00		0.000000e+00
0.000000e+00		0.000000e+00		0.000000e+00
0.000000e+00		0.000000e+00		0.000000e+00
0.000000e+00		0.000000e+00		0.000000e+00
0.000000e+00		0.000000e+00		0.000000e+00
0.000000e+00		0.000000e+00		0.000000e+00
0.000000e+00		0.000000e+00		0.000000e+00
0.000000e+00		0.000000e+00		0.000000e+00
0.000000e+00		0.000000e+00		0.000000e+00
0.000000e+00		0.000000e+00		0.000000e+00
0.000000e+00		0.000000e+00		0.000000e+00
0.000000e+00		0.000000e+00		0.000000e+00
0.000000e+00		0.000000e+00		0.000000e+00
0.000000e+00		0.000000e+00		0.000000e+00
0.000000e+00		0.000000e+00		0.000000e+00
0.000000e+00		0.000000e+00		0.000000e+00
0.000000e+00		0.000000e+00		0.000000e+00
0.000000e+00		0.000000e+00		0.000000e+00
0.000000e+00		0.000000e+00		0.000000e+00
0.000000e+00		0.000000e+00		0.000000e+00
0.000000e+00		0.000000e+00		0.000000e+00
0.000000e+00		0.000000e+00		0.000000e+00
0.000000e+00		0.000000e+00		0.000000e+00
0.000000e+00		0.000000e+00		0.000000e+00
0.000000e+00		0.000000e+00		0.000000e+00
0.000000e+00		0.000000e+00		0.000000e+00
0.000000e+00		0.000000e+00		0.000000e+00
0.000000e+00		0.000000e+00		0.000000e+00
0.000000e+00		0.000000e+00		0.000000e+00
0.000000e+00		0.000000e+00		0.000000e+00
0.000000e+00		0.000000e+00		0.000000e+00
0.000000e+00		0.000000e+00		0.000000e+00
0.000000e+00		0.000000e+00		0.000000e+00
0.000000e+00		0.000000e+00		0.000000e+00
0.000000e+00		0.000000e+00		0.000000e+00
0.000000e+00		0.000000e+00		0.000000e+00
0.000000e+00		0.000000e+00		0.000000e+00
0.000000e+00		0.000000e+00		0.000000e+00
0.000000e+00		0.000000e+00		0.000000e+00
0.000000e+00		0.000000e+00		0.000000e+00
0.000000e+00		0.000000e+00		0.000000e+00
0.000000e+00		0.000000e+00		0.000000e+00
0.000000e+00		0.000000e+00		0.000000e+00
0.000000e+00		0.000000e+00		0.000000e+00
0.000000e+00		0.000000e+00		0.000000e+00
0.000000e+00		0.000000e+00		0.000000e+00
0.000000e+00		0.000000e+00		0.000000e+00
0.000000e+00		0.000000e+00		0.000000e+00
0.000000e+00		0.000000e+00		0.000000e+00
0.000000e+00		0.000000e+00		0.000000e+00
0.000000e+00		0.000000e+00		0.000000e+00
0.000000e+00		0.000000e+00		0.000000e+00
0.000000e+00		0.000000e+00		0.000000e+00
0.000000e+00		0.000000e+00		0.000000e+00
0.000000e+00		0.000000e+00		0.000000e+00
0.000000e+00		0.000000e+00		0.000000e+00
0.000000e+00		0.000000e+00		0.000000e+00
0.000000e+00		0.000000e+00		0.000000e+00
0.000000e+00		0.000000e+00		0.000000e+00
0.000000e+00		0.000000e+00		0.000000e+00
0.000000e+00		0.000000e+00		0.000000e+00
0.000000e+00		0.000000e+00		0.000000e+00
0.000000e+00		0.000000e+00		0.000000e+00
0.000000e+00		0.000000e+00		0.000000e+00
0.000000e+00		0.000000e+00		0.000000e+00
0.000000e+00		0.000000e+00		0.000000e+00
0.000000e+00		0.000000e+00		0.000000e+00
0.000000e+00		0.000000e+00		0.000000e+00
0.000000e+00		0.000000e+00		0.000000e+00
0.000000e+00		0.000000e+00		0.000000e+00
0.000000e+00		0.000000e+00		0.000000e+00
0.000000e+00		0.000000e+00		0.000000e+00
0.000000e+00		0.000000e+00		0.000000e+00
0.000000e+00		0.000000e+00		0.000000e+00
0.000000e+00		0.000000e+00		0.000000e+00
0.000000e+00		0.000000e+00		0.000000e+00
0.000000e+00		0.000000e+00		0.000000e+00
0.000000e+00		0.000000e+00		0.000000e+00
0.000000e+00		0.000000e+00		0.000000e+00
0.000000e+00		0.000000e+00		0.000000e+00
0.000000e+00		0.000000e+00		0.000000e+00
0.000000e+00		0.000000e+00		0.000000e+00
0.000000e+00		0.000000e+00		0.000000e+00
0.000000e+00		0.000000e+00		0.000000e+00
0.000000e+00		0.000000e+00		0.000000e+00
0.000000e+00		0.000000e+00		0.000000e+00
0.000000e+00		0.000000e+00		0.000000e+00
0.000000e+00		0.000000e+00		0.000000e+00
0.000000e+00		0.000000e+00		0.000000e+00
0.000000e+00		0.000000e+00		0.000000e+00
0.000000e+00		0.000000e+00		0.000000e+00
0.000000e+00		0.000000e+00		0.000000e+00
0.000000e+00		0.000000e+00		0.000000e+00
0.000000e+00		0.000000e+00		0.000000e+00
0.000000e+00		0.000000e+00		0.000000e+00
0.000000e+00		0.000000e+00		0.000000e+00
0.000000e+00		0.000000e+00		0.000000e+00
0.000000e+00		0.000000e+00		0.000000e+00
0.000000e+00		0.000000e+00		0.000000e+00
0.000000e+00		0.000000e+00		0.000000e+00
0.000000e+00		0.000000e+00		0.000000e+00
0.000000e+00		0.000000e+00		0.000000e+00
0.000000e+00		0.000000e+00		0.000000e+00
0.000000e+00		0.000000e+00		0.000000e+00
0.000000e+00		0.000000e+00		0.000000e+00
0.000000e+00		0.000000e+00		0.000000e+00
0.000000e+00		0.000000e+00		0.000000e+00
0.000000e+00		0.000000e+00		0.000000e+00
0.000000e+00		0.000000e+00		0.000000e+00
0.000000e+00		0.000000e+00		0.000000e+00
0.000000e+00		0.000000e+00		0.000000e+00
0.000000e+00		0.000000e+00		0.000000e+00
0.000000e+00		0.000000e+00		0.000000e+00
0.000000e+00		0.000000e+00		0.000000e+00
0.000000e+00		0.000000e+00		0.000000e+00
0.000000e+00		0.000000e+00		0.000000e+00
0.000000e+00		0.000000e+00		0.000000e+00
0.000000e+00		0.000000e+00		0.000000e+00
0.000000e+00		0.000000e+00		0.000000e+00
0.000000e+00		0.000000e+00		0.000000e+00
0.000000e+00		0.000000e+00		0.000000e+00
0.000000e+00		0.000000e+00		0.000000e+00
0.000000e+00		0.000000e+00		0.000000e+00
0.000000e+00		0.000000e+00		0.000000e+00
0.000000e+00		0.000000e+00		0.000000e+00
0.000000e+00		0.000000e+00		0.000000e+00
0.000000e+00		0.000000e+00		0.000000e+00
0.000000e+00		0.000000e+00		0.000000e+00
0.000000e+00		0.000000e+00		0.000000e+00
0.000000e+00		0.000000e+00		0.000000e+00
0.000000e+00		0.000000e+00		0.000000e+00
0.000000e+00		0.000000e+00		0.000000e+00
0.000000e+00		0.000000e+00		0.000000e+00
0.000000e+00		0.000000e+00		0.000000e+00
0.000000e+00		0.000000e+00		0.000000e+00
0.000000e+00		0.000000e+00		0.000000e+00
0.000000e+00		0.000000e+00		0.000000e+00
0.000000e+00		0.000000e+00		0.000000e+00
0.000000e+00		0.000000e+00		0.000000e+00
0.000000e+00		0.000000e+00		0.000000e+00
0.000000e+00		0.000000e+00		0.000000e+00
0.000000e+00		0.000000e+00		0.000000e+00
0.000000e+00		0.000000e+00		0.000000e+00
0.000000e+00		0.000000e+00		0.000000e+00
0.000000e+00		0.000000e+00		0.000000e+00
0.000000e+00		0.000000e+00		0.000000e+00
0.000000e+00		0.000000e+00		0.000000e+00
0.000000e+00		0.000000e+00		0.000000e+00
0.000000e+00		0.000000e+00		0.000000e+00
0.000000e+00		0.000000e+00		0.000000e+00
0.000000e+00		0.000000e+00		0.000000e+00
0.000000e+00		0.000000e+00		0.000000e+00
0.000000e+00		0.000000e+00		0.000000e+00
0.000000e+00		0.000000e+00		0.000000e+00
0.000000e+00		0.000000e+00		0.000000e+00
0.000000e+00		0.000000e+00		0.000000e+00
0.000000e+00		0.000000e+00		0.000000e+00
0.000000e+00		0.000000e+00		0.000000e+00
0.000000e+00		0.000000e+00		0.000000e+00
0.000000e+00		0.000000e+00		0.000000e+00
0.000000e+00		0.000000e+00		0.000000e+00
0.000000e+00		0.000000e+00		0.000000e+00
0.000000e+00		0.000000e+00		0.000000e+00
0.000000e+00		0.000000e+00		0.000000e+00
0.000000e+00		0.000000e+00		0.000000e+00
0.000000e+00		0.000000e+00		0.000000e+00
0.000000e+00		0.000000e+00		0.000000e+00
0.000000e+00		0.000000e+00		0.000000e+00
0.000000e+00		0.000000e+00		0.000000e+00
0.000000e+00		0.000000e+00		0.000000e+00
0.000000e+00		0.000000e+00		0.000000e+00
0.000000e+00		0.000000e+00		0.000000e+00
0.000000e+00		0.000000e+00		0.000000e+00
0.000000e+00		0.000000e+00		0.000000e+00
0.000000e+00		0.000000e+00		0.000000e+00
0.000000e+00		0.000000e+00		0.000000e+00
0.000000e+00		0.000000e+00		0.000000e+00
0.000000e+00		0.000000e+00		0.000000e+00
0.000000e+00		0.000000e+00		0.000000e+00
0.000000e+00		0.000000e+00		0.000000e+00
0.000000e+00		0.000000e+00		0.000000e+00
0.000000e+00		0.000000e+00		0.000000e+00
0.000000e+00		0.000000e+00		0.000000e+00
0.000000e+00		0.000000e+00		0.000000e+00
0.000000e+00		0.000000e+00		0.000000e+00
0.000000e+00		0.000000e+00		0.000000e+00
0.000000e+00		0.000000e+00		0.000000e+00
0.000000e+00		0.000000e+00		0.000000e+00
0.000000e+00		0.000000e+00		0.000000e+00
0.000000e+00		0.000000e+00		0.000000e+00
0.000000e+00		0.000000e+00		0.000000e+00
0.000000e+00		0.000000e+00		0.000000e+00
0.000000e+00		0.000000e+00		0.000000e+00
0.000000e+00		0.000000e+00		0.000000e+00
0.000000e+00		0.000000e+00		0.000000e+00
0.000000e+00		0.000000e+00		0.000000e+00
0.000000e+00		0.000000e+00		0.000000e+00
0.000000e+00		0.000000e+00		0.000000e+00
0.000000e+00		0.000000e+00		0.000000e+00
0.000000e+00		0.000000e+00		0.000000e+00
0.000000e+00		0.000000e+00		0.000000e+00
0.000000e+00		0.000000e+00		0.000000e+00
0.000000e+00		0.000000e+00		0.000000e+00
0.000000e+00		0.000000e+00		0.000000e+00
0.000000e+00		0.000000e+00		0.000000e+00
0.000000e+00		0.000000e+00		0.000000e+00
0.000000e+00		0.000000e+00		0.000000e+00
0.000000e+00		0.000000e+00		0.000000e+00
0.000000e+00		0.000000e+00		0.000000e+00
0.000000e+00		0.000000e+00		0.000000e+00
0.000000e+00		0.000000e+00		0.000000e+00
0.000000e+00		0.000000e+00		0.000000e+00
0.000000e+00		0.000000e+00		0.000000e+00
0.000000e+00		0.000000e+00		0.000000e+00
0.000000e+00		0.000000e+00		0.000000e+00
0.000000e+00		0.000000e+00		0.000000e+00
0.000000e+00		0.000000e+00		0.000000e+00
0.000000e+00		0.000000e+00		0.000000e+00
0.000000e+00		0.000000e+00		0.000000e+00
0.000000e+00		0.000000e+00		0.000000e+00
0.000000e+00		0.000000e+00		0.000000e+00
0.000000e+00		0.000000e+00		0.000000e+00
0.000000e+00		0.000000e+00		0.000000e+00
0.000000e+00		0.000000e+00		0.000000e+00
0.000000e+00		0.000000e+00		0.000000e+00
0.000000e+00		0.000000e+00		0.000000e+00
0.000000e+00		0.000000e+00		0.000000e+00
0.000000e+00		0.000000e+00		0.000000e+00
0.000000e+00		0.000000e+00		0.000000e+00
0.000000e+00		0.000000e+00		0.000000e+00
0.000000e+00		0.000000e+00		0.000000e+00
0.000000e+00		0.000000e+00		0.000000e+00
0.000000e+00		0.000000e+00		0.000000e+00
0.000000e+00		0.000000e+00		0.000000e+00
0.000000e+00		0.000000e+00		0.000000e+00
0.000000e+00		0.000000e+00		0.000000e+00
0.000000e+00		0.000000e+00		0.000000e+00
0.000000e+00		0.000000e+00		0.000000e+00
0.000000e+00		0.000000e+00		0.000000e+00
0.000000e+00		0.000000e+00		0.000000e+00
0.000000e+00		0.000000e+00		0.000000e+00
0.000000e+00		0.000000e+00		0.000000e+00
0.000000e+00		0.000000e+00		0.000000e+00
0.000000e+00		0.000000e+00		0.000000e+00
0.000000e+00		0.000000e+00		0.000000e+00
0.000000e+00		0.000000e+00		0.000000e+00
0.000000e+00		0.000000e+00		0.000000e+00
0.000000e+00		0.000000e+00		0.000000e+00
0.000000e+00		0.000000e+00		0.000000e+00
0.000000e+00		0.000000e+00		0.000000e+00
0.000000e+00		0.000000e+00		0.000000e+00
0.000000e+00		0.000000e+00		0.000000e+00
0.000000e+00		0.000000e+00		0.000000e+00
0.000000e+00		0.000000e+00		0.000000e+00
0.000000e+00		0.000000e+00		0.000000e+00
VECTORS acceleration double
0.000000e+00		0.000000e+00		0.000000e+00
0.000000e+00		0.000000e+00		0.000000e+00
0.000000e+00		0.000000e+00		0.000000e+00
0.000000e+00		0.000000e+00		0.000000e+00
0.000000e+00		0.000000e+00		0.000000e+00
0.000000e+00		0.000000e+00		0.000000e+00
0.000000e+00		0.000000e+00		0.000000e+00
0.000000e+00		0.000000e+00		0.000000e+00
0.000000e+00		0.000000e+00		0.000000e+00
0.000000e+00		0.000000e+00		0.000000e+00
0.000000e+00		0.000000e+00		0.000000e+00
0.000000e+00		0.000000e+00		0.000000e+00
0.000000e+00		0.000000e+00		0.000000e+00
0.000000e+00		0.000000e+00		0.000000e+00
0.000000e+00		0.000000e+00		0.000000e+00
0.000000e+00		0.000000e+00		0.000000e+00
0.000000e+00		0.000000e+00		0.000000e+00
0.000000e+00		0.000000e+00		0.000000e+00
0.000000e+00		0.000000e+00		0.000000e+00
0.000000e+00		0.000000e+00		0.000000e+00
0.000000e+00		0.000000e+00		0.000000e+00
0.000000e+00		0.000000e+00		0.000000e+00
0.000000e+00		0.000000e+00		0.000000e+00
0.000000e+00		0.000000e+00		0.000000e+00
0.000000e+00		0.000000e+00		0.000000e+00
0.000000e+00		0.000000e+00		0.000000e+00
0.000000e+00		0.000000e+00		0.000000e+00
0.000000e+00		0.000000e+00		0.000000e+00
0.000000e+00		0.000000e+00		0.000000e+00
0.000000e+00		0.000000e+00		0.000000e+00
0.000000e+00		0.000000e+00		0.000000e+00
0.000000e+00		0.000000e+00		0.000000e+00
0.000000e+00		0.000000e+00		0.000000e+00
0.000000e+00		0.000000e+00		0.000000e+00
0.000000e+00		0.000000e+00		0.000000e+00
0.000000e+00		0.000000e+00		0.000000e+00
0.000000e+00		0.000000e+00		0.000000e+00
0.000000e+00		0.000000e+00		0.000000e+00
0.000000e+00		0.000000e+00		0.000000e+00
0.000000e+00		0.000000e+00		0.000000e+00
0.000000e+00		0.000000e+00		0.000000e+00
0.000000e+00		0.000000e+00		0.000000e+00
0.000000e+00		0.000000e+00		0.000000e+00
0.000000e+00		0.000000e+00		0.000000e+00
0.000000e+00		0.000000e+00		0.000000e+00
0.000000e+00		0.000000e+00		0.000000e+00
0.000000e+00		0.000000e+00		0.000000e+00
0.000000e+00		0.000000e+00		0.000000e+00
0.000000e+00		0.000000e+00		0.000000e+00
0.000000e+00		0.000000e+00		0.000000e+00
0.000000e+00		0.000000e+00		0.000000e+00
0.000000e+00		0.000000e+00		0.000000e+00
0.000000e+00		0.000000e+00		0.000000e+00
0.000000e+00		0.000000e+00		0.000000e+00
0.000000e+00		0.000000e+00		0.000000e+00
0.000000e+00		0.000000e+00		0.000000e+00
0.000000e+00		0.000000e+00		0.000000e+00
0.000000e+00		0.000000e+00		0.000000e+00
0.000000e+00		0.000000e+00		0.000000e+00
0.000000e+00		0.000000e+00		0.000000e+00
0.000000e+00		0.000000e+00		0.000000e+00
0.000000e+00		0.000000e+00		0.000000e+00
0.000000e+00		0.000000e+00		0.000000e+00
0.000000e+00		0.000000e+00		0.000000e+00
0.000000e+00		0.000000e+00		0.000000e+00
0.000000e+00		0.000000e+00		0.000000e+00
0.000000e+00		0.000000e+00		0.000000e+00
0.000000e+00		0.000000e+00		0.000000e+00
0.000000e+00		0.000000e+00		0.000000e+00
0.000000e+00		0.000000e+00		0.000000e+00
0.000000e+00		0.000000e+00		0.000000e+00
0.000000e+00		0.000000e+00		0.000000e+00
0.000000e+00		0.000000e+00		0.000000e+00
0.000000e+00		0.000000e+00		0.000000e+00
0.000000e+00		0.000000e+00		0.000000e+00
0.000000e+00		0.000000e+00		0.000000e+00
0.000000e+00		0.000000e+00		0.000000e+00
0.000000e+00		0.000000e+00		0.000000e+00
0.000000e+00		0.000000e+00		0.000000e+00
0.000000e+00		0.000000e+00		0.000000e+00
0.000000e+00		0.000000e+00		0.000000e+00
0.000000e+00		0.000000e+00		0.000000e+00
0.000000e+00		0.000000e+00		0.000000e+00
0.000000e+00		0.000000e+00		0.000000e+00
0.000000e+00		0.000000e+00		0.000000e+00
0.000000e+00		0.000000e+00		0.000000e+00
0.000000e+00		0.000000e+00		0.000000e+00
0.000000e+00		0.000000e+00		0.000000e+00
0.000000e+00		0.000000e+00		0.000000e+00
0.000000e+00		0.000000e+00		0.000000e+00
0.000000e+00		0.000000e+00		0.000000e+00
0.000000e+00		0.000000e+00		0.000000e+00
0.000000e+00		0.000000e+00		0.000000e+00
0.000000e+00		0.000000e+00		0.000000e+00
0.000000e+00		0.000000e+00		0.000000e+00
0.000000e+00		0.000000e+00		0.000000e+00
0.000000e+00		0.000000e+00		0.000000e+00
0.000000e+00		0.000000e+00		0.000000e+00
0.000000e+00		0.000000e+00		0.000000e+00
0.000000e+00		0.000000e+00		0.000000e+00
0.000000e+00		0.000000e+00		0.000000e+00
0.000000e+00		0.000000e+00		0.000000e+00
0.000000e+00		0.000000e+00		0.000000e+00
0.000000e+00		0.000000e+00		0.000000e+00
0.000000e+00		0.000000e+00		0.000000e+00
0.000000e+00		0.000000e+00		0.000000e+00
0.000000e+00		0.000000e+00		0.000000e+00
0.000000e+00		0.000000e+00		0.000000e+00
0.000000e+00		0.000000e+00		0.000000e+00
0.000000e+00		0.000000e+00		0.000000e+00
0.000000e+00		0.000000e+00		0.000000e+00
0.000000e+00		0.000000e+00		0.000000e+00
0.000000e+00		0.000000e+00		0.000000e+00
0.000000e+00		0.000000e+00		0.000000e+00
0.000000e+00		0.000000e+00		0.000000e+00
0.000000e+00		0.000000e+00		0.000000e+00
0.000000e+00		0.000000e+00		0.000000e+00
0.000000e+00		0.000000e+00		0.000000e+00
0.000000e+00		0.000000e+00		0.000000e+00
0.000000e+00		0.000000e+00		0.000000e+00
0.000000e+00		0.000000e+00		0.000000e+00
0.000000e+00		0.000000e+00		0.000000e+00
0.000000e+00		0.000000e+00		0.000000e+00
0.000000e+00		0.000000e+00		0.000000e+00
0.000000e+00		0.000000e+00		0.000000e+00
0.000000e+00		0.000000e+00		0.000000e+00
0.000000e+00		0.000000e+00		0.000000e+00
0.000000e+00		0.000000e+00		0.000000e+00
0.000000e+00		0.000000e+00		0.000000e+00
0.000000e+00		0.000000e+00		0.000000e+00
0.000000e+00		0.000000e+00		0.000000e+00
0.000000e+00		0.000000e+00		0.000000e+00
0.000000e+00		0.000000e+00		0.000000e+00
0.000000e+00		0.000000e+00		0.000000e+00
0.000000e+00		0.000000e+00		0.000000e+00
0.000000e+00		0.000000e+00		0.000000e+00
0.000000e+00		0.000000e+00		0.000000e+00
0.000000e+00		0.000000e+00		0.000000e+00
0.000000e+00		0.000000e+00		0.000000e+00
0.000000e+00		0.000000e+00		0.000000e+00
0.000000e+00		0.000000e+00		0.000000e+00
0.000000e+00		0.000000e+00		0.000000e+00
0.000000e+00		0.000000e+00		0.000000e+00
0.000000e+00		0.000000e+00		0.000000e+00
0.000000e+00		0.000000e+00		0.000000e+00
0.000000e+00		0.000000e+00		0.000000e+00
0.000000e+00		0.000000e+00		0.000000e+00
0.000000e+00		0.000000e+00		0.000000e+00
0.000000e+00		0.000000e+00		0.000000e+00
0.000000e+00		0.000000e+00		0.000000e+00
0.000000e+00		0.000000e+00		0.000000e+00
0.000000e+00		0.000000e+00		0.000000e+00
0.000000e+00		0.000000e+00		0.000000e+00
0.000000e+00		0.000000e+00		0.000000e+00
0.000000e+00		0.000000e+00		0.000000e+00
0.000000e+00		0.000000e+00		0.000000e+00
0.000000e+00		0.000000e+00		0.000000e+00
0.000000e+00		0.000000e+00		0.000000e+00
0.000000e+00		0.000000e+00		0.000000e+00
0.000000e+00		0.000000e+00		0.000000e+00
0.000000e+00		0.000000e+00		0.000000e+00
0.000000e+00		0.000000e+00		0.000000e+00
0.000000e+00		0.000000e+00		0.000000e+00
0.000000e+00		0.000000e+00		0.000000e+00
0.000000e+00		0.000000e+00		0.000000e+00
0.000000e+00		0.000000e+00		0.000000e+00
0.000000e+00		0.000000e+00		0.000000e+00
0.000000e+00		0.000000e+00		0.000000e+00
0.000000e+00		0.000000e+00		0.000000e+00
0.000000e+00		0.000000e+00		0.000000e+00
0.000000e+00		0.000000e+00		0.000000e+00
0.000000e+00		0.000000e+00		0.000000e+00
0.000000e+00		0.000000e+00		0.000000e+00
0.000000e+00		0.000000e+00		0.000000e+00
0.000000e+00		0.000000e+00		0.000000e+00
0.000000e+00		0.000000e+00		0.000000e+00
0.000000e+00		0.000000e+00		0.000000e+00
0.000000e+00		0.000000e+00		0.000000e+00
0.000000e+00		0.000000e+00		0.000000e+00
0.000000e+00		0.000000e+00		0.000000e+00
0.000000e+00		0.000000e+00		0.000000e+00
0.000000e+00		0.000000e+00		0.000000e+00
0.000000e+00		0.000000e+00		0.000000e+00
0.000000e+00		0.000000e+00		0.000000e+00
0.000000e+00		0.000000e+00		0.000000e+00
0.000000e+00		0.000000e+00		0.000000e+00
0.000000e+00		0.000000e+00		0.000000e+00
0.000000e+00		0.000000e+00		0.000000e+00
0.000000e+00		0.000000e+00		0.000000e+00
0.000000e+00		0.000000e+00		0.000000e+00
0.000000e+00		0.000000e+00		0.000000e+00
0.000000e+00		0.000000e+00		0.000000e+00
0.000000e+00		0.000000e+00		0.000000e+00
0.000000e+00		0.000000e+00		0.000000e+00
0.000000e+00		0.000000e+00		0.000000e+00
0.000000e+00		0.000000e+00		0.000000e+00
0.000000e+00		0.000000e+00		0.000000e+00
0.000000e+00		0.000000e+00		0.000000e+00
0.000000e+00		0.000000e+00		0.000000e+00
0.000000e+00		0.000000e+00		0.000000e+00
0.000000e+00		0.000000e+00		0.000000e+00
0.000000e+00		0.000000e+00		0.000000e+00
0.000000e+00		0.000000e+00		0.000000e+00
0.000000e+00		0.000000e+00		0.000000e+00
0.000000e+00		0.000000e+00		0.000000e+00
0.000000e+00		0.000000e+00		0.000000e+00
0.000000e+00		0.000000e+00		0.000000e+00
0.000000e+00		0.000000e+00		0.000000e+00
0.000000e+00		0.000000e+00		0.000000e+00
0.000000e+00		0.000000e+00		0.000000e+00
0.000000e+00		0.000000e+00		0.000000e+00
0.000000e+00		0.000000e+00		0.000000e+00
0.000000e+00		0.000000e+00		0.000000e+00
0.000000e+00		0.000000e+00		0.000000e+00
0.000000e+00		0.000000e+00		0.000000e+00
0.000000e+00		0.000000e+00		0.000000e+00
0.000000e+00		0.000000e+00		0.000000e+00
0.000000e+00		0.000000e+00		0.000000e+00
0.000000e+00		0.000000e+00		0.000000e+00
0.000000e+00		0.000000e+00		0.000000e+00
0.000000e+00		0.000000e+00		0.000000e+00
0.000000e+00		0.000000e+00		0.000000e+00
0.000000e+00		0.000000e+00		0.000000e+00
0.000000e+00		0.000000e+00		0.000000e+00
0.000000e+00		0.000000e+00		0.000000e+00
0.000000e+00		0.000000e+00		0.000000e+00
0.000000e+00		0.000000e+00		0.000000e+00
0.000000e+00		0.000000e+00		0.000000e+00
0.000000e+00		0.000000e+00		0.000000e+00
0.000000e+00		0.000000e+00		0.000000e+00
0.000000e+00		0.000000e+00		0.000000e+00
0.000000e+00		0.000000e+00		0.000000e+00
0.000000e+00		0.000000e+00		0.000000e+00
0.000000e+00		0.000000e+00		0.000000e+00
0.000000e+00		0.000000e+00		0.000000e+00
0.000000e+00		0.000000e+00		0.000000e+00
0.000000e+00		0.000000e+00		0.000000e+00
0.000000e+00		0.000000e+00		0.000000e+00
0.000000e+00		0.000000e+00		0.000000e+00
0.000000e+00		0.000000e+00		0.000000e+00
0.000000e+00		0.000000e+00		0.000000e+00
0.000000e+00		0.000000e+00		0.000000e+00
0.000000e+00		0.000000e+00		0.000000e+00
0.000000e+00		0.000000e+00		0.000000e+00
0.000000e+00		0.000000e+00		0.000000e+00
0.000000e+00		0.000000e+00		0.000000e+00
0.000000e+00		0.000000e+00		0.000000e+00
0.000000e+00		0.000000e+00		0.000000e+00
0.000000e+00		0.000000e+00		0.000000e+00
0.000000e+00		0.000000e+00		0.000000e+00
0.000000e+00		0.000000e+00		0.000000e+00
0.000000e+00		0.000000e+00		0.000000e+00
0.000000e+00		0.000000e+00		0.000000e+00
0.000000e+00		0.000000e+00		0.000000e+00
0.000000e+00		0.000000e+00		0.000000e+00
0.000000e+00		0.000000e+00		0.000000e+00
0.000000e+00		0.000000e+00		0.000000e+00
0.000000e+00		0.000000e+00		0.000000e+00
0.000000e+00		0.000000e+00		0.000000e+00
0.000000e+00		0.000000e+00		0.000000e+00
0.000000e+00		0.000000e+00		0.000000e+00
0.000000e+00		0.000000e+00		0.000000e+00
0.000000e+00		0.000000e+00		0.000000e+00
0.000000e+00		0.000000e+00		0.000000e+00
0.000000e+00		0.000000e+00		0.000000e+00
0.000000e+00		0.000000e+00		0.000000e+00
0.000000e+00		0.000000e+00		0.000000e+00
0.000000e+00		0.000000e+00		0.000000e+00
0.000000e+00		0.000000e+00		0.000000e+00
0.000000e+00		0.000000e+00		0.000000e+00
0.000000e+00		0.000000e+00		0.000000e+00
0.000000e+00		0.000000e+00		0.000000e+00
0.000000e+00		0.000000e+00		0.000000e+00
0.000000e+00		0.000000e+00		0.000000e+00
0.000000e+00		0.000000e+00		0.000000e+00
0.000000e+00		0.000000e+00		0.000000e+00
0.000000e+00		0.000000e+00		0.000000e+00
0.000000e+00		0.000000e+00		0.000000e+00
0.000000e+00		0.000000e+00		0.000000e+00
0.000000e+00		0.000000e+00		0.000000e+00
0.000000e+00		0.000000e+00		0.000000e+00
0.000000e+00		0.000000e+00		0.000000e+00
0.000000e+00		0.000000e+00		0.000000e+00
0.000000e+00		0.000000e+00		0.000000e+00
0.000000e+00		0.000000e+00		0.000000e+00
0.000000e+00		0.000000e+00		0.000000e+00
0.000000e+00		0.000000e+00		0.000000e+00
0.000000e+00		0.000000e+00		0.000000e+00
0.000000e+00		0.000000e+00		0.000000e+00
0.000000e+00		0.000000e+00		0.000000e+00
0.000000e+00		0.000000e+00		0.000000e+00
0.000000e+00		0.000000e+00		0.000000e+00
0.000000e+00		0.000000e+00		0.000000e+00
0.000000e+00		0.000000e+00		0.000000e+00
0.000000e+00		0.000000e+00		0.000000e+00
0.000000e+00		0.000000e+00		0.000000e+00
0.000000e+00		0.000000e+00		0.000000e+00
0.000000e+00		0.000000e+00		0.000000e+00
0.000000e+00		0.000000e+00		0.000000e+00
0.000000e+00		0.000000e+00		0.000000e+00
0.000000e+00		0.000000e+00		0.000000e+00
0.000000e+00		0.000000e+00		0.000000e+00
0.000000e+00		0.000000e+00		0.000000e+00
0.000000e+00		0.000000e+00		0.000000e+00
0.000000e+00		0.000000e+00		0.000000e+00
0.000000e+00		0.000000e+00		0.000000e+00
0.000000e+00		0.000000e+00		0.000000e+00
0.000000e+00		0.000000e+00		0.000000e+00
0.000000e+00		0.000000e+00		0.000000e+00
0.000000e+00		0.000000e+00		0.000000e+00
0.000000e+00		0.000000e+00		0.000000e+00
0.000000e+00		0.000000e+00		0.000000e+00
0.000000e+00		0.000000e+00		0.000000e+00
0.000000e+00		0.000000e+00		0.000000e+00
0.000000e+00		0.000000e+00		0.000000e+00
0.000000e+00		0.000000e+00		0.000000e+00
0.000000e+00		0.000000e+00		0.000000e+00
0.000000e+00		0.000000e+00		0.000000e+00
0.000000e+00		0.000000e+00		0.000000e+00
0.000000e+00		0.000000e+00		0.000000e+00
0.000000e+00		0.000000e+00		0.000000e+00
0.000000e+00		0.000000e+00		0.000000e+00
0.000000e+00		0.000000e+00		0.000000e+00
0.000000e+00		0.000000e+00		0.000000e+00
0.000000e+00		0.000000e+00		0.000000e+00
0.000000e+00		0.000000e+00		0.000000e+00
0.000000e+00		0.000000e+00		0.000000e+00
0.000000e+00		0.000000e+00		0.000000e+00
0.000000e+00		0.000000e+00		0.000000e+00
0.000000e+00		0.000000e+00		0.000000e+00
0.000000e+00		0.000000e+00		0.000000e+00
0.000000e+00		0.000000e+00		0.000000e+00
0.000000e+00		0.000000e+00		0.000000e+00
0.000000e+00		0.000000e+00		0.000000e+00
0.000000e+00		0.000000e+00		0.000000e+00
0.000000e+00		0.000000e+00		0.000000e+00
0.000000e+00		0.000000e+00		0.000000e+00
0.000000e+00		0.000000e+00		0.000000e+00
0.000000e+00		0.000000e+00		0.000000e+00
0.000000e+00		0.000000e+00		0.000000e+00
0.000000e+00		0.000000e+00		0.000000e+00
0.000000e+00		0.000000e+00		0.000000e+00
0.000000e+00		0.000000e+00		0.000000e+00
0.000000e+00		0.000000e+00		0.000000e+00
0.000000e+00		0.000000e+00		0.000000e+00
0.000000e+00		0.000000e+00		0.000000e+00
0.000000e+00		0.000000e+00		0.000000e+00
0.000000e+00		0.000000e+00		0.000000e+00
0.000000e+00		0.000000e+00		0.000000e+00
0.000000e+00		0.000000e+00		0.000000e+00
0.000000e+00		0.000000e+00		0.000000e+00
0.000000e+00		0.000000e+00		0.000000e+00
0.000000e+00		0.000000e+00		0.000000e+00
0.000000e+00		0.000000e+00		0.000000e+00
0.000000e+00		0.000000e+00		0.000000e+00
0.000000e+00		0.000000e+00		0.000000e+00
0.000000e+00		0.000000e+00		0.000000e+00
0.000000e+00		0.000000e+00		0.000000e+00
0.000000e+00		0.000000e+00		0.000000e+00
0.000000e+00		0.000000e+00		0.000000e+00
0.000000e+00		0.000000e+00		0.000000e+00
0.000000e+00		0.000000e+00		0.000000e+00
0.000000e+00		0.000000e+00		0.000000e+00
0.000000e+00		0.000000e+00		0.000000e+00
0.000000e+00		0.000000e+00		0.000000e+00
0.000000e+00		0.000000e+00		0.000000e+00
0.000000e+00		0.000000e+00		0.000000e+00
0.000000e+00		0.000000e+00		0.000000e+00
0.000000e+00		0.000000e+00		0.000000e+00
0.000000e+00		0.000000e+00		0.000000e+00
0.000000e+00		0.000000e+00		0.000000e+00
0.000000e+00		0.000000e+00		0.000000e+00
0.000000e+00		0.000000e+00		0.000000e+00
0.000000e+00		0.000000e+00		0.000000e+00
0.000000e+00		0.000000e+00		0.000000e+00
0.000000e+00		0.000000e+00		0.000000e+00
0.000000e+00		0.000000e+00		0.000000e+00
0.000000e+00		0.000000e+00		0.000000e+00
0.000000e+00		0.000000e+00		0.000000e+00
0.000000e+00		0.000000e+00		0.000000e+00
0.000000e+00		0.000000e+00		0.000000e+00
0.000000e+00		0.000000e+00		0.000000e+00
0.000000e+00		0.000000e+00		0.000000e+00
0.000000e+00		0.000000e+00		0.000000e+00
0.000000e+00		0.000000e+00		0.000000e+00
0.000000e+00		0.000000e+00		0.000000e+00
0.000000e+00		0.000000e+00		0.000000e+00
0.000000e+00		0.000000e+00		0.000000e+00
0.000000e+00		0.000000e+00		0.000000e+00
0.000000e+00		0.000000e+00		0.000000e+00
0.000000e+00		0.000000e+00		0.000000e+00
0.000000e+00		0.000000e+00		0.000000e+00
0.000000e+00		0.000000e+00		0.000000e+00
0.000000e+00		0.000000e+00		0.000000e+00
0.000000e+00		0.000000e+00		0.000000e+00
0.000000e+00		0.000000e+00		0.000000e+00
0.000000e+00		0.000000e+00		0.000000e+00
0.000000e+00		0.000000e+00		0.000000e+00
0.000000e+00		0.000000e+00		0.000000e+00
0.000000e+00		0.000000e+00		0.000000e+00
0.000000e+00		0.000000e+00		0.000000e+00
0.000000e+00		0.000000e+00		0.000000e+00
0.000000e+00		0.000000e+00		0.000000e+00
0.000000e+00		0.000000e+00		0.000000e+00
0.000000e+00		0.000000e+00		0.000000e+00
0.000000e+00		0.000000e+00		0.000000e+00
0.000000e+00		0.000000e+00		0.000000e+00
0.000000e+00		0.000000e+00		0.000000e+00
0.000000e+00		0.000000e+00		0.000000e+00
0.000000e+00		0.000000e+00		0.000000e+00
0.000000e+00		0.000000e+00		0.000000e+00
0.000000e+00		0.000000e+00		0.000000e+00
0.000000e+00		0.000000e+00		0.000000e+00
0.000000e+00		0.000000e+00		0.000000e+00
0.000000e+00		0.000000e+00		0.000000e+00
0.000000e+00		0.000000e+00		0.000000e+00
0.000000e+00		0.000000e+00		0.000000e+00
0.000000e+00		0.000000e+00		0.000000e+00
0.000000e+00		0.000000e+00		0.000000e+00
0.000000e+00		0.000000e+00		0.000000e+00
0.000000e+00		0.000000e+00		0.000000e+00
0.000000e+00		0.000000e+00		0.000000e+00
0.000000e+00		0.000000e+00		0.000000e+00
0.000000e+00		0.000000e+00		0.000000e+00
0.000000e+00		0.000000e+00		0.000000e+00
0.000000e+00		0.000000e+00		0.000000e+00
0.000000e+00		0.000000e+00		0.000000e+00
0.000000e+00		0.000000e+00		0.000000e+00
0.000000e+00		0.000000e+00		0.000000e+00
0.000000e+00		0.000000e+00		0.000000e+00
0.000000e+00		0.000000e+00		0.000000e+00
0.000000e+00		0.000000e+00		0.000000e+00
0.000000e+00		0.000000e+00		0.000000e+00
0.000000e+00		0.000000e+00		0.000000e+00
0.000000e+00		0.000000e+00		0.000000e+00
0.000000e+00		0.000000e+00		0.000000e+00
0.000000e+00		0.000000e+00		0.000000e+00
0.000000e+00		0.000000e+00		0.000000e+00
0.000000e+00		0.000000e+00		0.000000e+00
0.000000e+00		0.000000e+00		0.000000e+00
0.000000e+00		0.000000e+00		0.000000e+00
0.000000e+00		0.000000e+00		0.000000e+00
0.000000e+00		0.000000e+00		0.000000e+00
0.000000e+00		0.000000e+00		0.000000e+00
0.000000e+00		0.000000e+00		0.000000e+00
0.000000e+00		0.000000e+00		0.000000e+00
0.000000e+00		0.000000e+00		0.000000e+00
0.000000e+00		0.000000e+00		0.000000e+00
0.000000e+00		0.000000e+00		0.000000e+00
0.000000e+00		0.000000e+00		0.000000e+00
0.000000e+00		0.000000e+00		0.000000e+00
0.000000e+00		0.000000e+00		0.000000e+00
0.000000e+00		0.000000e+00		0.000000e+00
0.000000e+00		0.000000e+00		0.000000e+00
0.000000e+00		0.000000e+00		0.000000e+00
0.000000e+00		0.000000e+00		0.000000e+00
0.000000e+00		0.000000e+00		0.000000e+00
0.000000e+00		0.000000e+00		0.000000e+00
0.000000e+00		0.000000e+00		0.000000e+00
0.000000e+00		0.000000e+00		0.000000e+00
0.000000e+00		0.000000e+00		0.000000e+00
0.000000e+00		0.000000e+00		0.000000e+00
0.000000e+00		0.000000e+00		0.000000e+00
0.000000e+00		0.000000e+00		0.000000e+00
0.000000e+00		0.000000e+00		0.000000e+00
0.000000e+00		0.000000e+00		0.000000e+00
0.000000e+00		0.000000e+00		0.000000e+00
0.000000e+00		0.000000e+00		0.000000e+00
0.000000e+00		0.000000e+00		0.000000e+00
0.000000e+00		0.000000e+00		0.000000e+00
0.000000e+00		0.000000e+00		0.000000e+00
0.000000e+00		0.000000e+00		0.000000e+00
0.000000e+00		0.000000e+00		0.000000e+00
0.000000e+00		0.000000e+00		0.000000e+00
0.000000e+00		0.000000e+00		0.000000e+00
0.000000e+00		0.000000e+00		0.000000e+00
0.000000e+00		0.000000e+00		0.000000e+00
0.000000e+00		0.000000e+00		0.000000e+00
0.000000e+00		0.000000e+00		0.000000e+00
0.000000e+00		0.000000e+00		0.000000e+00
0.000000e+00		0.000000e+00		0.000000e+00
0.000000e+00		0.000000e+00		0.000000e+00
0.000000e+00		0.000000e+00		0.000000e+00
0.000000e+00		0.000000e+00		0.000000e+00
0.000000e+00		0.000000e+00		0.000000e+00
0.000000e+00		0.000000e+00		0.000000e+00
0.000000e+00		0.000000e+00		0.000000e+00
0.000000e+00		0.000000e+00		0.000000e+00
0.000000e+00		0.000000e+00		0.000000e+00
0.000000e+00		0.000000e+00		0.000000e+00
0.000000e+00		0.000000e+00		0.000000e+00
0.000000e+00		0.000000e+00		0.000000e+00
0.000000e+00		0.000000e+00		0.000000e+00
0.000000e+00		0.000000e+00		0.000000e+00
0.000000e+00		0.000000e+00		0.000000e+00
0.000000e+00		0.000000e+00		0.000000e+00
0.000000e+00		0.000000e+00		0.000000e+00
0.000000e+00		0.000000e+00		0.000000e+00
0.000000e+00		0.000000e+00		0.000000e+00
0.000000e+00		0.000000e+00		0.000000e+00
0.000000e+00		0.000000e+00		0.000000e+00
0.000000e+00		0.000000e+00		0.000000e+00
0.000000e+00		0.000000e+00		0.000000e+00
0.000000e+00		0.000000e+00		0.000000e+00
0.000000e+00		0.000000e+00		0.000000e+00
0.000000e+00		0.000000e+00		0.000000e+00
0.000000e+00		0.000000e+00		0.000000e+00
0.000000e+00		0.000000e+00		0.000000e+00
0.000000e+00		0.000000e+00		0.000000e+00
0.000000e+00		0.000000e+00		0.000000e+00
0.000000e+00		0.000000e+00		0.000000e+00
0.000000e+00		0.000000e+00		0.000000e+00
0.000000e+00		0.000000e+00		0.000000e+00
0.000000e+00		0.000000e+00		0.000000e+00
0.000000e+00		0.000000e+00		0.000000e+00
0.000000e+00		0.000000e+00		0.000000e+00
0.000000e+00		0.000000e+00		0.000000e+00
0.000000e+00		0.000000e+00		0.000000e+00
0.000000e+00		0.000000e+00		0.000000e+00
0.000000e+00		0.000000e+00		0.000000e+00
0.000000e+00		0.000000e+00		0.000000e+00
0.000000e+00		0.000000e+00		0.000000e+00
0.000000e+00		0.000000e+00		0.000000e+00
0.000000e+00		0.000000e+00		0.000000e+00
0.000000e+00		0.000000e+00		0.000000e+00
0.000000e+00		0.000000e+00		0.000000e+00
0.000000e+00		0.000000e+00		0.000000e+00
0.000000e+00		0.000000e+00		0.000000e+00
0.000000e+00		0.000000e+00		0.000000e+00
0.000000e+00		0.000000e+00		0.000000e+00
0.000000e+00		0.000000e+00		0.000000e+00
0.000000e+00		0.000000e+00		0.000000e+00
0.000000e+00		0.000000e+00		0.000000e+00
0.000000e+00		0.000000e+00		0.000000e+00
0.000000e+00		0.000000e+00		0.000000e+00
0.000000e+00		0.000000e+00		0.000000e+00
0.000000e+00		0.000000e+00		0.000000e+00
0.000000e+00		0.000000e+00		0.000000e+00
0.000000e+00		0.000000e+00		0.000000e+00
0.000000e+00		0.000000e+00		0.000000e+00
0.000000e+00		0.000000e+00		0.000000e+00
0.000000e+00		0.000000e+00		0.000000e+00
0.000000e+00		0.000000e+00		0.000000e+00
0.000000e+00		0.000000e+00		0.000000e+00
0.000000e+00		0.000000e+00		0.000000e+00
0.000000e+00		0.000000e+00		0.000000e+00
0.000000e+00		0.000000e+00		0.000000e+00
0.000000e+00		0.000000e+00		0.000000e+00
0.000000e+00		0.000000e+00		0.000000e+00
0.000000e+00		0.000000e+00		0.000000e+00
0.000000e+00		0.000000e+00		0.000000e+00
0.000000e+00		0.000000e+00		0.000000e+00
0.000000e+00		0.000000e+00		0.000000e+00
0.000000e+00		0.000000e+00		0.000000e+00
0.000000e+00		0.000000e+00		0.000000e+00
0.000000e+00		0.000000e+00		0.000000e+00
0.000000e+00		0.000000e+00		0.000000e+00
0.000000e+00		0.000000e+00		0.000000e+00
0.000000e+00		0.000000e+00		0.000000e+00
0.000000e+00		0.000000e+00		0.000000e+00
0.000000e+00		0.000000e+00		0.000000e+00
0.000000e+00		0.000000e+00		0.000000e+00
0.000000e+00		0.000000e+00		0.000000e+00
0.000000e+00		0.000000e+00		0.000000e+00
0.000000e+00		0.000000e+00		0.000000e+00
0.000000e+00		0.000000e+00		0.000000e+00
0.000000e+00		0.000000e+00		0.000000e+00
0.000000e+00		0.000000e+00		0.000000e+00
0.000000e+00		0.000000e+00		0.000000e+00
0.000000e+00		0.000000e+00		0.000000e+00
0.000000e+00		0.000000e+00		0.000000e+00
0.000000e+00		0.000000e+00		0.000000e+00
0.000000e+00		0.000000e+00		0.000000e+00
0.000000e+00		0.000000e+00		0.000000e+00
0.000000e+00		0.000000e+00		0.000000e+00
0.000000e+00		0.000000e+00		0.000000e+00
0.000000e+00		0.000000e+00		0.000000e+00
0.000000e+00		0.000000e+00		0.000000e+00
0.000000e+00		0.000000e+00		0.000000e+00
0.000000e+00		0.000000e+00		0.000000e+00
0.000000e+00		0.000000e+00		0.000000e+00
0.000000e+00		0.000000e+00		0.000000e+00
0.000000e+00		0.000000e+00		0.000000e+00
0.000000e+00		0.000000e+00		0.000000e+00
0.000000e+00		0.000000e+00		0.000000e+00
0.000000e+00		0.000000e+00		0.000000e+00
0.000000e+00		0.000000e+00		0.000000e+00
0.000000e+00		0.000000e+00		0.000000e+00
0.000000e+00		0.000000e+00		0.000000e+00
0.000000e+00		0.000000e+00		0.000000e+00
0.000000e+00		0.000000e+00		0.000000e+00
0.000000e+00		0.000000e+00		0.000000e+00
0.000000e+00		0.000000e+00		0.000000e+00
0.000000e+00		0.000000e+00		0.000000e+00
0.000000e+00		0.000000e+00		0.000000e+00
0.000000e+00		0.000000e+00		0.000000e+00
0.000000e+00		0.000000e+00		0.000000e+00
0.000000e+00		0.000000e+00		0.000000e+00
0.000000e+00		0.000000e+00		0.000000e+00
0.000000e+00		0.000000e+00		0.000000e+00
0.000000e+00		0.000000e+00		0.000000e+00
0.000000e+00		0.000000e+00		0.000000e+00
0.000000e+00		0.000000e+00		0.000000e+00
0.000000e+00		0.000000e+00		0.000000e+00
0.000000e+00		0.000000e+00		0.000000e+00
0.000000e+00		0.000000e+00		0.000000e+00
0.000000e+00		0.000000e+00		0.000000e+00
0.000000e+00		0.000000e+00		0.000000e+00
0.000000e+00		0.000000e+00		0.000000e+00
0.000000e+00		0.000000e+00		0.000000e+00
0.000000e+00		0.000000e+00		0.000000e+00
0.000000e+00		0.000000e+00		0.000000e+00
0.000000e+00		0.000000e+00		0.000000e+00
0.000000e+00		0.000000e+00		0.000000e+00
0.000000e+00		0.000000e+00		0.000000e+00
0.000000e+00		0.000000e+00		0.000000e+00
0.000000e+00		0.000000e+00		0.000000e+00
0.000000e+00		0.000000e+00		0.000000e+00
0.000000e+00		0.000000e+00		0.000000e+00
0.000000e+00		0.000000e+00		0.000000e+00
0.000000e+00		0.000000e+00		0.000000e+00
0.000000e+00		0.000000e+00		0.000000e+00
0.000000e+00		0.000000e+00		0.000000e+00
0.000000e+00		0.000000e+00		0.000000e+00
0.000000e+00		0.000000e+00		0.000000e+00
0.000000e+00		0.000000e+00		0.000000e+00
0.000000e+00		0.000000e+00		0.000000e+00
0.000000e+00		0.000000e+00		0.000000e+00
0.000000e+00		0.000000e+00		0.000000e+00
0.000000e+00		0.000000e+00		0.000000e+00
0.000000e+00		0.000000e+00		0.000000e+00
0.000000e+00		0.000000e+00		0.000000e+00
0.000000e+00		0.000000e+00		0.000000e+00
0.000000e+00		0.000000e+00		0.000000e+00
0.000000e+00		0.000000e+00		0.000000e+00
0.000000e+00		0.000000e+00		0.000000e+00
0.000000e+00		0.000000e+00		0.000000e+00
0.000000e+00		0.000000e+00		0.000000e+00
0.000000e+00		0.000000e+00		0.000000e+00
0.000000e+00		0.000000e+00		0.000000e+00
0.000000e+00		0.000000e+00		0.000000e+00
0.000000e+00		0.000000e+00		0.000000e+00
0.000000e+00		0.000000e+00		0.000000e+00
0.000000e+00		0.000000e+00		0.000000e+00
0.000000e+00		0.000000e+00		0.000000e+00
0.000000e+00		0.000000e+00		0.000000e+00
0.000000e+00		0.000000e+00		0.000000e+00
0.000000e+00		0.000000e+00		0.000000e+00
0.000000e+00		0.000000e+00		0.000000e+00
0.000000e+00		0.000000e+00		0.000000e+00
0.000000e+00		0.000000e+00		0.000000e+00
0.000000e+00		0.000000e+00		0.000000e+00
0.000000e+00		0.000000e+00		0.000000e+00
0.000000e+00		0.000000e+00		0.000000e+00
0.000000e+00		0.000000e+00		0.000000e+00
0.000000e+00		0.000000e+00		0.000000e+00
0.000000e+00		0.000000e+00		0.000000e+00
0.000000e+00		0.000000e+00		0.000000e+00
0.000000e+00		0.000000e+00		0.000000e+00
0.000000e+00		0.000000e+00		0.000000e+00
0.000000e+00		0.000000e+00		0.000000e+00
0.000000e+00		0.000000e+00		0.000000e+00
0.000000e+00		0.000000e+00		0.000000e+00
0.000000e+00		0.000000e+00		0.000000e+00
0.000000e+00		0.000000e+00		0.000000e+00
0.000000e+00		0.000000e+00		0.000000e+00
0.000000e+00		0.000000e+00		0.000000e+00
0.000000e+00		0.000000e+00		0.000000e+00
0.000000e+00		0.000000e+00		0.000000e+00
0.000000e+00		0.000000e+00		0.000000e+00
0.000000e+00		0.000000e+00		0.000000e+00
0.000000e+00		0.000000e+00		0.000000e+00
0.000000e+00		0.000000e+00		0.000000e+00
0.000000e+00		0.000000e+00		0.000000e+00
0.000000e+00		0.000000e+00		0.000000e+00
0.000000e+00		0.000000e+00		0.000000e+00
0.000000e+00		0.000000e+00		0.000000e+00
0.000000e+00		0.000000e+00		0.000000e+00
0.000000e+00		0.000000e+00		0.000000e+00
0.000000e+00		0.000000e+00		0.000000e+00
0.000000e+00		0.000000e+00		0.000000e+00
0.000000e+00		0.000000e+00		0.000000e+00
0.000000e+00		0.000000e+00		0.000000e+00
0.000000e+00		0.000000e+00		0.000000e+00
0.000000e+00		0.000000e+00		0.000000e+00
0.000000e+00		0.000000e+00		0.000000e+00
0.000000e+00		0.000000e+00		0.000000e+00
0.000000e+00		0.000000e+00		0.000000e+00
0.000000e+00		0.000000e+00		0.000000e+00
0.000000e+00		0.000000e+00		0.000000e+00
0.000000e+00		0.000000e+00		0.000000e+00
0.000000e+00		0.000000e+00		0.000000e+00
0.000000e+00		0.000000e+00		0.000000e+00
0.000000e+00		0.000000e+00		0.000000e+00
0.000000e+00		0.000000e+00		0.000000e+00
0.000000e+00		0.000000e+00		0.000000e+00
0.000000e+00		0.000000e+00		0.000000e+00
0.000000e+00		0.000000e+00		0.000000e+00
0.000000e+00		0.000000e+00		0.000000e+00
0.000000e+00		0.000000e+00		0.000000e+00
0.000000e+00		0.000000e+00		0.000000e+00
0.000000e+00		0.000000e+00		0.000000e+00
0.000000e+00		0.000000e+00		0.000000e+00
0.000000e+00		0.000000e+00		0.000000e+00
0.000000e+00		0.000000e+00		0.000000e+00
0.000000e+00		0.000000e+00		0.000000e+00
0.000000e+00		0.000000e+00		0.000000e+00
0.000000e+00		0.000000e+00		0.000000e+00
0.000000e+00		0.000000e+00		0.000000e+00
0.000000e+00		0.000000e+00		0.000000e+00
0.000000e+00		0.000000e+00		0.000000e+00
0.000000e+00		0.000000e+00		0.000000e+00
0.000000e+00		0.000000e+00		0.000000e+00
0.000000e+00		0.000000e+00		0.000000e+00
0.000000e+00		0.000000e+00		0.000000e+00
0.000000e+00		0.000000e+00		0.000000e+00
0.000000e+00		0.000000e+00		0.000000e+00
0.000000e+00		0.000000e+00		0.000000e+00
0.000000e+00		0.000000e+00		0.000000e+00
0.000000e+00		0.000000e+00		0.000000e+00
0.000000e+00		0.000000e+00		0.000000e+00
0.000000e+00		0.000000e+00		0.000000e+00
0.000000e+00		0.000000e+00		0.000000e+00
0.000000e+00		0.000000e+00		0.000000e+00
0.000000e+00		0.000000e+00		0.000000e+00
0.000000e+00		0.000000e+00		0.000000e+00
0.000000e+00		0.000000e+00		0.000000e+00
0.000000e+00		0.000000e+00		0.000000e+00
0.000000e+00		0.000000e+00		0.000000e+00
0.000000e+00		0.000000e+00		0.000000e+00
0.000000e+00		0.000000e+00		0.000000e+00
0.000000e+00		0.000000e+00		0.000000e+00
0.000000e+00		0.000000e+00		0.000000e+00
0.000000e+00		0.000000e+00		0.000000e+00
0.000000e+00		0.000000e+00		0.000000e+00
0.000000e+00		0.000000e+00		0.000000e+00
0.000000e+00		0.000000e+00		0.000000e+00
0.000000e+00		0.000000e+00		0.000000e+00
0.000000e+00		0.000000e+00		0.000000e+00
0.000000e+00		0.000000e+00		0.000000e+00
0.000000e+00		0.000000e+00		0.000000e+00
0.000000e+00		0.000000e+00		0.000000e+00
0.000000e+00		0.000000e+00		0.000000e+00
0.000000e+00		0.000000e+00		0.000000e+00
0.000000e+00		0.000000e+00		0.000000e+00
0.000000e+00		0.000000e+00		0.000000e+00
0.000000e+00		0.000000e+00		0.000000e+00
0.000000e+00		0.000000e+00		0.000000e+00
0.000000e+00		0.000000e+00		0.000000e+00
0.000000e+00		0.000000e+00		0.000000e+00
0.000000e+00		0.000000e+00		0.000000e+00
0.000000e+00		0.000000e+00		0.000000e+00
0.000000e+00		0.000000e+00		0.000000e+00
0.000000e+00		0.000000e+00		0.000000e+00
0.000000e+00		0.000000e+00		0.000000e+00
0.000000e+00		0.000000e+00		0.000000e+00
0.000000e+00		0.000000e+00		0.000000e+00
0.000000e+00		0.000000e+00		0.000000e+00
0.000000e+00		0.000000e+00		0.000000e+00
0.000000e+00		0.000000e+00		0.000000e+00
0.000000e+00		0.000000e+00		0.000000e+00
0.000000e+00		0.000000e+00		0.000000e+00
0.000000e+00		0.000000e+00		0.000000e+00
0.000000e+00		0.000000e+00		0.000000e+00
0.000000e+00		0.000000e+00		0.000000e+00
0.000000e+00		0.000000e+00		0.000000e+00
0.000000e+00		0.000000e+00		0.000000e+00
0.000000e+00		0.000000e+00		0.000000e+00
0.000000e+00		0.000000e+00		0.000000e+00
0.000000e+00		0.000000e+00		0.000000e+00
0.000000e+00		0.000000e+00		0.000000e+00
0.000000e+00		0.000000e+00		0.000000e+00
0.000000e+00		0.000000e+00		0.000000e+00
0.000000e+00		0.000000e+00		0.000000e+00
0.000000e+00		0.000000e+00		0.000000e+00
0.000000e+00		0.000000e+00		0.000000e+00
0.000000e+00		0.000000e+00		0.000000e+00
0.000000e+00		0.000000e+00		0.000000e+00
0.000000e+00		0.000000e+00		0.000000e+00
0.000000e+00		0.000000e+00		0.000000e+00
0.000000e+00		0.000000e+00		0.000000e+00
0.000000e+00		0.000000e+00		0.000000e+00
0.000000e+00		0.000000e+00		0.000000e+00
0.000000e+00		0.000000e+00		0.000000e+00
0.000000e+00		0.000000e+00		0.000000e+00
0.000000e+00		0.000000e+00		0.000000e+00
0.000000e+00		0.000000e+00		0.000000e+00
0.000000e+00		0.000000e+00		0.000000e+00
0.000000e+00		0.000000e+00		0.000000e+00
0.000000e+00		0.000000e+00		0.000000e+00
0.000000e+00		0.000000e+00		0.000000e+00
0.000000e+00		0.000000e+00		0.000000e+00
0.000000e+00		0.000000e+00		0.000000e+00
0.000000e+00		0.000000e+00		0.000000e+00
0.000000e+00		0.000000e+00		0.000000e+00
0.000000e+00		0.000000e+00		0.000000e+00
0.000000e+00		0.000000e+00		0.000000e+00
0.000000e+00		0.000000e+00		0.000000e+00
0.000000e+00		0.000000e+00		0.000000e+00
0.000000e+00		0.000000e+00		0.000000e+00
0.000000e+00		0.000000e+00		0.000000e+00
0.000000e+00		0.000000e+00		0.000000e+00
0.000000e+00		0.000000e+00		0.000000e+00
0.000000e+00		0.000000e+00		0.000000e+00
0.000000e+00		0.000000e+00		0.000000e+00
0.000000e+00		0.000000e+00		0.000000e+00
0.000000e+00		0.000000e+00		0.000000e+00
0.000000e+00		0.000000e+00		0.000000e+00
0.000000e+00		0.000000e+00		0.000000e+00
0.000000e+00		0.000000e+00		0.000000e+00
0.000000e+00		0.000000e+00		0.000000e+00
0.000000e+00		0.000000e+00		0.000000e+00
0.000000e+00		0.000000e+00		0.000000e+00
0.000000e+00		0.000000e+00		0.000000e+00
0.000000e+00		0.000000e+00		0.000000e+00
0.000000e+00		0.000000e+00		0.000000e+00
0.000000e+00		0.000000e+00		0.000000e+00
0.000000e+00		0.000000e+00		0.000000e+00
0.000000e+00		0.000000e+00		0.000000e+00
0.000000e+00		0.000000e+00		0.000000e+00
0.000000e+00		0.000000e+00		0.000000e+00
0.000000e+00		0.000000e+00		0.000000e+00
0.000000e+00		0.000000e+00		0.000000e+00
0.000000e+00		0.000000e+00		0.000000e+00
0.000000e+00		0.000000e+00		0.000000e+00
0.000000e+00		0.000000e+00		0.000000e+00
0.000000e+00		0.000000e+00		0.000000e+00
0.000000e+00		0.000000e+00		0.000000e+00
0.000000e+00		0.000000e+00		0.000000e+00
0.000000e+00		0.000000e+00		0.000000e+00
0.000000e+00		0.000000e+00		0.000000e+00
0.000000e+00		0.000000e+00		0.000000e+00
0.000000e+00		0.000000e+00		0.000000e+00
0.000000e+00		0.000000e+00		0.000000e+00
0.000000e+00		0.000000e+00		0.000000e+00
0.000000e+00		0.000000e+00		0.000000e+00
0.000000e+00		0.000000e+00		0.000000e+00
0.000000e+00		0.000000e+00		0.000000e+00
0.000000e+00		0.000000e+00		0.000000e+00
0.000000e+00		0.000000e+00		0.000000e+00
0.000000e+00		0.000000e+00		0.000000e+00
0.000000e+00		0.000000e+00		0.000000e+00
0.000000e+00		0.000000e+00		0.000000e+00
0.000000e+00		0.000000e+00		0.000000e+00
0.000000e+00		0.000000e+00		0.000000e+00
0.000000e+00		0.000000e+00		0.000000e+00
0.000000e+00		0.000000e+00		0.000000e+00
0.000000e+00		0.000000e+00		0.000000e+00
0.000000e+00		0.000000e+00		0.000000e+00
0.000000e+00		0.000000e+00		0.000000e+00
0.000000e+00		0.000000e+00		0.000000e+00
0.000000e+00		0.000000e+00		0.000000e+00
0.000000e+00		0.000000e+00		0.000000e+00
0.000000e+00		0.000000e+00		0.000000e+00
0.000000e+00		0.000000e+00		0.000000e+00
0.000000e+00		0.000000e+00		0.000000e+00
0.000000e+00		0.000000e+00		0.000000e+00
0.000000e+00		0.000000e+00		0.000000e+00
0.000000e+00		0.000000e+00		0.000000e+00
0.000000e+00		0.000000e+00		0.000000e+00
0.000000e+00		0.000000e+00		0.000000e+00
0.000000e+00		0.000000e+00		0.000000e+00
0.000000e+00		0.000000e+00		0.000000e+00
0.000000e+00		0.000000e+00		0.000000e+00
0.000000e+00		0.000000e+00		0.000000e+00
0.000000e+00		0.000000e+00		0.000000e+00
0.000000e+00		0.000000e+00		0.000000e+00
0.000000e+00		0.000000e+00		0.000000e+00
0.000000e+00		0.000000e+00		0.000000e+00
0.000000e+00		0.000000e+00		0.000000e+00
0.000000e+00		0.000000e+00		0.000000e+00
0.000000e+00		0.000000e+00		0.000000e+00
0.000000e+00		0.000000e+00		0.000000e+00
0.000000e+00		0.000000e+00		0.000000e+00
0.000000e+00		0.000000e+00		0.000000e+00
0.000000e+00		0.000000e+00		0.000000e+00
0.000000e+00		0.000000e+00		0.000000e+00
0.000000e+00		0.000000e+00		0.000000e+00
0.000000e+00		0.000000e+00		0.000000e+00
0.000000e+00		0.000000e+00		0.000000e+00
0.000000e+00		0.000000e+00		0.000000e+00
0.000000e+00		0.000000e+00		0.000000e+00
0.000000e+00		0.000000e+00		0.000000e+00
0.000000e+00		0.000000e+00		0.000000e+00
0.000000e+00		0.000000e+00		0.000000e+00
0.000000e+00		0.000000e+00		0.000000e+00
0.000000e+00		0.000000e+00		0.000000e+00
0.000000e+00		0.000000e+00		0.000000e+00
0.000000e+00		0.000000e+00		0.000000e+00
0.000000e+00		0.000000e+00		0.000000e+00
0.000000e+00		0.000000e+00		0.000000e+00
0.000000e+00		0.000000e+00		0.000000e+00
0.000000e+00		0.000000e+00		0.000000e+00
0.000000e+00		0.000000e+00		0.000000e+00
0.000000e+00		0.000000e+00		0.000000e+00
0.000000e+00		0.000000e+00		0.000000e+00
0.000000e+00		0.000000e+00		0.000000e+00
0.000000e+00		0.000000e+00		0.000000e+00
0.000000e+00		0.000000e+00		0.000000e+00
0.000000e+00		0.000000e+00		0.000000e+00
0.000000e+00		0.000000e+00		0.000000e+00
0.000000e+00		0.000000e+00		0.000000e+00
0.000000e+00		0.000000e+00		0.000000e+00
0.000000e+00		0.000000e+00		0.000000e+00
0.000000e+00		0.000000e+00		0.000000e+00
0.000000e+00		0.000000e+00		0.000000e+00
0.000000e+00		0.000000e+00		0.000000e+00
0.000000e+00		0.000000e+00		0.000000e+00
0.000000e+00		0.000000e+00		0.000000e+00
0.000000e+00		0.000000e+00		0.000000e+00
0.000000e+00		0.000000e+00		0.000000e+00
0.000000e+00		0.000000e+00		0.000000e+00
0.000000e+00		0.000000e+00		0.000000e+00
0.000000e+00		0.000000e+00		0.000000e+00
0.000000e+00		0.000000e+00		0.000000e+00
0.000000e+00		0.000000e+00		0.000000e+00
0.000000e+00		0.000000e+00		0.000000e+00
0.000000e+00		0.000000e+00		0.000000e+00
0.000000e+00		0.000000e+00		0.000000e+00
0.000000e+00		0.000000e+00		0.000000e+00
0.000000e+00		0.000000e+00		0.000000e+00
0.000000e+00		0.000000e+00		0.000000e+00
0.000000e+00		0.000000e+00		0.000000e+00
0.000000e+00		0.000000e+00		0.000000e+00
0.000000e+00		0.000000e+00		0.000000e+00
0.000000e+00		0.000000e+00		0.000000e+00
0.000000e+00		0.000000e+00		0.000000e+00
0.000000e+00		0.000000e+00		0.000000e+00
0.000000e+00		0.000000e+00		0.000000e+00
0.000000e+00		0.000000e+00		0.000000e+00
0.000000e+00		0.000000e+00		0.000000e+00
0.000000e+00		0.000000e+00		0.000000e+00
0.000000e+00		0.000000e+00		0.000000e+00
0.000000e+00		0.000000e+00		0.000000e+00
0.000000e+00		0.000000e+00		0.000000e+00
0.000000e+00		0.000000e+00		0.000000e+00
0.000000e+00		0.000000e+00		0.000000e+00
0.000000e+00		0.000000e+00		0.000000e+00
0.000000e+00		0.000000e+00		0.000000e+00
0.000000e+00		0.000000e+00		0.000000e+00
0.000000e+00		0.000000e+00		0.000000e+00
0.000000e+00		0.000000e+00		0.000000e+00
0.000000e+00		0.000000e+00		0.000000e+00
0.000000e+00		0.000000e+00		0.000000e+00
0.000000e+00		0.000000e+00		0.000000e+00
0.000000e+00		0.000000e+00		0.000000e+00
0.000000e+00		0.000000e+00		0.000000e+00
0.000000e+00		0.000000e+00		0.000000e+00
0.000000e+00		0.000000e+00		0.000000e+00
0.000000e+00		0.000000e+00		0.000000e+00
0.000000e+00		0.000000e+00		0.000000e+00
0.000000e+00		0.000000e+00		0.000000e+00
0.000000e+00		0.000000e+00		0.000000e+00
0.000000e+00		0.000000e+00		0.000000e+00
0.000000e+00		0.000000e+00		0.000000e+00
0.000000e+00		0.000000e+00		0.000000e+00
0.000000e+00		0.000000e+00		0.000000e+00
0.000000e+00		0.000000e+00		0.000000e+00
0.000000e+00		0.000000e+00		0.000000e+00
0.000000e+00		0.000000e+00		0.000000e+00
0.000000e+00		0.000000e+00		0.000000e+00
0.000000e+00		0.000000e+00		0.000000e+00
0.000000e+00		0.000000e+00		0.000000e+00
0.000000e+00		0.000000e+00		0.000000e+00
0.000000e+00		0.000000e+00		0.000000e+00
0.000000e+00		0.000000e+00		0.000000e+00
0.000000e+00		0.000000e+00		0.000000e+00
0.000000e+00		0.000000e+00		0.000000e+00
0.000000e+00		0.000000e+00		0.000000e+00
0.000000e+00		0.000000e+00		0.000000e+00
0.000000e+00		0.000000e+00		0.000000e+00
0.000000e+00		0.000000e+00		0.000000e+00
0.000000e+00		0.000000e+00		0.000000e+00
0.000000e+00		0.000000e+00		0.000000e+00
0.000000e+00		0.000000e+00		0.000000e+00
0.000000e+00		0.000000e+00		0.000000e+00
0.000000e+00		0.000000e+00		0.000000e+00
0.000000e+00		0.000000e+00		0.000000e+00
0.000000e+00		0.000000e+00		0.000000e+00
0.000000e+00		0.000000e+00		0.000000e+00
0.000000e+00		0.000000e+00		0.000000e+00
0.000000e+00		0.000000e+00		0.000000e+00
0.000000e+00		0.000000e+00		0.000000e+00
0.000000e+00		0.000000e+00		0.000000e+00
0.000000e+00		0.000000e+00		0.000000e+00
0.000000e+00		0.000000e+00		0.000000e+00
0.000000e+00		0.000000e+00		0.000000e+00
0.000000e+00		0.000000e+00		0.000000e+00
0.000000e+00		0.000000e+00		0.000000e+00
0.000000e+00		0.000000e+00		0.000000e+00
0.000000e+00		0.000000e+00		0.000000e+00
0.000000e+00		0.000000e+00		0.000000e+00
0.000000e+00		0.000000e+00		0.000000e+00
0.000000e+00		0.000000e+00		0.000000e+00
0.000000e+00		0.000000e+00		0.000000e+00
0.000000e+00		0.000000e+00		0.000000e+00
0.000000e+00		0.000000e+00		0.000000e+00
0.000000e+00		0.000000e+00		0.000000e+00
0.000000e+00		0.000000e+00		0.000000e+00
0.000000e+00		0.000000e+00		0.000000e+00
0.000000e+00		0.000000e+00		0.000000e+00
0.000000e+00		0.000000e+00		0.000000e+00
0.000000e+00		0.000000e+00		0.000000e+00
0.000000e+00		0.000000e+00		0.000000e+00
0.000000e+00		0.000000e+00		0.000000e+00
0.000000e+00		0.000000e+00		0.000000e+00
0.000000e+00		0.000000e+00		0.000000e+00
0.000000e+00		0.000000e+00		0.000000e+00
0.000000e+00		0.000000e+00		0.000000e+00
0.000000e+00		0.000000e+00		0.000000e+00
0.000000e+00		0.000000e+00		0.000000e+00
0.000000e+00		0.000000e+00		0.000000e+00
0.000000e+00		0.000000e+00		0.000000e+00
0.000000e+00		0.000000e+00		0.000000e+00
0.000000e+00		0.000000e+00		0.000000e+00
0.000000e+00		0.000000e+00		0.000000e+00
0.000000e+00		0.000000e+00		0.000000e+00
0.000000e+00		0.000000e+00		0.000000e+00
0.000000e+00		0.000000e+00		0.000000e+00
0.000000e+00		0.000000e+00		0.000000e+00
0.000000e+00		0.000000e+00		0.000000e+00
0.000000e+00		0.000000e+00		0.000000e+00
0.000000e+00		0.000000e+00		0.000000e+00
0.000000e+00		0.000000e+00		0.000000e+00
0.000000e+00		0.000000e+00		0.000000e+00
0.000000e+00		0.000000e+00		0.000000e+00
0.000000e+00		0.000000e+00		0.000000e+00
0.000000e+00		0.000000e+00		0.000000e+00
0.000000e+00		0.000000e+00		0.000000e+00
0.000000e+00		0.000000e+00		0.000000e+00
0.000000e+00		0.000000e+00		0.000000e+00
0.000000e+00		0.000000e+00		0.000000e+00
0.000000e+00		0.000000e+00		0.000000e+00
0.000000e+00		0.000000e+00		0.000000e+00
0.000000e+00		0.000000e+00		0.000000e+00
0.000000e+00		0.000000e+00		0.000000e+00
0.000000e+00		0.000000e+00		0.000000e+00
0.000000e+00		0.000000e+00		0.000000e+00
0.000000e+00		0.000000e+00		0.000000e+00
0.000000e+00		0.000000e+00		0.000000e+00
0.000000e+00		0.000000e+00		0.000000e+00
0.000000e+00		0.000000e+00		0.000000e+00
0.000000e+00		0.000000e+00		0.000000e+00
0.000000e+00		0.000000e+00		0.000000e+00
0.000000e+00		0.000000e+00		0.000000e+00
0.000000e+00		0.000000e+00		0.000000e+00
0.000000e+00		0.000000e+00		0.000000e+00
0.000000e+00		0.000000e+00		0.000000e+00
0.000000e+00		0.000000e+00		0.000000e+00
0.000000e+00		0.000000e+00		0.000000e+00
0.000000e+00		0.000000e+00		0.000000e+00
0.000000e+00		0.000000e+00		0.000000e+00
0.000000e+00		0.000000e+00		0.000000e+00
0.000000e+00		0.000000e+00		0.000000e+00
0.000000e+00		0.000000e+00		0.000000e+00
0.000000e+00		0.000000e+00		0.000000e+00
0.000000e+00		0.000000e+00		0.000000e+00
0.000000e+00		0.000000e+00		0.000000e+00
0.000000e+00		0.000000e+00		0.000000e+00
0.000000e+00		0.000000e+00		0.000000e+00
0.000000e+00		0.000000e+00		0.000000e+00
0.000000e+00		0.000000e+00		0.000000e+00
0.000000e+00		0.000000e+00		0.000000e+00
0.000000e+00		0.000000e+00		0.000000e+00
0.000000e+00		0.000000e+00		0.000000e+00
0.000000e+00		0.000000e+00		0.000000e+00
0.000000e+00		0.000000e+00		0.000000e+00
0.000000e+00		0.000000e+00		0.000000e+00
0.000000e+00		0.000000e+00		0.000000e+00
0.000000e+00		0.000000e+00		0.000000e+00
0.000000e+00		0.000000e+00		0.000000e+00
0.000000e+00		0.000000e+00		0.000000e+00
0.000000e+00		0.000000e+00		0.000000e+00
0.000000e+00		0.000000e+00		0.000000e+00
0.000000e+00		0.000000e+00		0.000000e+00
0.000000e+00		0.000000e+00		0.000000e+00
0.000000e+00		0.000000e+00		0.000000e+00
0.000000e+00		0.000000e+00		0.000000e+00
0.000000e+00		0.000000e+00		0.000000e+00
0.000000e+00		0.000000e+00		0.000000e+00
0.000000e+00		0.000000e+00		0.000000e+00
0.000000e+00		0.000000e+00		0.000000e+00
0.000000e+00		0.000000e+00		0.000000e+00
0.000000e+00		0.000000e+00		0.000000e+00
0.000000e+00		0.000000e+00		0.000000e+00
0.000000e+00		0.000000e+00		0.000000e+00
0.000000e+00		0.000000e+00		0.000000e+00
0.000000e+00		0.000000e+00		0.000000e+00
0.000000e+00		0.000000e+00		0.000000e+00
0.000000e+00		0.000000e+00		0.000000e+00
0.000000e+00		0.000000e+00		0.000000e+00
0.000000e+00		0.000000e+00		0.000000e+00
0.000000e+00		0.000000e+00		0.000000e+00
0.000000e+00		0.000000e+00		0.000000e+00
0.000000e+00		0.000000e+00		0.000000e+00
0.000000e+00		0.000000e+00		0.000000e+00
0.000000e+00		0.000000e+00		0.000000e+00
0.000000e+00		0.000000e+00		0.000000e+00
0.000000e+00		0.000000e+00		0.000000e+00
0.000000e+00		0.000000e+00		0.000000e+00
0.000000e+00		0.000000e+00		0.000000e+00
0.000000e+00		0.000000e+00		0.000000e+00
0.000000e+00		0.000000e+00		0.000000e+00
0.000000e+00		0.000000e+00		0.000000e+00
0.000000e+00		0.000000e+00		0.000000e+00
0.000000e+00		0.000000e+00		0.000000e+00
0.000000e+00		0.000000e+00		0.000000e+00
0.000000e+00		0.000000e+00		0.000000e+00
0.000000e+00		0.000000e+00		0.000000e+00
0.000000e+00		0.000000e+00		0.000000e+00
0.000000e+00		0.000000e+00		0.000000e+00
0.000000e+00		0.000000e+00		0.000000e+00
0.000000e+00		0.000000e+00		0.000000e+00
0.000000e+00		0.000000e+00		0.000000e+00
0.000000e+00		0.000000e+00		0.000000e+00
0.000000e+00		0.000000e+00		0.000000e+00
0.000000e+00		0.000000e+00		0.000000e+00
0.000000e+00		0.000000e+00		0.000000e+00
0.000000e+00		0.000000e+00		0.000000e+00
0.000000e+00		0.000000e+00		0.000000e+00
0.000000e+00		0.000000e+00		0.000000e+00
0.000000e+00		0.000000e+00		0.000000e+00
0.000000e+00		0.000000e+00		0.000000e+00
0.000000e+00		0.000000e+00		0.000000e+00
0.000000e+00		0.000000e+00		0.000000e+00
0.000000e+00		0.000000e+00		0.000000e+00
0.000000e+00		0.000000e+00		0.000000e+00
0.000000e+00		0.000000e+00		0.000000e+00
0.000000e+00		0.000000e+00		0.000000e+00
0.000000e+00		0.000000e+00		0.000000e+00
0.000000e+00		0.000000e+00		0.000000e+00
0.000000e+00		0.000000e+00		0.000000e+00
0.000000e+00		0.000000e+00		0.000000e+00
0.000000e+00		0.000000e+00		0.000000e+00
0.000000e+00		0.000000e+00		0.000000e+00
0.000000e+00		0.000000e+00		0.000000e+00
0.000000e+00		0.000000e+00		0.000000e+00
0.000000e+00		0.000000e+00		0.000000e+00
0.000000e+00		0.000000e+00		0.000000e+00
0.000000e+00		0.000000e+00		0.000000e+00
0.000000e+00		0.000000e+00		0.000000e+00
0.000000e+00		0.000000e+00		0.000000e+00
0.000000e+00		0.000000e+00		0.000000e+00
0.000000e+00		0.000000e+00		0.000000e+00
0.000000e+00		0.000000e+00		0.000000e+00
0.000000e+00		0.000000e+00		0.000000e+00
0.000000e+00		0.000000e+00		0.000000e+00
0.000000e+00		0.000000e+00		0.000000e+00
0.000000e+00		0.000000e+00		0.000000e+00
0.000000e+00		0.000000e+00		0.000000e+00
0.000000e+00		0.000000e+00		0.000000e+00
0.000000e+00		0.000000e+00		0.000000e+00
0.000000e+00		0.000000e+00		0.000000e+00
0.000000e+00		0.000000e+00		0.000000e+00
0.000000e+00		0.000000e+00		0.000000e+00
0.000000e+00		0.000000e+00		0.000000e+00
0.000000e+00		0.000000e+00		0.000000e+00
0.000000e+00		0.000000e+00		0.000000e+00
0.000000e+00		0.000000e+00		0.000000e+00
0.000000e+00		0.000000e+00		0.000000e+00
0.000000e+00		0.000000e+00		0.000000e+00
0.000000e+00		0.000000e+00		0.000000e+00
0.000000e+00		0.000000e+00		0.000000e+00
0.000000e+00		0.000000e+00		0.000000e+00
0.000000e+00		0.000000e+00		0.000000e+00
0.000000e+00		0.000000e+00		0.000000e+00
0.000000e+00		0.000000e+00		0.000000e+00
0.000000e+00		0.000000e+00		0.000000e+00
0.000000e+00		0.000000e+00		0.000000e+00
0.000000e+00		0.000000e+00		0.000000e+00
0.000000e+00		0.000000e+00		0.000000e+00
0.000000e+00		0.000000e+00		0.000000e+00
0.000000e+00		0.000000e+00		0.000000e+00
0.000000e+00		0.000000e+00		0.000000e+00
0.000000e+00		0.000000e+00		0.000000e+00
0.000000e+00		0.000000e+00		0.000000e+00
0.000000e+00		0.000000e+00		0.000000e+00
0.000000e+00		0.000000e+00		0.000000e+00
0.000000e+00		0.000000e+00		0.000000e+00
0.000000e+00		0.000000e+00		0.000000e+00
0.000000e+00		0.000000e+00		0.000000e+00
0.000000e+00		0.000000e+00		0.000000e+00
0.000000e+00		0.000000e+00		0.000000e+00
0.000000e+00		0.000000e+00		0.000000e+00
0.000000e+00		0.000000e+00		0.000000e+00
0.000000e+00		0.000000e+00		0.000000e+00
0.000000e+00		0.000000e+00		0.000000e+00
0.000000e+00		0.000000e+00		0.000000e+00
0.000000e+00		0.000000e+00		0.000000e+00
0.000000e+00		0.000000e+00		0.000000e+00
0.000000e+00		0.000000e+00		0.000000e+00
0.000000e+00		0.000000e+00		0.000000e+00
0.000000e+00		0.000000e+00		0.000000e+00
0.000000e+00		0.000000e+00		0.000000e+00
0.000000e+00		0.000000e+00		0.000000e+00
0.000000e+00		0.000000e+00		0.000000e+00
0.000000e+00		0.000000e+00		0.000000e+00
0.000000e+00		0.000000e+00		0.000000e+00
0.000000e+00		0.000000e+00		0.000000e+00
0.000000e+00		0.000000e+00		0.000000e+00
0.000000e+00		0.000000e+00		0.000000e+00
0.000000e+00		0.000000e+00		0.000000e+00
0.000000e+00		0.000000e+00		0.000000e+00
0.000000e+00		0.000000e+00		0.000000e+00
0.000000e+00		0.000000e+00		0.000000e+00
0.000000e+00		0.000000e+00		0.000000e+00
0.000000e+00		0.000000e+00		0.000000e+00
0.000000e+00		0.000000e+00		0.000000e+00
0.000000e+00		0.000000e+00		0.000000e+00
0.000000e+00		0.000000e+00		0.000000e+00
0.000000e+00		0.000000e+00		0.000000e+00
0.000000e+00		0.000000e+00		0.000000e+00
0.000000e+00		0.000000e+00		0.000000e+00
0.000000e+00		0.000000e+00		0.000000e+00
0.000000e+00		0.000000e+00		0.000000e+00
0.000000e+00		0.000000e+00		0.000000e+00
0.000000e+00		0.000000e+00		0.000000e+00
0.000000e+00		0.000000e+00		0.000000e+00
0.000000e+00		0.000000e+00		0.000000e+00
0.000000e+00		0.000000e+00		0.000000e+00
0.000000e+00		0.000000e+00		0.000000e+00
0.000000e+00		0.000000e+00		0.000000e+00
0.000000e+00		0.000000e+00		0.000000e+00
0.000000e+00		0.000000e+00		0.000000e+00
0.000000e+00		0.000000e+00		0.000000e+00
0.000000e+00		0.000000e+00		0.000000e+00
0.000000e+00		0.000000e+00		0.000000e+00
0.000000e+00		0.000000e+00		0.000000e+00
0.000000e+00		0.000000e+00		0.000000e+00
0.000000e+00		0.000000e+00		0.000000e+00
0.000000e+00		0.000000e+00		0.000000e+00
0.000000e+00		0.000000e+00		0.000000e+00
0.000000e+00		0.000000e+00		0.000000e+00
0.000000e+00		0.000000e+00		0.000000e+00
0.000000e+00		0.000000e+00		0.000000e+00
0.000000e+00		0.000000e+00		0.000000e+00
0.000000e+00		0.000000e+00		0.000000e+00
0.000000e+00		0.000000e+00		0.000000e+00
0.000000e+00		0.000000e+00		0.000000e+00
0.000000e+00		0.000000e+00		0.000000e+00
0.000000e+00		0.000000e+00		0.000000e+00
0.000000e+00		0.000000e+00		0.000000e+00
0.000000e+00		0.000000e+00		0.000000e+00
0.000000e+00		0.000000e+00		0.000000e+00
0.000000e+00		0.000000e+00		0.000000e+00
0.000000e+00		0.000000e+00		0.000000e+00
0.000000e+00		0.000000e+00		0.000000e+00
0.000000e+00		0.000000e+00		0.000000e+00
0.000000e+00		0.000000e+00		0.000000e+00
0.000000e+00		0.000000e+00		0.000000e+00
0.000000e+00		0.000000e+00		0.000000e+00
0.000000e+00		0.000000e+00		0.000000e+00
0.000000e+00		0.000000e+00		0.000000e+00
0.000000e+00		0.000000e+00		0.000000e+00
0.000000e+00		0.000000e+00		0.000000e+00
0.000000e+00		0.000000e+00		0.000000e+00
0.000000e+00		0.000000e+00		0.000000e+00
0.000000e+00		0.000000e+00		0.000000e+00
0.000000e+00		0.000000e+00		0.000000e+00
0.000000e+00		0.000000e+00		0.000000e+00
0.000000e+00		0.000000e+00		0.000000e+00
0.000000e+00		0.000000e+00		0.000000e+00
0.000000e+00		0.000000e+00		0.000000e+00
0.000000e+00		0.000000e+00		0.000000e+00
0.000000e+00		0.000000e+00		0.000000e+00
0.000000e+00		0.000000e+00		0.000000e+00
0.000000e+00		0.000000e+00		0.000000e+00
0.000000e+00		0.000000e+00		0.000000e+00
0.000000e+00		0.000000e+00		0.000000e+00
0.000000e+00		0.000000e+00		0.000000e+00
0.000000e+00		0.000000e+00		0.000000e+00
0.000000e+00		0.000000e+00		0.000000e+00
0.000000e+00		0.000000e+00		0.000000e+00
0.000000e+00		0.000000e+00		0.000000e+00
0.000000e+00		0.000000e+00		0.000000e+00
0.000000e+00		0.000000e+00		0.000000e+00
0.000000e+00		0.000000e+00		0.000000e+00
0.000000e+00		0.000000e+00		0.000000e+00
0.000000e+00		0.000000e+00		0.000000e+00
0.000000e+00		0.000000e+00		0.000000e+00
0.000000e+00		0.000000e+00		0.000000e+00
0.000000e+00		0.000000e+00		0.000000e+00
0.000000e+00		0.000000e+00		0.000000e+00
0.000000e+00		0.000000e+00		0.000000e+00
0.000000e+00		0.000000e+00		0.000000e+00
0.000000e+00		0.000000e+00		0.000000e+00
0.000000e+00		0.000000e+00		0.000000e+00
0.000000e+00		0.000000e+00		0.000000e+00
0.000000e+00		0.000000e+00		0.000000e+00
0.000000e+00		0.000000e+00		0.000000e+00
0.000000e+00		0.000000e+00		0.000000e+00
0.000000e+00		0.000000e+00		0.000000e+00
0.000000e+00		0.000000e+00		0.000000e+00
0.000000e+00		0.000000e+00		0.000000e+00
0.000000e+00		0.000000e+00		0.000000e+00
0.000000e+00		0.000000e+00		0.000000e+00
0.000000e+00		0.000000e+00		0.000000e+00
0.000000e+00		0.000000e+00		0.000000e+00
0.000000e+00		0.000000e+00		0.000000e+00
0.000000e+00		0.000000e+00		0.000000e+00
0.000000e+00		0.000000e+00		0.000000e+00
0.000000e+00		0.000000e+00		0.000000e+00
0.000000e+00		0.000000e+00		0.000000e+00
0.000000e+00		0.000000e+00		0.000000e+00
0.000000e+00		0.000000e+00		0.000000e+00
0.000000e+00		0.000000e+00		0.000000e+00
0.000000e+00		0.000000e+00		0.000000e+00
0.000000e+00		0.000000e+00		0.000000e+00
0.000000e+00		0.000000e+00		0.000000e+00
0.000000e+00		0.000000e+00		0.000000e+00
0.000000e+00		0.000000e+00		0.000000e+00
0.000000e+00		0.000000e+00		0.000000e+00
0.000000e+00		0.000000e+00		0.000000e+00
0.000000e+00		0.000000e+00		0.000000e+00
0.000000e+00		0.000000e+00		0.000000e+00
0.000000e+00		0.000000e+00		0.000000e+00
0.000000e+00		0.000000e+00		0.000000e+00
0.000000e+00		0.000000e+00		0.000000e+00
0.000000e+00		0.000000e+00		0.000000e+00
0.000000e+00		0.000000e+00		0.000000e+00
0.000000e+00		0.000000e+00		0.000000e+00
0.000000e+00		0.000000e+00		0.000000e+00
0.000000e+00		0.000000e+00		0.000000e+00
0.000000e+00		0.000000e+00		0.000000e+00
0.000000e+00		0.000000e+00		0.000000e+00
TENSORS stress double
1.982855e+10		-5.538017e-05		9.507704e+09
-5.538017e-05		1.982855e+10		1.425327e+10
9.507704e+09		1.425327e+10		4.413451e+10
1.737529e+10		-1.531094e-05		1.132476e+10
-1.531094e-05		1.737529e+10		8.005119e+09
1.132476e+10		8.005119e+09		3.867402e+10
1.609538e+10		-2.591265e-05		1.244870e+10
-2.591265e-05		1.609538e+10		2.882994e+09
1.244870e+10		2.882994e+09		3.582521e+10
1.666608e+10		-1.667347e-05		1.299724e+10
-1.667347e-05		1.666608e+10		1.233976e+09
1.299724e+10		1.233976e+09		3.709548e+10
1.736116e+10		-1.013000e-05		1.317664e+10
-1.013000e-05		1.736116e+10		2.235733e-04
1.317664e+10		2.235733e-04		3.864259e+10
1.666608e+10		-1.472980e-05		1.299724e+10
-1.472980e-05		1.666608e+10		-1.233976e+09
1.299724e+10		-1.233976e+09		3.709548e+10
1.609538e+10		-1.590699e-06		1.244870e+10
-1.590699e-06		1.609538e+10		-2.882994e+09
1.244870e+10		-2.882994e+09		3.582521e+10
1.737529e+10		-1.092441e-05		1.132476e+10
-1.092441e-05		1.737529e+10		-8.005119e+09
1.132476e+10		-8.005119e+09		3.867402e+10
1.982855e+10		9.645894e-05		9.507704e+09
9.645894e-05		1.982855e+10		-1.425327e+10
9.507704e+09		-1.425327e+10		4.413451e+10
1.323881e+10		6.258488e-06		3.187260e+09
6.258488e-06		1.323881e+10		1.060566e+10
3.187260e+09		1.060566e+10		2.946703e+10
9.480577e+09		-7.391907e-06		6.109113e+09
-7.391907e-06		9.480577e+09		2.132042e+09
6.109113e+09		2.132042e+09		2.110193e+10
1.020607e+10		-1.484668e-05		6.538319e+09
-1.484668e-05		1.020607e+10		1.676623e-04
6.538319e+09		1.676623e-04		2.271674e+10
9.480577e+09		-1.871213e-05		6.109113e+09
-1.871213e-05		9.480577e+09		-2.132042e+09
6.109113e+09		-2.132042e+09		2.110193e+10
1.323881e+10		-1.568906e-05		3.187260e+09
-1.568906e-05		1.323881e+10		-1.060566e+10
3.187260e+09		-1.060566e+10		2.946703e+10
7.617683e+09		5.632639e-06		-1.590617e+09
5.632639e-06		7.617683e+09		7.003988e+09
-1.590617e+09		7.003988e+09		1.695549e+10
5.807516e+09		-6.835908e-06		4.989458e+08
-6.835908e-06		5.807516e+09		3.910174e+09
4.989458e+08		3.910174e+09		1.292641e+10
4.614208e+09		9.746291e-07		1.738279e+09
9.746291e-07		4.614208e+09		1.414637e+09
1.738279e+09		1.414637e+09		1.027033e+10
4.735005e+09		-4.100613e-06		1.960218e+09
-4.100613e-06		4.735005e+09		5.819406e+08
1.960218e+09		5.819406e+08		1.053920e+10
5.001333e+09		-2.271496e-06		1.920593e+09
-2.271496e-06		5.001333e+09		1.349358e-04
1.920593e+09		1.349358e-04		1.113200e+10
4.735005e+09		3.725290e-07		1.960218e+09
3.725290e-07		4.735005e+09		-5.819406e+08
1.960218e+09		-5.819406e+08		1.053920e+10
4.614208e+09		-4.628673e-06		1.738279e+09
-4.628673e-06		4.614208e+09		-1.414637e+09
1.738279e+09		-1.414637e+09		1.027033e+10
5.807516e+09		5.076639e-06		4.989458e+08
5.076639e-06		5.807516e+09		-3.910174e+09
4.989458e+08		-3.910174e+09		1.292641e+10
7.617683e+09		1.952052e-06		-1.590617e+09
1.952052e-06		7.617683e+09		-7.003988e+09
-1.590617e+09		-7.003988e+09		1.695549e+10
3.611583e+09		1.654029e-06		-2.029634e+09
1.654029e-06		3.611583e+09		3.551231e+09
-2.029634e+09		3.551231e+09		8.038684e+09
2.085509e+09		-5.532056e-06		1.300214e+09
-5.532056e-06		2.085509e+09		7.240979e+08
1.300214e+09		7.240979e+08		4.641940e+09
2.267537e+09		-5.285256e-06		1.503179e+09
-5.285256e-06		2.267537e+09		7.453607e-05
1.503179e+09		7.453607e-05		5.047099e+09
2.085509e+09		-5.006790e-06		1.300214e+09
-5.006790e-06		2.085509e+09		-7.240979e+08
1.300214e+09		-7.240979e+08		4.641940e+09
3.611583e+09		5.193055e-06		-2.029634e+09
5.193055e-06		3.611583e+09		-3.551231e+09
-2.029634e+09		-3.551231e+09		8.038684e+09
2.670661e-04		-2.525747e-06		-1.769455e+09
-2.525747e-06		2.697855e-04		2.059266e-04
-1.769455e+09		2.059266e-04		6.035268e-04
1.532957e-04		-3.501773e-06		4.235521e+08
-3.501773e-06		1.600049e-04		1.131576e-04
4.235521e+08		1.131576e-04		3.524572e-04
1.191460e-04		5.930196e-07		1.594838e+09
5.930196e-07		1.148209e-04		5.049782e-05
1.594838e+09		5.049782e-05		2.636388e-04
6.800145e-05		-3.170222e-06		1.854442e+09
-3.170222e-06		7.492676e-05		3.216765e-05
1.854442e+09		3.216765e-05		1.689941e-04
9.539351e-05		-2.048444e-06		1.882492e+09
-2.048444e-06		9.321235e-05		2.852827e-05
1.882492e+09		2.852827e-05		2.127364e-04
4.522875e-05		-3.159046e-06		1.854442e+09
-3.159046e-06		5.170703e-05		1.492258e-05
1.854442e+09		1.492258e-05		1.170635e-04
6.101839e-05		-3.157184e-06		1.594838e+09
-3.157184e-06		5.877251e-05		-7.208437e-07
1.594838e+09		-7.208437e-07		1.411885e-04
2.905726e-05		-5.535781e-06		4.235521e+08
-5.535781e-06		3.546476e-05		-1.718290e-05
4.235521e+08		-1.718290e-05		7.332861e-05
5.115569e-05		-6.884336e-06		-1.769455e+09
-6.884336e-06		4.411535e-05		-3.997190e-05
-1.769455e+09		-3.997190e-05		1.170784e-04
-3.611583e+09		-5.982816e-06		-2.029634e+09
-5.982816e-06		-3.611583e+09		-3.551231e+09
-2.029634e+09		-3.551231e+09		-8.038684e+09
-2.085509e+09		-7.191207e-06		1.300214e+09
-7.191207e-06		-2.085509e+09		-7.240979e+08
1.300214e+09		-7.240979e+08		-4.641940e+09
-2.267537e+09		-5.376060e-06		1.503179e+09
-5.376060e-06		-2.267537e+09		-2.588332e-05
1.503179e+09		-2.588332e-05		-5.047099e+09
-2.085509e+09		-1.847744e-06		1.300214e+09
-1.847744e-06		-2.085509e+09		7.240979e+08
1.300214e+09		7.240979e+08		-4.641940e+09
-3.611583e+09		8.396804e-06		-2.029634e+09
8.396804e-06		-3.611583e+09		3.551231e+09
-2.029634e+09		3.551231e+09		-8.038684e+09
-7.617683e+09		-2.269447e-05		-1.590617e+09
-2.269447e-05		-7.617683e+09		-7.003988e+09
-1.590617e+09		-7.003988e+09		-1.695549e+10
-5.807516e+09		4.570000e-06		4.989458e+08
4.570000e-06		-5.807516e+09		-3.910174e+09
4.989458e+08		-3.910174e+09		-1.292641e+10
-4.614208e+09		-3.554625e-06		1.738279e+09
-3.554625e-06		-4.614208e+09		-1.414637e+09
1.738279e+09		-1.414637e+09		-1.027033e+10
-4.735005e+09		-1.039356e-06		1.960218e+09
-1.039356e-06		-4.735005e+09		-5.819406e+08
1.960218e+09		-5.819406e+08		-1.053920e+10
-5.001333e+09		-4.695612e-06		1.920593e+09
-4.695612e-06		-5.001333e+09		-8.414686e-05
1.920593e+09		-8.414686e-05		-1.113200e+10
-4.735005e+09		-4.366972e-06		1.960218e+09
-4.366972e-06		-4.735005e+09		5.819406e+08
1.960218e+09		5.819406e+08		-1.053920e+10
-4.614208e+09		-2.022323e-06		1.738279e+09
-2.022323e-06		-4.614208e+09		1.414637e+09
1.738279e+09		1.414637e+09		-1.027033e+10
-5.807516e+09		-1.177032e-05		4.989458e+08
-1.177032e-05		-5.807516e+09		3.910174e+09
4.989458e+08		3.910174e+09		-1.292641e+10
-7.617683e+09		-7.361057e-06		-1.590617e+09
-7.361057e-06		-7.617683e+09		7.003988e+09
-1.590617e+09		7.003988e+09		-1.695549e+10
-1.323881e+10		-9.114854e-06		3.187260e+09
-9.114854e-06		-1.323881e+10		-1.060566e+10
3.187260e+09		-1.060566e+10		-2.946703e+10
-9.480577e+09		-1.461897e-05		6.109113e+09
-1.461897e-05		-9.480577e+09		-2.132042e+09
6.109113e+09		-2.132042e+09		-2.110193e+10
-1.020607e+10		-7.764902e-06		6.538319e+09
-7.764902e-06		-1.020607e+10		-1.415014e-04
6.538319e+09		-1.415014e-04		-2.271674e+10
-9.480577e+09		-2.169894e-06		6.109113e+09
-2.169894e-06		-9.480577e+09		2.132042e+09
6.109113e+09		2.132042e+09		-2.110193e+10
-1.323881e+10		-1.233828e-06		3.187260e+09
-1.233828e-06		-1.323881e+10		1.060566e+10
3.187260e+09		1.060566e+10		-2.946703e+10
-1.982855e+10		-7.193536e-05		9.507704e+09
-7.193536e-05		-1.982855e+10		-1.425327e+10
9.507704e+09		-1.425327e+10		-4.413451e+10
-1.737529e+10		2.553407e-05		1.132476e+10
2.553407e-05		-1.737529e+10		-8.005119e+09
1.132476e+10		-8.005119e+09		-3.867402e+10
-1.609538e+10		-8.039642e-07		1.244870e+10
-8.039642e-07		-1.609538e+10		-2.882994e+09
1.244870e+10		-2.882994e+09		-3.582521e+10
-1.666608e+10		3.101770e-06		1.299724e+10
3.101770e-06		-1.666608e+10		-1.233976e+09
1.299724e+10		-1.233976e+09		-3.709548e+10
-1.736116e+10		1.705647e-05		1.317664e+10
1.705647e-05		-1.736116e+10		-2.533086e-04
1.317664e+10		-2.533086e-04		-3.864259e+10
-1.666608e+10		-5.789101e-06		1.299724e+10
-5.789101e-06		-1.666608e+10		1.233976e+09
1.299724e+10		1.233976e+09		-3.709548e+10
-1.609538e+10		3.689877e-05		1.244870e+10
3.689877e-05		-1.609538e+10		2.882994e+09
1.244870e+10		2.882994e+09		-3.582521e+10
-1.737529e+10		-2.701348e-05		1.132476e+10
-2.701348e-05		-1.737529e+10		8.005119e+09
1.132476e+10		8.005119e+09		-3.867402e+10
-1.982855e+10		8.491578e-05		9.507704e+09
8.491578e-05		-1.982855e+10		1.425327e+10
9.507704e+09		1.425327e+10		-4.413451e+10
5.522716e+09		-5.637649e+08		3.015738e+09
-5.637649e+08		5.671664e+09		5.865282e+09
3.015738e+09		5.865282e+09		3.187625e+10
5.516959e+09		-2.141117e+07		5.393952e+09
-2.141117e+07		8.516471e+09		3.219753e+09
5.393952e+09		3.219753e+09		3.091540e+10
5.998012e+09		3.528781e-06		5.627118e+09
3.528781e-06		1.038314e+10		2.502501e-04
5.627118e+09		2.502501e-04		3.146299e+10
5.516959e+09		2.141117e+07		5.393952e+09
2.141117e+07		8.516471e+09		-3.219753e+09
5.393952e+09		-3.219753e+09		3.091540e+10
5.522716e+09		5.637649e+08		3.015738e+09
5.637649e+08		5.671664e+09		-5.865282e+09
3.015738e+09		-5.865282e+09		3.187625e+10
3.205159e+09		-4.524591e+08		6.905992e+08
-4.524591e+08		2.367328e+09		2.795110e+09
6.905992e+08		2.795110e+09		1.424930e+10
3.446112e+09		-2.065728e+08		3.902018e+09
-2.065728e+08		3.715200e+09		1.382144e+09
3.902018e+09		1.382144e+09		1.311672e+10
3.612888e+09		-1.233071e-06		4.346080e+09
-1.233071e-06		4.609487e+09		1.444370e-04
4.346080e+09		1.444370e-04		1.311269e+10
3.446112e+09		2.065728e+08		3.902018e+09
2.065728e+08		3.715200e+09		-1.382144e+09
3.902018e+09		-1.382144e+09		1.311672e+10
3.205159e+09		4.524591e+08		6.905992e+08
4.524591e+08		2.367328e+09		-2.795110e+09
6.905992e+08		-2.795110e+09		1.424930e+10
1.617074e-04		-4.772170e+08		2.435753e+08
-4.772170e+08		9.195507e-05		6.695651e-05
2.435753e+08		6.695651e-05		4.413277e-04
1.040399e-04		-3.485559e+08		3.567178e+09
-3.485559e+08		8.565187e-05		6.389024e-05
3.567178e+09		6.389024e-05		2.796054e-04
7.659197e-05		7.521361e-06		3.956382e+09
7.521361e-06		7.288158e-05		4.019565e-05
3.956382e+09		4.019565e-05		1.940131e-04
4.658103e-05		3.485559e+08		3.567178e+09
3.485559e+08		3.680587e-05		1.373119e-05
3.567178e+09		1.373119e-05		1.291931e-04
1.090765e-05		4.772170e+08		2.435753e+08
4.772170e+08		6.288290e-06		-1.168717e-05
2.435753e+08		-1.168717e-05		5.596876e-05
-3.205159e+09		-4.524591e+08		6.905992e+08
-4.524591e+08		-2.367328e+09		-2.795110e+09
6.905992e+08		-2.795110e+09		-1.424930e+10
-3.446112e+09		-2.065728e+08		3.902018e+09
-2.065728e+08		-3.715200e+09		-1.382144e+09
3.902018e+09		-1.382144e+09		-1.311672e+10
-3.612888e+09		-2.332032e-06		4.346080e+09
-2.332032e-06		-4.609487e+09		-8.114427e-05
4.346080e+09		-8.114427e-05		-1.311269e+10
-3.446112e+09		2.065728e+08		3.902018e+09
2.065728e+08		-3.715200e+09		1.382144e+09
3.902018e+09		1.382144e+09		-1.311672e+10
-3.205159e+09		4.524591e+08		6.905992e+08
4.524591e+08		-2.367328e+09		2.795110e+09
6.905992e+08		2.795110e+09		-1.424930e+10
-5.522716e+09		-5.637649e+08		3.015738e+09
-5.637649e+08		-5.671664e+09		-5.865282e+09
3.015738e+09		-5.865282e+09		-3.187625e+10
-5.516959e+09		-2.141117e+07		5.393952e+09
-2.141117e+07		-8.516471e+09		-3.219753e+09
5.393952e+09		-3.219753e+09		-3.091540e+10
-5.998012e+09		1.700874e-05		5.627118e+09
1.700874e-05		-1.038314e+10		-2.636313e-04
5.627118e+09		-2.636313e-04		-3.146299e+10
-5.516959e+09		2.141117e+07		5.393952e+09
2.141117e+07		-8.516471e+09		3.219753e+09
5.393952e+09		3.219753e+09		-3.091540e+10
-5.522716e+09		5.637649e+08		3.015738e+09
5.637649e+08		-5.671664e+09		5.865282e+09
3.015738e+09		5.865282e+09		-3.187625e+10
-2.085232e+09		3.283319e+08		-1.627790e+09
3.283319e+08		-1.970407e+09		-7.156574e+08
-1.627790e+09		-7.156574e+08		2.280041e+10
-1.136261e+09		3.892859e+08		-7.820599e+08
3.892859e+08		1.542932e+09		1.662213e+09
-7.820599e+08		1.662213e+09		2.502757e+10
-8.924265e+08		-6.424945e+07		-8.542000e+08
-6.424945e+07		4.049369e+09		3.178250e+09
-8.542000e+08		3.178250e+09		2.655609e+10
-1.374029e+09		-8.713675e+06		-6.357199e+08
-8.713675e+06		4.018863e+09		1.215325e+09
-6.357199e+08		1.215325e+09		2.577692e+10
-1.318299e+09		1.456589e-06		-6.759185e+08
1.456589e-06		4.869918e+09		2.564117e-04
-6.759185e+08		2.564117e-04		2.545986e+10
-1.374029e+09		8.713675e+06		-6.357199e+08
8.713675e+06		4.018863e+09		-1.215325e+09
-6.357199e+08		-1.215325e+09		2.577692e+10
-8.924265e+08		6.424945e+07		-8.542000e+08
6.424945e+07		4.049369e+09		-3.178250e+09
-8.542000e+08		-3.178250e+09		2.655609e+10
-1.136261e+09		-3.892859e+08		-7.820599e+08
-3.892859e+08		1.542932e+09		-1.662213e+09
-7.820599e+08		-1.662213e+09		2.502757e+10
-2.085232e+09		-3.283319e+08		-1.627790e+09
-3.283319e+08		-1.970407e+09		7.156574e+08
-1.627790e+09		7.156574e+08		2.280041e+10
-1.936224e+07		2.305315e+07		6.755187e+08
2.305315e+07		-1.078930e+09		-1.032249e+09
6.755187e+08		-1.032249e+09		1.739828e+10
1.786964e+09		-4.333925e+08		2.491742e+09
-4.333925e+08		4.039650e+09		1.998005e+09
2.491742e+09		1.998005e+09		2.094685e+10
1.545680e+09		6.675720e-06		3.016379e+09
6.675720e-06		4.794902e+09		1.948769e-04
3.016379e+09		1.948769e-04		2.013586e+10
1.786964e+09		4.333925e+08		2.491742e+09
4.333925e+08		4.039650e+09		-1.998005e+09
2.491742e+09		-1.998005e+09		2.094685e+10
-1.936224e+07		-2.305315e+07		6.755187e+08
-2.305315e+07		-1.078930e+09		1.032249e+09
6.755187e+08		1.032249e+09		1.739828e+10
1.235417e+09		-1.359549e+08		2.845057e+09
-1.359549e+08		-4.095906e+08		-5.314500e+08
2.845057e+09		-5.314500e+08		1.213558e+10
2.656169e+09		-2.663709e+08		4.602690e+09
-2.663709e+08		1.959401e+09		6.173662e+08
4.602690e+09		6.173662e+08		1.402266e+10
3.551043e+09		-6.484759e+08		5.364906e+09
-6.484759e+08		3.739057e+09		1.335458e+09
5.364906e+09		1.335458e+09		1.539782e+10
3.335583e+09		-1.290746e+08		5.896836e+09
-1.290746e+08		3.845801e+09		5.007594e+08
5.896836e+09		5.007594e+08		1.500437e+10
3.417034e+09		-1.899805e-05		6.162150e+09
-1.899805e-05		4.394779e+09		1.357794e-04
6.162150e+09		1.357794e-04		1.487728e+10
3.335583e+09		1.290746e+08		5.896836e+09
1.290746e+08		3.845801e+09		-5.007594e+08
5.896836e+09		-5.007594e+08		1.500437e+10
3.551043e+09		6.484759e+08		5.364906e+09
6.484759e+08		3.739057e+09		-1.335458e+09
5.364906e+09		-1.335458e+09		1.539782e+10
2.656169e+09		2.663709e+08		4.602690e+09
2.663709e+08		1.959401e+09		-6.173662e+08
4.602690e+09		-6.173662e+08		1.402266e+10
1.235417e+09		1.359549e+08		2.845057e+09
1.359549e+08		-4.095906e+08		5.314500e+08
2.845057e+09		5.314500e+08		1.213558e+10
-4.394308e+07		-3.777661e+08		2.343404e+09
-3.777661e+08		-5.774200e+08		-2.616135e+08
2.343404e+09		-2.616135e+08		5.644993e+09
1.152091e+09		-8.765319e+08		4.564812e+09
-8.765319e+08		1.522014e+09		6.613558e+08
4.564812e+09		6.613558e+08		7.290501e+09
1.067293e+09		-1.717359e-06		5.227407e+09
-1.717359e-06		1.848307e+09		9.173434e-05
5.227407e+09		9.173434e-05		7.014566e+09
1.152091e+09		8.765319e+08		4.564812e+09
8.765319e+08		1.522014e+09		-6.613558e+08
4.564812e+09		-6.613558e+08		7.290501e+09
-4.394308e+07		3.777661e+08		2.343404e+09
3.777661e+08		-5.774200e+08		2.616135e+08
2.343404e+09		2.616135e+08		5.644993e+09
9.750016e-05		-3.718356e+08		2.555082e+09
-3.718356e+08		-1.837872e-05		-3.841135e-05
2.555082e+09		-3.841135e-05		3.029555e-04
9.641796e-05		-5.857259e+08		4.287394e+09
-5.857259e+08		3.509596e-05		4.366995e-05
4.287394e+09		4.366995e-05		3.101081e-04
1.034234e-04		-1.011982e+09		4.907442e+09
-1.011982e+09		7.538218e-05		7.815219e-05
4.907442e+09		7.815219e-05		3.169291e-04
9.377673e-05		-2.701249e+08		5.394696e+09
-2.701249e+08		6.483123e-05		5.514585e-05
5.394696e+09		5.514585e-05		2.631098e-04
7.505342e-05		7.525086e-07		5.553131e+09
7.525086e-07		5.810708e-05		5.477840e-05
5.553131e+09		5.477840e-05		2.138317e-04
7.755682e-05		2.701249e+08		5.394696e+09
2.701249e+08		5.250610e-05		3.342756e-05
5.394696e+09		3.342756e-05		1.922548e-04
4.819222e-05		1.011982e+09		4.907442e+09
1.011982e+09		2.460368e-05		2.601542e-05
4.907442e+09		2.601542e-05		1.475029e-04
4.064292e-05		5.857259e+08		4.287394e+09
5.857259e+08		1.878664e-05		2.383254e-06
4.287394e+09		2.383254e-06		1.118965e-04
-2.028048e-05		3.718356e+08		2.555082e+09
3.718356e+08		-1.146551e-05		1.142896e-05
2.555082e+09		1.142896e-05		6.175786e-05
4.394308e+07		-3.777661e+08		2.343404e+09
-3.777661e+08		5.774200e+08		2.616135e+08
2.343404e+09		2.616135e+08		-5.644993e+09
-1.152091e+09		-8.765319e+08		4.564812e+09
-8.765319e+08		-1.522014e+09		-6.613558e+08
4.564812e+09		-6.613558e+08		-7.290501e+09
-1.067293e+09		-1.158565e-06		5.227407e+09
-1.158565e-06		-1.848307e+09		-1.128018e-05
5.227407e+09		-1.128018e-05		-7.014566e+09
-1.152091e+09		8.765319e+08		4.564812e+09
8.765319e+08		-1.522014e+09		6.613558e+08
4.564812e+09		6.613558e+08		-7.290501e+09
4.394308e+07		3.777661e+08		2.343404e+09
3.777661e+08		5.774200e+08		-2.616135e+08
2.343404e+09		-2.616135e+08		-5.644993e+09
-1.235417e+09		-1.359549e+08		2.845057e+09
-1.359549e+08		4.095906e+08		5.314500e+08
2.845057e+09		5.314500e+08		-1.213558e+10
-2.656169e+09		-2.663709e+08		4.602690e+09
-2.663709e+08		-1.959401e+09		-6.173662e+08
4.602690e+09		-6.173662e+08		-1.402266e+10
-3.551043e+09		-6.484759e+08		5.364906e+09
-6.484759e+08		-3.739057e+09		-1.335458e+09
5.364906e+09		-1.335458e+09		-1.539782e+10
-3.335583e+09		-1.290746e+08		5.896836e+09
-1.290746e+08		-3.845801e+09		-5.007594e+08
5.896836e+09		-5.007594e+08		-1.500437e+10
-3.417034e+09		-1.523132e-05		6.162150e+09
-1.523132e-05		-4.394779e+09		-6.815605e-05
6.162150e+09		-6.815605e-05		-1.487728e+10
-3.335583e+09		1.290746e+08		5.896836e+09
1.290746e+08		-3.845801e+09		5.007594e+08
5.896836e+09		5.007594e+08		-1.500437e+10
-3.551043e+09		6.484759e+08		5.364906e+09
6.484759e+08		-3.739057e+09		1.335458e+09
5.364906e+09		1.335458e+09		-1.539782e+10
-2.656169e+09		2.663709e+08		4.602690e+09
2.663709e+08		-1.959401e+09		6.173662e+08
4.602690e+09		6.173662e+08		-1.402266e+10
-1.235417e+09		1.359549e+08		2.845057e+09
1.359549e+08		4.095906e+08		-5.314500e+08
2.845057e+09		-5.314500e+08		-1.213558e+10
1.936224e+07		2.305315e+07		6.755187e+08
2.305315e+07		1.078930e+09		1.032249e+09
6.755187e+08		1.032249e+09		-1.739828e+10
-1.786964e+09		-4.333925e+08		2.491742e+09
-4.333925e+08		-4.039650e+09		-1.998005e+09
2.491742e+09		-1.998005e+09		-2.094685e+10
-1.545680e+09		-5.153939e-06		3.016379e+09
-5.153939e-06		-4.794902e+09		-1.450377e-04
3.016379e+09		-1.450377e-04		-2.013586e+10
-1.786964e+09		4.333925e+08		2.491742e+09
4.333925e+08		-4.039650e+09		1.998005e+09
2.491742e+09		1.998005e+09		-2.094685e+10
1.936224e+07		-2.305315e+07		6.755187e+08
-2.305315e+07		1.078930e+09		-1.032249e+09
6.755187e+08		-1.032249e+09		-1.739828e+10
2.085232e+09		3.283319e+08		-1.627790e+09
3.283319e+08		1.970407e+09		7.156574e+08
-1.627790e+09		7.156574e+08		-2.280041e+10
1.136261e+09		3.892859e+08		-7.820599e+08
3.892859e+08		-1.542932e+09		-1.662213e+09
-7.820599e+08		-1.662213e+09		-2.502757e+10
8.924265e+08		-6.424945e+07		-8.542000e+08
-6.424945e+07		-4.049369e+09		-3.178250e+09
-8.542000e+08		-3.178250e+09		-2.655609e+10
1.374029e+09		-8.713675e+06		-6.357199e+08
-8.713675e+06		-4.018863e+09		-1.215325e+09
-6.357199e+08		-1.215325e+09		-2.577692e+10
1.318299e+09		1.634285e-05		-6.759185e+08
1.634285e-05		-4.869918e+09		-2.691522e-04
-6.759185e+08		-2.691522e-04		-2.545986e+10
1.374029e+09		8.713675e+06		-6.357199e+08
8.713675e+06		-4.018863e+09		1.215325e+09
-6.357199e+08		1.215325e+09		-2.577692e+10
8.924265e+08		6.424945e+07		-8.542000e+08
6.424945e+07		-4.049369e+09		3.178250e+09
-8.542000e+08		3.178250e+09		-2.655609e+10
1.136261e+09		-3.892859e+08		-7.820599e+08
-3.892859e+08		-1.542932e+09		1.662213e+09
-7.820599e+08		1.662213e+09		-2.502757e+10
2.085232e+09		-3.283319e+08		-1.627790e+09
-3.283319e+08		1.970407e+09		-7.156574e+08
-1.627790e+09		-7.156574e+08		-2.280041e+10
-1.999905e+09		2.482249e+08		-9.177045e+08
2.482249e+08		-2.073002e+09		-5.841934e+08
-9.177045e+08		-5.841934e+08		1.932860e+10
-1.779114e+09		7.467092e+07		-9.802942e+08
7.467092e+07		1.112523e+09		1.118811e+09
-9.802942e+08		1.118811e+09		2.178673e+10
-1.624911e+09		-2.403557e-05		-9.537944e+08
-2.403557e-05		2.577118e+09		3.164280e-04
-9.537944e+08		3.164280e-04		2.228076e+10
-1.779114e+09		-7.467092e+07		-9.802942e+08
-7.467092e+07		1.112523e+09		-1.118811e+09
-9.802942e+08		-1.118811e+09		2.178673e+10
-1.999905e+09		-2.482249e+08		-9.177045e+08
-2.482249e+08		-2.073002e+09		5.841934e+08
-9.177045e+08		5.841934e+08		1.932860e+10
-5.347785e+08		-2.890368e+08		2.642202e+09
-2.890368e+08		-1.036381e+09		-6.617677e+08
2.642202e+09		-6.617677e+08		9.706473e+09
8.083521e+08		-6.231438e+08		4.233930e+09
-6.231438e+08		1.291485e+09		2.812321e+08
4.233930e+09		2.812321e+08		1.218347e+10
9.737548e+08		-1.984742e-05		4.648769e+09
-1.984742e-05		2.292794e+09		1.475920e-04
4.648769e+09		1.475920e-04		1.268558e+10
8.083521e+08		6.231438e+08		4.233930e+09
6.231438e+08		1.291485e+09		-2.812321e+08
4.233930e+09		-2.812321e+08		1.218347e+10
-5.347785e+08		2.890368e+08		2.642202e+09
2.890368e+08		-1.036381e+09		6.617677e+08
2.642202e+09		6.617677e+08		9.706473e+09
3.865361e-05		-4.757915e+08		3.911697e+09
-4.757915e+08		-2.411008e-05		-4.696567e-05
3.911697e+09		-4.696567e-05		2.599955e-04
6.259419e-05		-1.028700e+09		5.456756e+09
-1.028700e+09		2.368540e-05		5.070018e-05
5.456756e+09		5.070018e-05		2.445206e-04
5.126675e-05		-3.180280e-05		5.949007e+09
-3.180280e-05		1.957081e-05		5.766558e-05
5.949007e+09		5.766558e-05		1.895428e-04
3.021210e-05		1.028700e+09		5.456756e+09
1.028700e+09		6.802380e-06		2.924987e-05
5.456756e+09		2.924987e-05		1.373217e-04
2.622604e-06		4.757915e+08		3.911697e+09
4.757915e+08		-4.902482e-06		-2.638437e-06
3.911697e+09		-2.638437e-06		7.939339e-05
5.347785e+08		-2.890368e+08		2.642202e+09
-2.890368e+08		1.036381e+09		6.617677e+08
2.642202e+09		6.617677e+08		-9.706473e+09
-8.083521e+08		-6.231438e+08		4.233930e+09
-6.231438e+08		-1.291485e+09		-2.812321e+08
4.233930e+09		-2.812321e+08		-1.218347e+10
-9.737548e+08		-1.841597e-05		4.648769e+09
-1.841597e-05		-2.292794e+09		-7.550139e-05
4.648769e+09		-7.550139e-05		-1.268558e+10
-8.083521e+08		6.231438e+08		4.233930e+09
6.231438e+08		-1.291485e+09		2.812321e+08
4.233930e+09		2.812321e+08		-1.218347e+10
5.347785e+08		2.890368e+08		2.642202e+09
2.890368e+08		1.036381e+09		-6.617677e+08
2.642202e+09		-6.617677e+08		-9.706473e+09
1.999905e+09		2.482249e+08		-9.177045e+08
2.482249e+08		2.073002e+09		5.841934e+08
-9.177045e+08		5.841934e+08		-1.932860e+10
1.779114e+09		7.467092e+07		-9.802942e+08
7.467092e+07		-1.112523e+09		-1.118811e+09
-9.802942e+08		-1.118811e+09		-2.178673e+10
1.624911e+09		-1.674145e-05		-9.537944e+08
-1.674145e-05		-2.577118e+09		-2.331212e-04
-9.537944e+08		-2.331212e-04		-2.228076e+10
1.779114e+09		-7.467092e+07		-9.802942e+08
-7.467092e+07		-1.112523e+09		1.118811e+09
-9.802942e+08		1.118811e+09		-2.178673e+10
1.999905e+09		-2.482249e+08		-9.177045e+08
-2.482249e+08		2.073002e+09		-5.841934e+08
-9.177045e+08		-5.841934e+08		-1.932860e+10
1.612847e+08		1.367985e+08		-9.114824e+05
1.367985e+08		8.105996e+07		-3.876623e+08
-9.114824e+05		-3.876623e+08		1.877953e+10
4.517309e+08		1.201650e+08		-8.715549e+07
1.201650e+08		5.407797e+08		-9.323592e+07
-8.715549e+07		-9.323592e+07		2.057525e+10
1.430915e+08		8.575279e+07		-1.207919e+08
8.575279e+07		8.507407e+08		-5.612568e+07
-1.207919e+08		-5.612568e+07		2.092026e+10
2.627521e+08		4.486688e+07		-1.321868e+08
4.486688e+07		1.798882e+09		1.641878e+08
-1.321868e+08		1.641878e+08		2.126575e+10
2.728707e+08		-1.935288e-06		-1.920299e+08
-1.935288e-06		2.130230e+09		3.393255e-04
-1.920299e+08		3.393255e-04		2.129782e+10
2.627521e+08		-4.486688e+07		-1.321868e+08
-4.486688e+07		1.798882e+09		-1.641878e+08
-1.321868e+08		-1.641878e+08		2.126575e+10
1.430915e+08		-8.575279e+07		-1.207919e+08
-8.575279e+07		8.507407e+08		5.612568e+07
-1.207919e+08		5.612568e+07		2.092026e+10
4.517309e+08		-1.201650e+08		-8.715549e+07
-1.201650e+08		5.407797e+08		9.323592e+07
-8.715549e+07		9.323592e+07		2.057525e+10
1.612847e+08		-1.367985e+08		-9.114824e+05
-1.367985e+08		8.105996e+07		3.876623e+08
-9.114824e+05		3.876623e+08		1.877953e+10
-4.016887e+08		-8.227762e+07		1.890140e+09
-8.227762e+07		-2.411492e+07		-3.125805e+08
1.890140e+09		-3.125805e+08		1.419337e+10
3.781173e+07		-2.322520e+08		2.112960e+09
-2.322520e+08		8.457556e+08		-1.374832e+08
2.112960e+09		-1.374832e+08		1.668974e+10
2.033138e+08		-8.968636e-06		2.238446e+09
-8.968636e-06		1.975636e+09		2.487116e-04
2.238446e+09		2.487116e-04		1.727805e+10
3.781173e+07		2.322520e+08		2.112960e+09
2.322520e+08		8.457556e+08		1.374832e+08
2.112960e+09		1.374832e+08		1.668974e+10
-4.016887e+08		8.227762e+07		1.890140e+09
8.227762e+07		-2.411492e+07		3.125805e+08
1.890140e+09		3.125805e+08		1.419337e+10
-7.755313e+08		-1.819389e+08		3.590780e+09
-1.819389e+08		-8.374514e+07		-2.886555e+08
3.590780e+09		-2.886555e+08		9.536697e+09
-2.774518e+08		-3.845868e+08		3.709503e+09
-3.845868e+08		2.465095e+08		-2.117867e+08
3.709503e+09		-2.117867e+08		1.086341e+10
-2.063737e+08		-5.183453e+08		4.037175e+09
-5.183453e+08		4.697430e+08		-2.386532e+08
4.037175e+09		-2.386532e+08		1.139415e+10
-1.046569e+08		-2.375689e+08		4.237513e+09
-2.375689e+08		1.096077e+09		2.164836e+07
4.237513e+09		2.164836e+07		1.180365e+10
-8.883963e+07		-7.656403e-06		4.331969e+09
-7.656403e-06		1.338805e+09		1.544585e-04
4.331969e+09		1.544585e-04		1.193936e+10
-1.046569e+08		2.375689e+08		4.237513e+09
2.375689e+08		1.096077e+09		-2.164836e+07
4.237513e+09		-2.164836e+07		1.180365e+10
-2.063737e+08		5.183453e+08		4.037175e+09
5.183453e+08		4.697430e+08		2.386532e+08
4.037175e+09		2.386532e+08		1.139415e+10
-2.774518e+08		3.845868e+08		3.709503e+09
3.845868e+08		2.465095e+08		2.117867e+08
3.709503e+09		2.117867e+08		1.086341e+10
-7.755313e+08		1.819389e+08		3.590780e+09
1.819389e+08		-8.374514e+07		2.886555e+08
3.590780e+09		2.886555e+08		9.536697e+09
-3.024817e+08		-2.500331e+08		4.528083e+09
-2.500331e+08		-2.854274e+07		-1.689791e+08
4.528083e+09		-1.689791e+08		4.850736e+09
1.545795e+08		-7.731942e+08		5.022521e+09
-7.731942e+08		3.408848e+08		-1.303858e+08
5.022521e+09		-1.303858e+08		5.888796e+09
2.914734e+08		-1.826882e-05		5.377781e+09
-1.826882e-05		8.195324e+08		1.121629e-04
5.377781e+09		1.121629e-04		6.208420e+09
1.545795e+08		7.731942e+08		5.022521e+09
7.731942e+08		3.408848e+08		1.303858e+08
5.022521e+09		1.303858e+08		5.888796e+09
-3.024817e+08		2.500331e+08		4.528083e+09
2.500331e+08		-2.854274e+07		1.689791e+08
4.528083e+09		1.689791e+08		4.850736e+09
7.217005e-05		-2.825988e+08		5.130487e+09
-2.825988e+08		4.222058e-05		-4.032371e-05
5.130487e+09		-4.032371e-05		2.722666e-04
7.256120e-05		-7.013943e+08		5.179598e+09
-7.013943e+08		2.608076e-05		1.013419e-05
5.179598e+09		1.013419e-05		2.815425e-04
7.745065e-05		-9.447715e+08		5.607562e+09
-9.447715e+08		2.622185e-05		3.973762e-05
5.607562e+09		3.973762e-05		2.585817e-04
5.698018e-05		-4.163372e+08		5.886251e+09
-4.163372e+08		2.460554e-05		4.937339e-05
5.886251e+09		4.937339e-05		2.295412e-04
1.023486e-04		-1.267530e-06		6.022986e+09
-1.267530e-06		2.546050e-05		6.933872e-05
6.022986e+09		6.933872e-05		2.259538e-04
5.939603e-05		4.163372e+08		5.886251e+09
4.163372e+08		1.203921e-05		5.565336e-05
5.886251e+09		5.565336e-05		1.799315e-04
4.287064e-05		9.447715e+08		5.607562e+09
9.447715e+08		7.840572e-06		3.594272e-05
5.607562e+09		3.594272e-05		1.565535e-04
1.753494e-05		7.013943e+08		5.179598e+09
7.013943e+08		-4.684553e-06		2.873945e-05
5.179598e+09		2.873945e-05		1.246184e-04
4.972145e-05		2.825988e+08		5.130487e+09
2.825988e+08		1.530163e-05		1.596636e-06
5.130487e+09		1.596636e-06		1.410767e-04
3.024817e+08		-2.500331e+08		4.528083e+09
-2.500331e+08		2.854274e+07		1.689791e+08
4.528083e+09		1.689791e+08		-4.850736e+09
-1.545795e+08		-7.731942e+08		5.022521e+09
-7.731942e+08		-3.408848e+08		1.303858e+08
5.022521e+09		1.303858e+08		-5.888796e+09
-2.914734e+08		4.455447e-06		5.377781e+09
4.455447e-06		-8.195324e+08		8.310191e-06
5.377781e+09		8.310191e-06		-6.208420e+09
-1.545795e+08		7.731942e+08		5.022521e+09
7.731942e+08		-3.408848e+08		-1.303858e+08
5.022521e+09		-1.303858e+08		-5.888796e+09
3.024817e+08		2.500331e+08		4.528083e+09
2.500331e+08		2.854274e+07		-1.689791e+08
4.528083e+09		-1.689791e+08		-4.850736e+09
7.755313e+08		-1.819389e+08		3.590780e+09
-1.819389e+08		8.374514e+07		2.886555e+08
3.590780e+09		2.886555e+08		-9.536697e+09
2.774518e+08		-3.845868e+08		3.709503e+09
-3.845868e+08		-2.465095e+08		2.117867e+08
3.709503e+09		2.117867e+08		-1.086341e+10
2.063737e+08		-5.183453e+08		4.037175e+09
-5.183453e+08		-4.697430e+08		2.386532e+08
4.037175e+09		2.386532e+08		-1.139415e+10
1.046569e+08		-2.375689e+08		4.237513e+09
-2.375689e+08		-1.096077e+09		-2.164836e+07
4.237513e+09		-2.164836e+07		-1.180365e+10
8.883963e+07		2.071261e-06		4.331969e+09
2.071261e-06		-1.338805e+09		-7.169275e-05
4.331969e+09		-7.169275e-05		-1.193936e+10
1.046569e+08		2.375689e+08		4.237513e+09
2.375689e+08		-1.096077e+09		2.164836e+07
4.237513e+09		2.164836e+07		-1.180365e+10
2.063737e+08		5.183453e+08		4.037175e+09
5.183453e+08		-4.697430e+08		-2.386532e+08
4.037175e+09		-2.386532e+08		-1.139415e+10
2.774518e+08		3.845868e+08		3.709503e+09
3.845868e+08		-2.465095e+08		-2.117867e+08
3.709503e+09		-2.117867e+08		-1.086341e+10
7.755313e+08		1.819389e+08		3.590780e+09
1.819389e+08		8.374514e+07		-2.886555e+08
3.590780e+09		-2.886555e+08		-9.536697e+09
4.016887e+08		-8.227762e+07		1.890140e+09
-8.227762e+07		2.411492e+07		3.125805e+08
1.890140e+09		3.125805e+08		-1.419337e+10
-3.781173e+07		-2.322520e+08		2.112960e+09
-2.322520e+08		-8.457556e+08		1.374832e+08
2.112960e+09		1.374832e+08		-1.668974e+10
-2.033138e+08		2.991408e-06		2.238446e+09
2.991408e-06		-1.975636e+09		-1.481622e-04
2.238446e+09		-1.481622e-04		-1.727805e+10
-3.781173e+07		2.322520e+08		2.112960e+09
2.322520e+08		-8.457556e+08		-1.374832e+08
2.112960e+09		-1.374832e+08		-1.668974e+10
4.016887e+08		8.227762e+07		1.890140e+09
8.227762e+07		2.411492e+07		-3.125805e+08
1.890140e+09		-3.125805e+08		-1.419337e+10
-1.612847e+08		1.367985e+08		-9.114824e+05
1.367985e+08		-8.105996e+07		3.876623e+08
-9.114824e+05		3.876623e+08		-1.877953e+10
-4.517309e+08		1.201650e+08		-8.715549e+07
1.201650e+08		-5.407797e+08		9.323592e+07
-8.715549e+07		9.323592e+07		-2.057525e+10
-1.430915e+08		8.575279e+07		-1.207919e+08
8.575279e+07		-8.507407e+08		5.612568e+07
-1.207919e+08		5.612568e+07		-2.092026e+10
-2.627521e+08		4.486688e+07		-1.321868e+08
4.486688e+07		-1.798882e+09		-1.641878e+08
-1.321868e+08		-1.641878e+08		-2.126575e+10
-2.728707e+08		1.633726e-05		-1.920299e+08
1.633726e-05		-2.130230e+09		-2.415814e-04
-1.920299e+08		-2.415814e-04		-2.129782e+10
-2.627521e+08		-4.486688e+07		-1.321868e+08
-4.486688e+07		-1.798882e+09		1.641878e+08
-1.321868e+08		1.641878e+08		-2.126575e+10
-1.430915e+08		-8.575279e+07		-1.207919e+08
-8.575279e+07		-8.507407e+08		-5.612568e+07
-1.207919e+08		-5.612568e+07		-2.092026e+10
-4.517309e+08		-1.201650e+08		-8.715549e+07
-1.201650e+08		-5.407797e+08		-9.323592e+07
-8.715549e+07		-9.323592e+07		-2.057525e+10
-1.612847e+08		-1.367985e+08		-9.114824e+05
-1.367985e+08		-8.105996e+07		-3.876623e+08
-9.114824e+05		-3.876623e+08		-1.877953e+10
1.868641e+08		1.669816e+07		3.292490e+08
1.669816e+07		1.369169e+08		-1.318305e+08
3.292490e+08		-1.318305e+08		1.810529e+10
1.892729e+08		2.345663e+07		1.796809e+08
2.345663e+07		7.131587e+08		-3.935542e+08
1.796809e+08		-3.935542e+08		1.949176e+10
2.146788e+08		-6.735325e-06		1.659539e+08
-6.735325e-06		1.470240e+09		2.830848e-04
1.659539e+08		2.830848e-04		1.983977e+10
1.892729e+08		-2.345663e+07		1.796809e+08
-2.345663e+07		7.131587e+08		3.935542e+08
1.796809e+08		3.935542e+08		1.949176e+10
1.868641e+08		-1.669816e+07		3.292490e+08
-1.669816e+07		1.369169e+08		1.318305e+08
3.292490e+08		1.318305e+08		1.810529e+10
-4.285207e+08		-1.131019e+08		4.026956e+09
-1.131019e+08		6.691499e+07		4.632365e+06
4.026956e+09		4.632365e+06		9.084319e+09
-1.605416e+08		-4.485842e+08		3.798016e+09
-4.485842e+08		2.989303e+08		-2.459444e+08
3.798016e+09		-2.459444e+08		1.011630e+10
-1.482765e+08		1.609605e-05		3.948672e+09
1.609605e-05		7.540951e+08		1.889728e-04
3.948672e+09		1.889728e-04		1.046823e+10
-1.605416e+08		4.485842e+08		3.798016e+09
4.485842e+08		2.989303e+08		2.459444e+08
3.798016e+09		2.459444e+08		1.011630e+10
-4.285207e+08		1.131019e+08		4.026956e+09
1.131019e+08		6.691499e+07		-4.632365e+06
4.026956e+09		-4.632365e+06		9.084319e+09
3.683567e-05		-1.721267e+08		5.512647e+09
-1.721267e+08		1.750886e-06		-1.651421e-05
5.512647e+09		-1.651421e-05		2.110600e-04
8.301437e-05		-7.754554e+08		5.278348e+09
-7.754554e+08		3.753509e-05		4.681962e-05
5.278348e+09		4.681962e-05		2.475120e-04
5.473103e-05		-3.027730e-06		5.504772e+09
-3.027730e-06		-1.134351e-06		7.175340e-05
5.504772e+09		7.175340e-05		2.259947e-04
3.127754e-05		7.754554e+08		5.278348e+09
7.754554e+08		-9.878539e-06		4.890049e-05
5.278348e+09		4.890049e-05		1.426078e-04
6.288290e-05		1.721267e+08		5.512647e+09
1.721267e+08		9.544194e-06		3.072387e-05
5.512647e+09		3.072387e-05		1.325905e-04
4.285207e+08		-1.131019e+08		4.026956e+09
-1.131019e+08		-6.691499e+07		-4.632365e+06
4.026956e+09		-4.632365e+06		-9.084319e+09
1.605416e+08		-4.485842e+08		3.798016e+09
-4.485842e+08		-2.989303e+08		2.459444e+08
3.798016e+09		2.459444e+08		-1.011630e+10
1.482765e+08		1.968164e-05		3.948672e+09
1.968164e-05		-7.540951e+08		-8.171424e-05
3.948672e+09		-8.171424e-05		-1.046823e+10
1.605416e+08		4.485842e+08		3.798016e+09
4.485842e+08		-2.989303e+08		-2.459444e+08
3.798016e+09		-2.459444e+08		-1.011630e+10
4.285207e+08		1.131019e+08		4.026956e+09
1.131019e+08		-6.691499e+07		4.632365e+06
4.026956e+09		4.632365e+06		-9.084319e+09
-1.868641e+08		1.669816e+07		3.292490e+08
1.669816e+07		-1.369169e+08		1.318305e+08
3.292490e+08		1.318305e+08		-1.810529e+10
-1.892729e+08		2.345663e+07		1.796809e+08
2.345663e+07		-7.131587e+08		3.935542e+08
1.796809e+08		3.935542e+08		-1.949176e+10
-2.146788e+08		7.427298e-07		1.659539e+08
7.427298e-07		-1.470240e+09		-2.726018e-04
1.659539e+08		-2.726018e-04		-1.983977e+10
-1.892729e+08		-2.345663e+07		1.796809e+08
-2.345663e+07		-7.131587e+08		-3.935542e+08
1.796809e+08		-3.935542e+08		-1.949176e+10
-1.868641e+08		-1.669816e+07		3.292490e+08
-1.669816e+07		-1.369169e+08		-1.318305e+08
3.292490e+08		-1.318305e+08		-1.810529e+10
-1.299588e+08		-2.953066e+05		5.243998e+08
-2.953066e+05		-1.519886e+08		-3.644875e+08
5.243998e+08		-3.644875e+08		1.652177e+10
-1.084428e+07		3.306335e+07		2.362236e+08
3.306335e+07		2.062597e+08		-6.503122e+08
2.362236e+08		-6.503122e+08		1.707940e+10
-7.007781e+07		9.481833e+06		2.373224e+08
9.481833e+06		4.562827e+08		-8.238482e+08
2.373224e+08		-8.238482e+08		1.738614e+10
-6.733336e+07		2.324574e+07		1.981420e+08
2.324574e+07		7.040391e+08		-3.578718e+08
1.981420e+08		-3.578718e+08		1.765465e+10
-3.332249e+07		3.097090e-05		2.055715e+08
3.097090e-05		9.118011e+08		3.500059e-04
2.055715e+08		3.500059e-04		1.784299e+10
-6.733336e+07		-2.324574e+07		1.981420e+08
-2.324574e+07		7.040391e+08		3.578718e+08
1.981420e+08		3.578718e+08		1.765465e+10
-7.007781e+07		-9.481833e+06		2.373224e+08
-9.481833e+06		4.562827e+08		8.238482e+08
2.373224e+08		8.238482e+08		1.738614e+10
-1.084428e+07		-3.306335e+07		2.362236e+08
-3.306335e+07		2.062597e+08		6.503122e+08
2.362236e+08		6.503122e+08		1.707940e+10
-1.299588e+08		2.953066e+05		5.243998e+08
2.953066e+05		-1.519886e+08		3.644875e+08
5.243998e+08		3.644875e+08		1.652177e+10
-1.981173e+08		-5.615565e+07		2.609987e+09
-5.615565e+07		-1.252521e+08		-1.283731e+08
2.609987e+09		-1.283731e+08		1.217355e+10
-6.008556e+07		-1.891695e+08		2.065896e+09
-1.891695e+08		3.091969e+08		-5.217731e+08
2.065896e+09		-5.217731e+08		1.302108e+10
3.821895e+06		1.568533e-05		2.033200e+09
1.568533e-05		6.757521e+08		2.871226e-04
2.033200e+09		2.871226e-04		1.349012e+10
-6.008556e+07		1.891695e+08		2.065896e+09
1.891695e+08		3.091969e+08		5.217731e+08
2.065896e+09		5.217731e+08		1.302108e+10
-1.981173e+08		5.615565e+07		2.609987e+09
5.615565e+07		-1.252521e+08		1.283731e+08
2.609987e+09		1.283731e+08		1.217355e+10
-2.497061e+08		-6.421114e+07		4.643478e+09
-6.421114e+07		-4.598720e+07		-7.080836e+07
4.643478e+09		-7.080836e+07		8.105816e+09
-1.443122e+08		-2.121218e+08		4.085282e+09
-2.121218e+08		6.213465e+07		-2.304035e+08
4.085282e+09		-2.304035e+08		8.406966e+09
-1.053563e+08		-3.584184e+08		3.849656e+09
-3.584184e+08		1.537252e+08		-3.413845e+08
3.849656e+09		-3.413845e+08		8.703440e+09
-8.449422e+07		-1.721913e+08		3.833448e+09
-1.721913e+08		3.036420e+08		-1.575189e+08
3.833448e+09		-1.575189e+08		8.941485e+09
-6.215025e+07		-2.159085e-05		3.820223e+09
-2.159085e-05		4.134628e+08		2.097986e-04
3.820223e+09		2.097986e-04		9.066494e+09
-8.449422e+07		1.721913e+08		3.833448e+09
1.721913e+08		3.036420e+08		1.575189e+08
3.833448e+09		1.575189e+08		8.941485e+09
-1.053563e+08		3.584184e+08		3.849656e+09
3.584184e+08		1.537252e+08		3.413845e+08
3.849656e+09		3.413845e+08		8.703440e+09
-1.443122e+08		2.121218e+08		4.085282e+09
2.121218e+08		6.213465e+07		2.304035e+08
4.085282e+09		2.304035e+08		8.406966e+09
-2.497061e+08		6.421114e+07		4.643478e+09
6.421114e+07		-4.598720e+07		7.080836e+07
4.643478e+09		7.080836e+07		8.105816e+09
-2.013711e+08		-9.466943e+07		5.443372e+09
-9.466943e+07		-5.535566e+07		-5.252146e+07
5.443372e+09		-5.252146e+07		4.023230e+09
-7.583295e+07		-4.760621e+08		4.694088e+09
-4.760621e+08		6.550981e+07		-1.752888e+08
4.694088e+09		-1.752888e+08		4.363013e+09
-4.224689e+07		-1.723133e-05		4.712181e+09
-1.723133e-05		1.979161e+08		1.479750e-04
4.712181e+09		1.479750e-04		4.567305e+09
-7.583295e+07		4.760621e+08		4.694088e+09
4.760621e+08		6.550981e+07		1.752888e+08
4.694088e+09		1.752888e+08		4.363013e+09
-2.013711e+08		9.466943e+07		5.443372e+09
9.466943e+07		-5.535566e+07		5.252146e+07
5.443372e+09		5.252146e+07		4.023230e+09
2.245419e-05		-9.525650e+07		6.149458e+09
-9.525650e+07		-1.816917e-05		-3.606593e-05
6.149458e+09		-3.606593e-05		1.394674e-04
7.070601e-06		-3.438860e+08		5.559482e+09
-3.438860e+08		-7.660128e-06		2.529519e-05
5.559482e+09		2.529519e-05		1.538843e-04
9.170268e-05		-5.583700e+08		5.364221e+09
-5.583700e+08		5.090702e-05		5.557932e-05
5.364221e+09		5.557932e-05		2.150312e-04
-1.421198e-06		-2.790739e+08		5.375926e+09
-2.790739e+08		-1.706113e-05		7.589963e-05
5.375926e+09		7.589963e-05		1.768991e-04
-5.587004e-06		-1.785811e-05		5.391722e+09
-1.785811e-05		-3.994629e-05		7.803062e-05
5.391722e+09		7.803062e-05		1.949389e-04
1.834240e-05		2.790739e+08		5.375926e+09
2.790739e+08		-2.990081e-05		5.718600e-05
5.375926e+09		5.718600e-05		1.647845e-04
3.307313e-05		5.583700e+08		5.364221e+09
5.583700e+08		-1.073861e-05		5.707634e-05
5.364221e+09		5.707634e-05		1.797136e-04
6.187800e-05		3.438860e+08		5.559482e+09
3.438860e+08		-2.344139e-06		3.691242e-05
5.559482e+09		3.691242e-05		1.489408e-04
1.084991e-04		9.525650e+07		6.149458e+09
9.525650e+07		1.647417e-05		3.724187e-05
6.149458e+09		3.724187e-05		1.559108e-04
2.013711e+08		-9.466943e+07		5.443372e+09
-9.466943e+07		5.535566e+07		5.252146e+07
5.443372e+09		5.252146e+07		-4.023230e+09
7.583295e+07		-4.760621e+08		4.694088e+09
-4.760621e+08		-6.550981e+07		1.752888e+08
4.694088e+09		1.752888e+08		-4.363013e+09
4.224689e+07		-1.776218e-05		4.712181e+09
-1.776218e-05		-1.979161e+08		2.658460e-05
4.712181e+09		2.658460e-05		-4.567305e+09
7.583295e+07		4.760621e+08		4.694088e+09
4.760621e+08		-6.550981e+07		-1.752888e+08
4.694088e+09		-1.752888e+08		-4.363013e+09
2.013711e+08		9.466943e+07		5.443372e+09
9.466943e+07		5.535566e+07		-5.252146e+07
5.443372e+09		-5.252146e+07		-4.023230e+09
2.497061e+08		-6.421114e+07		4.643478e+09
-6.421114e+07		4.598720e+07		7.080836e+07
4.643478e+09		7.080836e+07		-8.105816e+09
1.443122e+08		-2.121218e+08		4.085282e+09
-2.121218e+08		-6.213465e+07		2.304035e+08
4.085282e+09		2.304035e+08		-8.406966e+09
1.053563e+08		-3.584184e+08		3.849656e+09
-3.584184e+08		-1.537252e+08		3.413845e+08
3.849656e+09		3.413845e+08		-8.703440e+09
8.449422e+07		-1.721913e+08		3.833448e+09
-1.721913e+08		-3.036420e+08		1.575189e+08
3.833448e+09		1.575189e+08		-8.941485e+09
6.215025e+07		-8.539297e-06		3.820223e+09
-8.539297e-06		-4.134628e+08		-4.725158e-05
3.820223e+09		-4.725158e-05		-9.066494e+09
8.449422e+07		1.721913e+08		3.833448e+09
1.721913e+08		-3.036420e+08		-1.575189e+08
3.833448e+09		-1.575189e+08		-8.941485e+09
1.053563e+08		3.584184e+08		3.849656e+09
3.584184e+08		-1.537252e+08		-3.413845e+08
3.849656e+09		-3.413845e+08		-8.703440e+09
1.443122e+08		2.121218e+08		4.085282e+09
2.121218e+08		-6.213465e+07		-2.304035e+08
4.085282e+09		-2.304035e+08		-8.406966e+09
2.497061e+08		6.421114e+07		4.643478e+09
6.421114e+07		4.598720e+07		-7.080836e+07
4.643478e+09		-7.080836e+07		-8.105816e+09
1.981173e+08		-5.615565e+07		2.609987e+09
-5.615565e+07		1.252521e+08		1.283731e+08
2.609987e+09		1.283731e+08		-1.217355e+10
6.008556e+07		-1.891695e+08		2.065896e+09
-1.891695e+08		-3.091969e+08		5.217731e+08
2.065896e+09		5.217731e+08		-1.302108e+10
-3.821895e+06		4.879851e-05		2.033200e+09
4.879851e-05		-6.757521e+08		-1.562093e-04
2.033200e+09		-1.562093e-04		-1.349012e+10
6.008556e+07		1.891695e+08		2.065896e+09
1.891695e+08		-3.091969e+08		-5.217731e+08
2.065896e+09		-5.217731e+08		-1.302108e+10
1.981173e+08		5.615565e+07		2.609987e+09
5.615565e+07		1.252521e+08		-1.283731e+08
2.609987e+09		-1.283731e+08		-1.217355e+10
1.299588e+08		-2.953066e+05		5.243998e+08
-2.953066e+05		1.519886e+08		3.644875e+08
5.243998e+08		3.644875e+08		-1.652177e+10
1.084428e+07		3.306335e+07		2.362236e+08
3.306335e+07		-2.062597e+08		6.503122e+08
2.362236e+08		6.503122e+08		-1.707940e+10
7.007781e+07		9.481833e+06		2.373224e+08
9.481833e+06		-4.562827e+08		8.238482e+08
2.373224e+08		8.238482e+08		-1.738614e+10
6.733336e+07		2.324574e+07		1.981420e+08
2.324574e+07		-7.040391e+08		3.578718e+08
1.981420e+08		3.578718e+08		-1.765465e+10
3.332249e+07		2.243667e-05		2.055715e+08
2.243667e-05		-9.118011e+08		-3.156085e-04
2.055715e+08		-3.156085e-04		-1.784299e+10
6.733336e+07		-2.324574e+07		1.981420e+08
-2.324574e+07		-7.040391e+08		-3.578718e+08
1.981420e+08		-3.578718e+08		-1.765465e+10
7.007781e+07		-9.481833e+06		2.373224e+08
-9.481833e+06		-4.562827e+08		-8.238482e+08
2.373224e+08		-8.238482e+08		-1.738614e+10
1.084428e+07		-3.306335e+07		2.362236e+08
-3.306335e+07		-2.062597e+08		-6.503122e+08
2.362236e+08		-6.503122e+08		-1.707940e+10
1.299588e+08		2.953066e+05		5.243998e+08
2.953066e+05		1.519886e+08		-3.644875e+08
5.243998e+08		-3.644875e+08		-1.652177e+10
-5.404257e+07		1.790192e+06		4.259753e+08
1.790192e+06		-8.683877e+07		-4.020942e+08
4.259753e+08		-4.020942e+08		1.462554e+10
-4.024182e+07		-2.812574e+06		7.724432e+07
-2.812574e+06		2.651888e+08		-8.665215e+08
7.724432e+07		-8.665215e+08		1.518562e+10
-3.299822e+07		3.346824e-05		5.133763e+07
3.346824e-05		5.318526e+08		4.048012e-04
5.133763e+07		4.048012e-04		1.543701e+10
-4.024182e+07		2.812574e+06		7.724432e+07
2.812574e+06		2.651888e+08		8.665215e+08
7.724432e+07		8.665215e+08		1.518562e+10
-5.404257e+07		-1.790192e+06		4.259753e+08
-1.790192e+06		-8.683877e+07		4.020942e+08
4.259753e+08		4.020942e+08		1.462554e+10
-1.618984e+08		-4.408686e+07		4.763146e+09
-4.408686e+07		-3.737053e+07		-5.640491e+07
4.763146e+09		-5.640491e+07		7.139639e+09
-6.062607e+07		-2.603229e+08		3.693070e+09
-2.603229e+08		7.594223e+07		-2.830470e+08
3.693070e+09		-2.830470e+08		7.558148e+09
-4.742991e+07		2.244255e-05		3.540867e+09
2.244255e-05		2.104338e+08		2.219351e-04
3.540867e+09		2.219351e-04		7.765210e+09
-6.062607e+07		2.603229e+08		3.693070e+09
2.603229e+08		7.594223e+07		2.830470e+08
3.693070e+09		2.830470e+08		7.558148e+09
-1.618984e+08		4.408686e+07		4.763146e+09
4.408686e+07		-3.737053e+07		5.640491e+07
4.763146e+09		5.640491e+07		7.139639e+09
-7.687137e-06		-5.999416e+07		6.131573e+09
-5.999416e+07		2.105813e-05		-4.627742e-06
6.131573e+09		-4.627742e-06		9.646267e-05
6.373506e-05		-3.952239e+08		5.033740e+09
-3.952239e+08		1.367694e-05		7.595269e-05
5.033740e+09		7.595269e-05		1.570955e-04
5.872827e-05		-1.265807e-05		4.877707e+09
-1.265807e-05		-5.016569e-06		7.402321e-05
4.877707e+09		7.402321e-05		1.827702e-04
1.306385e-04		3.952239e+08		5.033740e+09
3.952239e+08		-8.195639e-08		5.088488e-05
5.033740e+09		5.088488e-05		2.211668e-04
7.374957e-05		5.999416e+07		6.131573e+09
5.999416e+07		-6.540678e-06		3.704499e-05
6.131573e+09		3.704499e-05		1.062602e-04
1.618984e+08		-4.408686e+07		4.763146e+09
-4.408686e+07		3.737053e+07		5.640491e+07
4.763146e+09		5.640491e+07		-7.139639e+09
6.062607e+07		-2.603229e+08		3.693070e+09
-2.603229e+08		-7.594223e+07		2.830470e+08
3.693070e+09		2.830470e+08		-7.558148e+09
4.742991e+07		2.125790e-05		3.540867e+09
2.125790e-05		-2.104338e+08		-6.686151e-05
3.540867e+09		-6.686151e-05		-7.765210e+09
6.062607e+07		2.603229e+08		3.693070e+09
2.603229e+08		-7.594223e+07		-2.830470e+08
3.693070e+09		-2.830470e+08		-7.558148e+09
1.618984e+08		4.408686e+07		4.763146e+09
4.408686e+07		3.737053e+07		-5.640491e+07
4.763146e+09		-5.640491e+07		-7.139639e+09
5.404257e+07		1.790192e+06		4.259753e+08
1.790192e+06		8.683877e+07		4.020942e+08
4.259753e+08		4.020942e+08		-1.462554e+10
4.024182e+07		-2.812574e+06		7.724432e+07
-2.812574e+06		-2.651888e+08		8.665215e+08
7.724432e+07		8.665215e+08		-1.518562e+10
3.299822e+07		1.321919e-05		5.133763e+07
1.321919e-05		-5.318526e+08		-2.708323e-04
5.133763e+07		-2.708323e-04		-1.543701e+10
4.024182e+07		2.812574e+06		7.724432e+07
2.812574e+06		-2.651888e+08		-8.665215e+08
7.724432e+07		-8.665215e+08		-1.518562e+10
5.404257e+07		-1.790192e+06		4.259753e+08
-1.790192e+06		8.683877e+07		-4.020942e+08
4.259753e+08		-4.020942e+08		-1.462554e+10
2.265687e+07		1.405785e+07		6.501872e+08
1.405785e+07		1.395941e+07		-4.623071e+08
6.501872e+08		-4.623071e+08		1.272879e+10
3.777566e+07		1.251129e+07		2.657729e+08
1.251129e+07		9.276125e+07		-7.613302e+08
2.657729e+08		-7.613302e+08		1.293244e+10
7.809988e+06		-1.480137e+06		2.683638e+08
-1.480137e+06		1.736397e+08		-9.572017e+08
2.683638e+08		-9.572017e+08		1.305026e+10
2.315109e+07		3.631381e+06		2.083739e+08
3.631381e+06		2.935084e+08		-4.428737e+08
2.083739e+08		-4.428737e+08		1.317763e+10
6.171128e+06		3.189081e-06		2.491373e+08
3.189081e-06		3.253551e+08		4.912093e-04
2.491373e+08		4.912093e-04		1.319098e+10
2.315109e+07		-3.631381e+06		2.083739e+08
-3.631381e+06		2.935084e+08		4.428737e+08
2.083739e+08		4.428737e+08		1.317763e+10
7.809988e+06		1.480137e+06		2.683638e+08
1.480137e+06		1.736397e+08		9.572017e+08
2.683638e+08		9.572017e+08		1.305026e+10
3.777566e+07		-1.251129e+07		2.657729e+08
-1.251129e+07		9.276125e+07		7.613302e+08
2.657729e+08		7.613302e+08		1.293244e+10
2.265687e+07		-1.405785e+07		6.501872e+08
-1.405785e+07		1.395941e+07		4.623071e+08
6.501872e+08		4.623071e+08		1.272879e+10
-4.742948e+07		-2.434041e+07		3.023631e+09
-2.434041e+07		-1.189703e+07		-1.179506e+08
3.023631e+09		-1.179506e+08		9.404602e+09
-1.083390e+07		-9.367072e+07		2.133979e+09
-9.367072e+07		1.043049e+08		-5.287645e+08
2.133979e+09		-5.287645e+08		9.746434e+09
-1.134408e+07		-7.002847e-05		1.996597e+09
-7.002847e-05		2.015176e+08		3.307955e-04
1.996597e+09		3.307955e-04		9.890016e+09
-1.083390e+07		9.367072e+07		2.133979e+09
9.367072e+07		1.043049e+08		5.287645e+08
2.133979e+09		5.287645e+08		9.746434e+09
-4.742948e+07		2.434041e+07		3.023631e+09
2.434041e+07		-1.189703e+07		1.179506e+08
3.023631e+09		1.179506e+08		9.404602e+09
-6.162111e+07		-3.805490e+07		5.192188e+09
-3.805490e+07		5.247540e+06		-6.437548e+07
5.192188e+09		-6.437548e+07		6.226738e+09
-2.504917e+07		-1.079118e+08		4.336604e+09
-1.079118e+08		2.447572e+07		-1.809006e+08
4.336604e+09		-1.809006e+08		6.353718e+09
-1.371459e+07		-1.731034e+08		3.867171e+09
-1.731034e+08		4.589493e+07		-2.729179e+08
3.867171e+09		-2.729179e+08		6.460410e+09
-6.673600e+06		-8.927634e+07		3.679419e+09
-8.927634e+07		9.467686e+07		-1.443189e+08
3.679419e+09		-1.443189e+08		6.556492e+09
-2.252295e+07		-5.221926e-06		3.613112e+09
-5.221926e-06		9.315347e+07		2.292776e-04
3.613112e+09		2.292776e-04		6.565783e+09
-6.673600e+06		8.927634e+07		3.679419e+09
8.927634e+07		9.467686e+07		1.443189e+08
3.679419e+09		1.443189e+08		6.556492e+09
-1.371459e+07		1.731034e+08		3.867171e+09
1.731034e+08		4.589493e+07		2.729179e+08
3.867171e+09		2.729179e+08		6.460410e+09
-2.504917e+07		1.079118e+08		4.336604e+09
1.079118e+08		2.447572e+07		1.809006e+08
4.336604e+09		1.809006e+08		6.353718e+09
-6.162111e+07		3.805490e+07		5.192188e+09
3.805490e+07		5.247540e+06		6.437548e+07
5.192188e+09		6.437548e+07		6.226738e+09
-5.684393e+07		-4.534732e+07		5.885712e+09
-4.534732e+07		-7.318386e+06		-2.141160e+07
5.885712e+09		-2.141160e+07		3.104669e+09
-1.736685e+07		-2.175621e+08		4.602330e+09
-2.175621e+08		1.830985e+07		-1.282987e+08
4.602330e+09		-1.282987e+08		3.235273e+09
-1.472705e+07		3.498048e-05		4.335179e+09
3.498048e-05		4.457150e+07		1.473511e-04
4.335179e+09		1.473511e-04		3.301588e+09
-1.736685e+07		2.175621e+08		4.602330e+09
2.175621e+08		1.830985e+07		1.282987e+08
4.602330e+09		1.282987e+08		3.235273e+09
-5.684393e+07		4.534732e+07		5.885712e+09
4.534732e+07		-7.318386e+06		2.141160e+07
5.885712e+09		2.141160e+07		3.104669e+09
-1.088716e-04		-4.788226e+07		6.485195e+09
-4.788226e+07		1.879688e-05		4.600931e-05
6.485195e+09		4.600931e-05		6.102026e-06
-1.071300e-04		-1.600535e+08		5.618381e+09
-1.600535e+08		-5.211681e-06		6.667210e-05
5.618381e+09		6.667210e-05		8.116104e-05
-8.345116e-05		-2.514122e+08		5.131806e+09
-2.514122e+08		-5.846377e-05		8.233035e-05
5.131806e+09		8.233035e-05		1.301020e-04
9.311922e-05		-1.336057e+08		4.899288e+09
-1.336057e+08		1.890212e-05		9.586467e-05
4.899288e+09		9.586467e-05		2.356004e-04
1.348285e-04		-1.277775e-05		4.824017e+09
-1.277775e-05		5.854922e-05		7.448204e-05
4.824017e+09		7.448204e-05		2.350742e-04
1.243129e-04		1.336057e+08		4.899288e+09
1.336057e+08		2.845190e-06		7.490435e-05
4.899288e+09		7.490435e-05		2.104677e-04
1.281593e-04		2.514122e+08		5.131806e+09
2.514122e+08		-3.337394e-05		6.244307e-05
5.131806e+09		6.244307e-05		1.727482e-04
1.407769e-04		1.600535e+08		5.618381e+09
1.600535e+08		2.797367e-05		4.542132e-05
5.618381e+09		4.542132e-05		1.845881e-04
1.338106e-04		4.788226e+07		6.485195e+09
4.788226e+07		5.769171e-05		3.922903e-05
6.485195e+09		3.922903e-05		2.091955e-04
5.684393e+07		-4.534732e+07		5.885712e+09
-4.534732e+07		7.318386e+06		2.141160e+07
5.885712e+09		2.141160e+07		-3.104669e+09
1.736685e+07		-2.175621e+08		4.602330e+09
-2.175621e+08		-1.830985e+07		1.282987e+08
4.602330e+09		1.282987e+08		-3.235273e+09
1.472705e+07		-8.393079e-06		4.335179e+09
-8.393079e-06		-4.457150e+07		1.308415e-05
4.335179e+09		1.308415e-05		-3.301588e+09
1.736685e+07		2.175621e+08		4.602330e+09
2.175621e+08		-1.830985e+07		-1.282987e+08
4.602330e+09		-1.282987e+08		-3.235273e+09
5.684393e+07		4.534732e+07		5.885712e+09
4.534732e+07		7.318386e+06		-2.141160e+07
5.885712e+09		-2.141160e+07		-3.104669e+09
6.162111e+07		-3.805490e+07		5.192188e+09
-3.805490e+07		-5.247540e+06		6.437548e+07
5.192188e+09		6.437548e+07		-6.226738e+09
2.504917e+07		-1.079118e+08		4.336604e+09
-1.079118e+08		-2.447572e+07		1.809006e+08
4.336604e+09		1.809006e+08		-6.353718e+09
1.371459e+07		-1.731034e+08		3.867171e+09
-1.731034e+08		-4.589493e+07		2.729179e+08
3.867171e+09		2.729179e+08		-6.460410e+09
6.673600e+06		-8.927634e+07		3.679419e+09
-8.927634e+07		-9.467686e+07		1.443189e+08
3.679419e+09		1.443189e+08		-6.556492e+09
2.252295e+07		1.264736e-06		3.613112e+09
1.264736e-06		-9.315347e+07		-7.093512e-05
3.613112e+09		-7.093512e-05		-6.565783e+09
6.673600e+06		8.927634e+07		3.679419e+09
8.927634e+07		-9.467686e+07		-1.443189e+08
3.679419e+09		-1.443189e+08		-6.556492e+09
1.371459e+07		1.731034e+08		3.867171e+09
1.731034e+08		-4.589493e+07		-2.729179e+08
3.867171e+09		-2.729179e+08		-6.460410e+09
2.504917e+07		1.079118e+08		4.336604e+09
1.079118e+08		-2.447572e+07		-1.809006e+08
4.336604e+09		-1.809006e+08		-6.353718e+09
6.162111e+07		3.805490e+07		5.192188e+09
3.805490e+07		-5.247540e+06		-6.437548e+07
5.192188e+09		-6.437548e+07		-6.226738e+09
4.742948e+07		-2.434041e+07		3.023631e+09
-2.434041e+07		1.189703e+07		1.179506e+08
3.023631e+09		1.179506e+08		-9.404602e+09
1.083390e+07		-9.367072e+07		2.133979e+09
-9.367072e+07		-1.043049e+08		5.287645e+08
2.133979e+09		5.287645e+08		-9.746434e+09
1.134408e+07		-3.505033e-06		1.996597e+09
-3.505033e-06		-2.015176e+08		-1.118202e-04
1.996597e+09		-1.118202e-04		-9.890016e+09
1.083390e+07		9.367072e+07		2.133979e+09
9.367072e+07		-1.043049e+08		-5.287645e+08
2.133979e+09		-5.287645e+08		-9.746434e+09
4.742948e+07		2.434041e+07		3.023631e+09
2.434041e+07		1.189703e+07		-1.179506e+08
3.023631e+09		-1.179506e+08		-9.404602e+09
-2.265687e+07		1.405785e+07		6.501872e+08
1.405785e+07		-1.395941e+07		4.623071e+08
6.501872e+08		4.623071e+08		-1.272879e+10
-3.777566e+07		1.251129e+07		2.657729e+08
1.251129e+07		-9.276125e+07		7.613302e+08
2.657729e+08		7.613302e+08		-1.293244e+10
-7.809988e+06		-1.480137e+06		2.683638e+08
-1.480137e+06		-1.736397e+08		9.572017e+08
2.683638e+08		9.572017e+08		-1.305026e+10
-2.315109e+07		3.631381e+06		2.083739e+08
3.631381e+06		-2.935084e+08		4.428737e+08
2.083739e+08		4.428737e+08		-1.317763e+10
-6.171128e+06		5.644606e-05		2.491373e+08
5.644606e-05		-3.253551e+08		-1.857951e-04
2.491373e+08		-1.857951e-04		-1.319098e+10
-2.315109e+07		-3.631381e+06		2.083739e+08
-3.631381e+06		-2.935084e+08		-4.428737e+08
2.083739e+08		-4.428737e+08		-1.317763e+10
-7.809988e+06		1.480137e+06		2.683638e+08
1.480137e+06		-1.736397e+08		-9.572017e+08
2.683638e+08		-9.572017e+08		-1.305026e+10
-3.777566e+07		-1.251129e+07		2.657729e+08
-1.251129e+07		-9.276125e+07		-7.613302e+08
2.657729e+08		-7.613302e+08		-1.293244e+10
-2.265687e+07		-1.405785e+07		6.501872e+08
-1.405785e+07		-1.395941e+07		-4.623071e+08
6.501872e+08		-4.623071e+08		-1.272879e+10
-4.699445e+06		6.099987e+06		5.002998e+08
6.099987e+06		-1.571229e+07		-4.395176e+08
5.002998e+08		-4.395176e+08		1.063145e+10
2.982974e+06		-3.106127e+06		1.016132e+08
-3.106127e+06		1.016139e+08		-9.535026e+08
1.016132e+08		-9.535026e+08		1.086140e+10
9.814925e+06		4.736334e-05		8.238596e+07
4.736334e-05		2.083076e+08		4.652664e-04
8.238596e+07		4.652664e-04		1.096248e+10
2.982974e+06		3.106127e+06		1.016132e+08
3.106127e+06		1.016139e+08		9.535026e+08
1.016132e+08		9.535026e+08		1.086140e+10
-4.699445e+06		-6.099987e+06		5.002998e+08
-6.099987e+06		-1.571229e+07		4.395176e+08
5.002998e+08		4.395176e+08		1.063145e+10
-3.610082e+07		-2.039799e+07		5.135998e+09
-2.039799e+07		-1.114052e+06		-4.225264e+07
5.135998e+09		-4.225264e+07		5.233955e+09
8.380727e+06		-1.167580e+08		3.692380e+09
-1.167580e+08		3.326914e+07		-2.410050e+08
3.692380e+09		-2.410050e+08		5.403314e+09
1.251495e+07		-5.572452e-05		3.385918e+09
-5.572452e-05		7.063447e+07		2.587568e-04
3.385918e+09		2.587568e-04		5.483201e+09
8.380727e+06		1.167580e+08		3.692380e+09
1.167580e+08		3.326914e+07		2.410050e+08
3.692380e+09		2.410050e+08		5.403314e+09
-3.610082e+07		2.039799e+07		5.135998e+09
2.039799e+07		-1.114052e+06		4.225264e+07
5.135998e+09		4.225264e+07		5.233955e+09
-1.329798e-04		-2.640703e+07		6.434858e+09
-2.640703e+07		-2.437411e-05		6.178999e-05
6.434858e+09		6.178999e-05		-1.281127e-05
-4.545855e-05		-1.685118e+08		4.952514e+09
-1.685118e+08		-8.978648e-06		4.774325e-05
4.952514e+09		4.774325e-05		1.495555e-04
-1.141569e-05		-5.977112e-05		4.569150e+09
-5.977112e-05		-7.468509e-06		4.519537e-05
4.569150e+09		4.519537e-05		1.587570e-04
8.633197e-05		1.685118e+08		4.952514e+09
1.685118e+08		-1.555879e-05		4.379321e-05
4.952514e+09		4.379321e-05		2.200827e-04
1.546424e-04		2.640703e+07		6.434858e+09
2.640703e+07		3.032573e-05		3.183197e-05
6.434858e+09		3.183197e-05		2.226382e-04
3.610082e+07		-2.039799e+07		5.135998e+09
-2.039799e+07		1.114052e+06		4.225264e+07
5.135998e+09		4.225264e+07		-5.233955e+09
-8.380727e+06		-1.167580e+08		3.692380e+09
-1.167580e+08		-3.326914e+07		2.410050e+08
3.692380e+09		2.410050e+08		-5.403314e+09
-1.251495e+07		-1.262105e-05		3.385918e+09
-1.262105e-05		-7.063447e+07		-6.287545e-05
3.385918e+09		-6.287545e-05		-5.483201e+09
-8.380727e+06		1.167580e+08		3.692380e+09
1.167580e+08		-3.326914e+07		-2.410050e+08
3.692380e+09		-2.410050e+08		-5.403314e+09
3.610082e+07		2.039799e+07		5.135998e+09
2.039799e+07		1.114052e+06		-4.225264e+07
5.135998e+09		-4.225264e+07		-5.233955e+09
4.699445e+06		6.099987e+06		5.002998e+08
6.099987e+06		1.571229e+07		4.395176e+08
5.002998e+08		4.395176e+08		-1.063145e+10
-2.982974e+06		-3.106127e+06		1.016132e+08
-3.106127e+06		-1.016139e+08		9.535026e+08
1.016132e+08		9.535026e+08		-1.086140e+10
-9.814925e+06		-4.956673e-05		8.238596e+07
-4.956673e-05		-2.083076e+08		-1.742169e-04
8.238596e+07		-1.742169e-04		-1.096248e+10
-2.982974e+06		3.106127e+06		1.016132e+08
3.106127e+06		-1.016139e+08		-9.535026e+08
1.016132e+08		-9.535026e+08		-1.086140e+10
4.699445e+06		-6.099987e+06		5.002998e+08
-6.099987e+06		1.571229e+07		-4.395176e+08
5.002998e+08		-4.395176e+08		-1.063145e+10
-2.807688e+06		2.254927e+06		6.837434e+08
2.254927e+06		-7.950323e+06		-4.649818e+08
6.837434e+08		-4.649818e+08		8.565626e+09
8.331557e+06		4.335719e+06		2.691587e+08
4.335719e+06		2.762083e+07		-7.927343e+08
2.691587e+08		-7.927343e+08		8.637240e+09
-2.856361e+06		-1.530589e+06		2.708663e+08
-1.530589e+06		5.834440e+07		-9.915974e+08
2.708663e+08		-9.915974e+08		8.676152e+09
-7.071274e+05		5.966398e+05		2.012979e+08
5.966398e+05		9.993403e+07		-4.636149e+08
2.012979e+08		-4.636149e+08		8.712275e+09
-4.362259e+06		-1.873623e-05		2.506344e+08
-1.873623e-05		1.199218e+08		5.198121e-04
2.506344e+08		5.198121e-04		8.723913e+09
-7.071274e+05		-5.966398e+05		2.012979e+08
-5.966398e+05		9.993403e+07		4.636149e+08
2.012979e+08		4.636149e+08		8.712275e+09
-2.856361e+06		1.530589e+06		2.708663e+08
1.530589e+06		5.834440e+07		9.915974e+08
2.708663e+08		9.915974e+08		8.676152e+09
8.331557e+06		-4.335719e+06		2.691587e+08
-4.335719e+06		2.762083e+07		7.927343e+08
2.691587e+08		7.927343e+08		8.637240e+09
-2.807688e+06		-2.254927e+06		6.837434e+08
-2.254927e+06		-7.950323e+06		4.649818e+08
6.837434e+08		4.649818e+08		8.565626e+09
-1.533734e+07		-9.428091e+06		3.156047e+09
-9.428091e+06		-9.473332e+06		-9.817141e+07
3.156047e+09		-9.817141e+07		6.374786e+09
2.030898e+06		-3.910475e+07		2.127159e+09
-3.910475e+07		3.667845e+07		-5.149230e+08
2.127159e+09		-5.149230e+08		6.494106e+09
3.174883e+06		-2.191402e-06		1.934434e+09
-2.191402e-06		7.546438e+07		3.402960e-04
1.934434e+09		3.402960e-04		6.545117e+09
2.030898e+06		3.910475e+07		2.127159e+09
3.910475e+07		3.667845e+07		5.149230e+08
2.127159e+09		5.149230e+08		6.494106e+09
-1.533734e+07		9.428091e+06		3.156047e+09
9.428091e+06		-9.473332e+06		9.817141e+07
3.156047e+09		9.817141e+07		6.374786e+09
-1.329030e+07		-1.424290e+07		5.407813e+09
-1.424290e+07		4.463937e+05		-5.050655e+07
5.407813e+09		-5.050655e+07		4.233676e+09
4.277746e+06		-4.392829e+07		4.438263e+09
-4.392829e+07		1.150498e+07		-1.548955e+08
4.438263e+09		-1.548955e+08		4.281111e+09
8.608188e+06		-7.175440e+07		3.857632e+09
-7.175440e+07		1.874704e+07		-2.365384e+08
3.857632e+09		-2.365384e+08		4.319358e+09
1.009136e+07		-3.726707e+07		3.597113e+09
-3.726707e+07		3.336266e+07		-1.294340e+08
3.597113e+09		-1.294340e+08		4.347969e+09
7.005691e+06		-5.837996e-05		3.499541e+09
-5.837996e-05		3.651969e+07		2.458533e-04
3.499541e+09		2.458533e-04		4.354299e+09
1.009136e+07		3.726707e+07		3.597113e+09
3.726707e+07		3.336266e+07		1.294340e+08
3.597113e+09		1.294340e+08		4.347969e+09
8.608188e+06		7.175440e+07		3.857632e+09
7.175440e+07		1.874704e+07		2.365384e+08
3.857632e+09		2.365384e+08		4.319358e+09
4.277746e+06		4.392829e+07		4.438263e+09
4.392829e+07		1.150498e+07		1.548955e+08
4.438263e+09		1.548955e+08		4.281111e+09
-1.329030e+07		1.424290e+07		5.407813e+09
1.424290e+07		4.463937e+05		5.050655e+07
5.407813e+09		5.050655e+07		4.233676e+09
-1.416987e+07		-1.824370e+07		6.092072e+09
-1.824370e+07		-5.250759e+06		-7.832969e+06
6.092072e+09		-7.832969e+06		2.104597e+09
3.170766e+06		-8.910002e+07		4.574203e+09
-8.910002e+07		5.773230e+06		-1.041519e+08
4.574203e+09		-1.041519e+08		2.152953e+09
4.269311e+06		5.548401e-05		4.177493e+09
5.548401e-05		1.440759e+07		1.425282e-04
4.177493e+09		1.425282e-04		2.173572e+09
3.170766e+06		8.910002e+07		4.574203e+09
8.910002e+07		5.773230e+06		1.041519e+08
4.574203e+09		1.041519e+08		2.152953e+09
-1.416987e+07		1.824370e+07		6.092072e+09
1.824370e+07		-5.250759e+06		7.832969e+06
6.092072e+09		7.832969e+06		2.104597e+09
-3.181357e-04		-1.859820e+07		6.711205e+09
-1.859820e+07		-1.247983e-04		2.742512e-06
6.711205e+09		2.742512e-06		-8.745678e-05
-1.696981e-04		-6.456088e+07		5.732251e+09
-6.456088e+07		-6.582658e-05		7.260009e-06
5.732251e+09		7.260009e-06		-2.816319e-06
-2.411590e-05		-1.025557e+08		5.115464e+09
-1.025557e+08		1.467991e-05		4.125438e-05
5.115464e+09		4.125438e-05		5.443487e-05
-9.041140e-05		-5.408013e+07		4.782030e+09
-5.408013e+07		-6.338232e-06		2.640690e-05
4.782030e+09		2.640690e-05		5.798135e-05
3.511528e-05		1.118074e-04		4.664137e+09
1.118074e-04		1.331884e-05		3.113786e-05
4.664137e+09		3.113786e-05		1.392057e-04
1.314974e-04		5.408013e+07		4.782030e+09
5.408013e+07		3.180467e-05		6.723747e-05
4.782030e+09		6.723747e-05		2.475716e-04
2.926189e-04		1.025557e+08		5.115464e+09
1.025557e+08		1.160695e-04		3.095414e-05
5.115464e+09		3.095414e-05		3.829878e-04
1.394558e-04		6.456088e+07		5.732251e+09
6.456088e+07		2.039294e-05		9.462323e-06
5.732251e+09		9.462323e-06		2.369853e-04
4.118551e-05		1.859820e+07		6.711205e+09
1.859820e+07		-8.819428e-05		3.407222e-05
6.711205e+09		3.407222e-05		7.193256e-05
1.416987e+07		-1.824370e+07		6.092072e+09
-1.824370e+07		5.250759e+06		7.832969e+06
6.092072e+09		7.832969e+06		-2.104597e+09
-3.170766e+06		-8.910002e+07		4.574203e+09
-8.910002e+07		-5.773230e+06		1.041519e+08
4.574203e+09		1.041519e+08		-2.152953e+09
-4.269311e+06		3.737072e-05		4.177493e+09
3.737072e-05		-1.440759e+07		-2.360437e-06
4.177493e+09		-2.360437e-06		-2.173572e+09
-3.170766e+06		8.910002e+07		4.574203e+09
8.910002e+07		-5.773230e+06		-1.041519e+08
4.574203e+09		-1.041519e+08		-2.152953e+09
1.416987e+07		1.824370e+07		6.092072e+09
1.824370e+07		5.250759e+06		-7.832969e+06
6.092072e+09		-7.832969e+06		-2.104597e+09
1.329030e+07		-1.424290e+07		5.407813e+09
-1.424290e+07		-4.463937e+05		5.050655e+07
5.407813e+09		5.050655e+07		-4.233676e+09
-4.277746e+06		-4.392829e+07		4.438263e+09
-4.392829e+07		-1.150498e+07		1.548955e+08
4.438263e+09		1.548955e+08		-4.281111e+09
-8.608188e+06		-7.175440e+07		3.857632e+09
-7.175440e+07		-1.874704e+07		2.365384e+08
3.857632e+09		2.365384e+08		-4.319358e+09
-1.009136e+07		-3.726707e+07		3.597113e+09
-3.726707e+07		-3.336266e+07		1.294340e+08
3.597113e+09		1.294340e+08		-4.347969e+09
-7.005691e+06		-8.982839e-06		3.499541e+09
-8.982839e-06		-3.651969e+07		-2.542324e-05
3.499541e+09		-2.542324e-05		-4.354299e+09
-1.009136e+07		3.726707e+07		3.597113e+09
3.726707e+07		-3.336266e+07		-1.294340e+08
3.597113e+09		-1.294340e+08		-4.347969e+09
-8.608188e+06		7.175440e+07		3.857632e+09
7.175440e+07		-1.874704e+07		-2.365384e+08
3.857632e+09		-2.365384e+08		-4.319358e+09
-4.277746e+06		4.392829e+07		4.438263e+09
4.392829e+07		-1.150498e+07		-1.548955e+08
4.438263e+09		-1.548955e+08		-4.281111e+09
1.329030e+07		1.424290e+07		5.407813e+09
1.424290e+07		-4.463937e+05		-5.050655e+07
5.407813e+09		-5.050655e+07		-4.233676e+09
1.533734e+07		-9.428091e+06		3.156047e+09
-9.428091e+06		9.473332e+06		9.817141e+07
3.156047e+09		9.817141e+07		-6.374786e+09
-2.030898e+06		-3.910475e+07		2.127159e+09
-3.910475e+07		-3.667845e+07		5.149230e+08
2.127159e+09		5.149230e+08		-6.494106e+09
-3.174883e+06		4.055095e-05		1.934434e+09
4.055095e-05		-7.546438e+07		-1.013940e-04
1.934434e+09		-1.013940e-04		-6.545117e+09
-2.030898e+06		3.910475e+07		2.127159e+09
3.910475e+07		-3.667845e+07		-5.149230e+08
2.127159e+09		-5.149230e+08		-6.494106e+09
1.533734e+07		9.428091e+06		3.156047e+09
9.428091e+06		9.473332e+06		-9.817141e+07
3.156047e+09		-9.817141e+07		-6.374786e+09
2.807688e+06		2.254927e+06		6.837434e+08
2.254927e+06		7.950323e+06		4.649818e+08
6.837434e+08		4.649818e+08		-8.565626e+09
-8.331557e+06		4.335719e+06		2.691587e+08
4.335719e+06		-2.762083e+07		7.927343e+08
2.691587e+08		7.927343e+08		-8.637240e+09
2.856361e+06		-1.530589e+06		2.708663e+08
-1.530589e+06		-5.834440e+07		9.915974e+08
2.708663e+08		9.915974e+08		-8.676152e+09
7.071274e+05		5.966398e+05		2.012979e+08
5.966398e+05		-9.993403e+07		4.636149e+08
2.012979e+08		4.636149e+08		-8.712275e+09
4.362259e+06		-1.560582e-05		2.506344e+08
-1.560582e-05		-1.199218e+08		-1.632646e-04
2.506344e+08		-1.632646e-04		-8.723913e+09
7.071274e+05		-5.966398e+05		2.012979e+08
-5.966398e+05		-9.993403e+07		-4.636149e+08
2.012979e+08		-4.636149e+08		-8.712275e+09
2.856361e+06		1.530589e+06		2.708663e+08
1.530589e+06		-5.834440e+07		-9.915974e+08
2.708663e+08		-9.915974e+08		-8.676152e+09
-8.331557e+06		-4.335719e+06		2.691587e+08
-4.335719e+06		-2.762083e+07		-7.927343e+08
2.691587e+08		-7.927343e+08		-8.637240e+09
2.807688e+06		-2.254927e+06		6.837434e+08
-2.254927e+06		7.950323e+06		-4.649818e+08
6.837434e+08		-4.649818e+08		-8.565626e+09
-5.942070e+06		2.272094e+06		5.118928e+08
2.272094e+06		-9.505995e+06		-4.578715e+08
5.118928e+08		-4.578715e+08		6.427334e+09
-2.779981e+06		-1.030805e+06		9.475390e+07
-1.030805e+06		3.233193e+07		-9.916275e+08
9.475390e+07		-9.916275e+08		6.498632e+09
-1.736485e+06		1.018691e-04		7.466839e+07
1.018691e-04		7.235177e+07		4.972517e-04
7.466839e+07		4.972517e-04		6.529151e+09
-2.779981e+06		1.030805e+06		9.475390e+07
1.030805e+06		3.233193e+07		9.916275e+08
9.475390e+07		9.916275e+08		6.498632e+09
-5.942070e+06		-2.272094e+06		5.118928e+08
-2.272094e+06		-9.505995e+06		4.578715e+08
5.118928e+08		4.578715e+08		6.427334e+09
-1.058666e+07		-6.396750e+06		5.267778e+09
-6.396750e+06		-2.471304e+06		-4.352936e+07
5.267778e+09		-4.352936e+07		3.183246e+09
7.594083e+06		-4.505702e+07		3.676959e+09
-4.505702e+07		1.088382e+07		-2.246382e+08
3.676959e+09		-2.246382e+08		3.240548e+09
9.623397e+06		9.565032e-06		3.298032e+09
9.565032e-06		2.428178e+07		1.865029e-04
3.298032e+09		1.865029e-04		3.266027e+09
7.594083e+06		4.505702e+07		3.676959e+09
4.505702e+07		1.088382e+07		2.246382e+08
3.676959e+09		2.246382e+08		3.240548e+09
-1.058666e+07		6.396750e+06		5.267778e+09
6.396750e+06		-2.471304e+06		4.352936e+07
5.267778e+09		4.352936e+07		3.183246e+09
7.956958e-05		-9.151669e+06		6.585293e+09
-9.151669e+06		1.084711e-05		-8.337665e-07
6.585293e+09		-8.337665e-07		2.371334e-05
-7.794471e-05		-6.463734e+07		4.942038e+09
-6.463734e+07		5.284464e-05		8.836345e-06
4.942038e+09		8.836345e-06		4.182570e-06
6.161700e-05		-1.064269e-05		4.464218e+09
-1.064269e-05		5.361973e-05		3.756220e-05
4.464218e+09		3.756220e-05		1.428742e-04
4.535820e-05		6.463734e+07		4.942038e+09
6.463734e+07		1.475378e-05		4.892561e-05
4.942038e+09		4.892561e-05		1.960322e-04
3.291166e-05		9.151669e+06		6.585293e+09
9.151669e+06		-3.094305e-05		4.389516e-06
6.585293e+09		4.389516e-06		2.048686e-04
1.058666e+07		-6.396750e+06		5.267778e+09
-6.396750e+06		2.471304e+06		4.352936e+07
5.267778e+09		4.352936e+07		-3.183246e+09
-7.594083e+06		-4.505702e+07		3.676959e+09
-4.505702e+07		-1.088382e+07		2.246382e+08
3.676959e+09		2.246382e+08		-3.240548e+09
-9.623397e+06		-2.082286e-05		3.298032e+09
-2.082286e-05		-2.428178e+07		-1.488999e-05
3.298032e+09		-1.488999e-05		-3.266027e+09
-7.594083e+06		4.505702e+07		3.676959e+09
4.505702e+07		-1.088382e+07		-2.246382e+08
3.676959e+09		-2.246382e+08		-3.240548e+09
1.058666e+07		6.396750e+06		5.267778e+09
6.396750e+06		2.471304e+06		-4.352936e+07
5.267778e+09		-4.352936e+07		-3.183246e+09
5.942070e+06		2.272094e+06		5.118928e+08
2.272094e+06		9.505995e+06		4.578715e+08
5.118928e+08		4.578715e+08		-6.427334e+09
2.779981e+06		-1.030805e+06		9.475390e+07
-1.030805e+06		-3.233193e+07		9.916275e+08
9.475390e+07		9.916275e+08		-6.498632e+09
1.736485e+06		1.025577e-04		7.466839e+07
1.025577e-04		-7.235177e+07		-1.404509e-04
7.466839e+07		-1.404509e-04		-6.529151e+09
2.779981e+06		1.030805e+06		9.475390e+07
1.030805e+06		-3.233193e+07		-9.916275e+08
9.475390e+07		-9.916275e+08		-6.498632e+09
5.942070e+06		-2.272094e+06		5.118928e+08
-2.272094e+06		9.505995e+06		-4.578715e+08
5.118928e+08		-4.578715e+08		-6.427334e+09
9.719567e+05		1.238761e+06		6.878989e+08
1.238761e+06		-5.326810e+05		-4.656826e+08
6.878989e+08		-4.656826e+08		4.299144e+09
3.481093e+06		1.494980e+06		2.675279e+08
1.494980e+06		8.491619e+06		-7.996895e+08
2.675279e+08		-7.996895e+08		4.317858e+09
-3.768485e+05		-4.223123e+05		2.666801e+08
-4.223123e+05		1.733417e+07		-1.003151e+09
2.666801e+08		-1.003151e+09		4.328019e+09
7.101279e+05		8.415794e+04		1.923505e+08
8.415794e+04		3.197978e+07		-4.715776e+08
1.923505e+08		-4.715776e+08		4.339426e+09
-1.061631e+06		1.277356e-04		2.455327e+08
1.277356e-04		3.807402e+07		4.481375e-04
2.455327e+08		4.481375e-04		4.340440e+09
7.101279e+05		-8.415794e+04		1.923505e+08
-8.415794e+04		3.197978e+07		4.715776e+08
1.923505e+08		4.715776e+08		4.339426e+09
-3.768485e+05		4.223123e+05		2.666801e+08
4.223123e+05		1.733417e+07		1.003151e+09
2.666801e+08		1.003151e+09		4.328019e+09
3.481093e+06		-1.494980e+06		2.675279e+08
-1.494980e+06		8.491619e+06		7.996895e+08
2.675279e+08		7.996895e+08		4.317858e+09
9.719567e+05		-1.238761e+06		6.878989e+08
-1.238761e+06		-5.326810e+05		4.656826e+08
6.878989e+08		4.656826e+08		4.299144e+09
-4.135624e+06		-3.014104e+06		3.196230e+09
-3.014104e+06		-1.841482e+06		-9.027185e+07
3.196230e+09		-9.027185e+07		3.210361e+09
1.326015e+06		-1.292245e+07		2.119025e+09
-1.292245e+07		1.104840e+07		-5.064867e+08
2.119025e+09		-5.064867e+08		3.244205e+09
1.706813e+06		8.157722e-05		1.903731e+09
8.157722e-05		2.409487e+07		3.071022e-04
1.903731e+09		3.071022e-04		3.259261e+09
1.326015e+06		1.292245e+07		2.119025e+09
1.292245e+07		1.104840e+07		5.064867e+08
2.119025e+09		5.064867e+08		3.244205e+09
-4.135624e+06		3.014104e+06		3.196230e+09
3.014104e+06		-1.841482e+06		9.027185e+07
3.196230e+09		9.027185e+07		3.210361e+09
-2.564557e+06		-4.949024e+06		5.476551e+09
-4.949024e+06		1.591256e+06		-4.582433e+07
5.476551e+09		-4.582433e+07		2.137460e+09
3.791532e+06		-1.463355e+07		4.468174e+09
-1.463355e+07		4.737139e+06		-1.424316e+08
4.468174e+09		-1.424316e+08		2.151040e+09
5.546558e+06		-2.410893e+07		3.847357e+09
-2.410893e+07		6.804224e+06		-2.209690e+08
3.847357e+09		-2.209690e+08		2.162028e+09
6.424309e+06		-1.274149e+07		3.555783e+09
-1.274149e+07		1.183463e+07		-1.222131e+08
3.555783e+09		-1.222131e+08		2.171608e+09
5.088039e+06		7.686904e-07		3.447560e+09
7.686904e-07		1.231022e+07		1.990534e-04
3.447560e+09		1.990534e-04		2.172421e+09
6.424309e+06		1.274149e+07		3.555783e+09
1.274149e+07		1.183463e+07		1.222131e+08
3.555783e+09		1.222131e+08		2.171608e+09
5.546558e+06		2.410893e+07		3.847357e+09
2.410893e+07		6.804224e+06		2.209690e+08
3.847357e+09		2.209690e+08		2.162028e+09
3.791532e+06		1.463355e+07		4.468174e+09
1.463355e+07		4.737139e+06		1.424316e+08
4.468174e+09		1.424316e+08		2.151040e+09
-2.564557e+06		4.949024e+06		5.476551e+09
4.949024e+06		1.591256e+06		4.582433e+07
5.476551e+09		4.582433e+07		2.137460e+09
-3.887376e+06		-6.315954e+06		6.175263e+09
-6.315954e+06		-1.374188e+06		-3.509904e+06
6.175263e+09		-3.509904e+06		1.064693e+09
2.387780e+06		-3.017344e+07		4.573542e+09
-3.017344e+07		1.998160e+06		-9.423663e+07
4.573542e+09		-9.423663e+07		1.078843e+09
3.026481e+06		1.013244e-05		4.128730e+09
1.013244e-05		4.893115e+06		1.697412e-04
4.128730e+09		1.697412e-04		1.085244e+09
2.387780e+06		3.017344e+07		4.573542e+09
3.017344e+07		1.998160e+06		9.423663e+07
4.573542e+09		9.423663e+07		1.078843e+09
-3.887376e+06		6.315954e+06		6.175263e+09
6.315954e+06		-1.374188e+06		3.509904e+06
6.175263e+09		3.509904e+06		1.064693e+09
2.224797e-04		-7.067373e+06		6.805332e+09
-7.067373e+06		-4.912319e-06		-1.660665e-05
6.805332e+09		-1.660665e-05		-4.254933e-05
-9.951484e-05		-2.231742e+07		5.786004e+09
-2.231742e+07		1.304180e-05		-3.663264e-05
5.786004e+09		-3.663264e-05		-2.940616e-05
-2.151050e-04		-3.504139e+07		5.120955e+09
-3.504139e+07		8.227597e-05		-4.002340e-05
5.120955e+09		-4.002340e-05		3.481825e-05
-3.906507e-06		-1.857610e+07		4.748396e+09
-1.857610e+07		9.429649e-05		1.625294e-05
4.748396e+09		1.625294e-05		8.479960e-05
2.037863e-04		1.342223e-04		4.617334e+09
1.342223e-04		1.313923e-04		6.477657e-05
4.617334e+09		6.477657e-05		1.481814e-04
1.078848e-04		1.857610e+07		4.748396e+09
1.857610e+07		6.362060e-05		9.152788e-05
4.748396e+09		9.152788e-05		1.055674e-04
3.503799e-06		3.504139e+07		5.120955e+09
3.504139e+07		8.767267e-06		9.245925e-05
5.120955e+09		9.245925e-05		4.036160e-05
4.053308e-05		2.231742e+07		5.786004e+09
2.231742e+07		7.350513e-05		3.250740e-05
5.786004e+09		3.250740e-05		2.537714e-04
1.720384e-04		7.067373e+06		6.805332e+09
7.067373e+06		1.739041e-04		-2.188317e-07
6.805332e+09		-2.188317e-07		5.261998e-04
3.887376e+06		-6.315954e+06		6.175263e+09
-6.315954e+06		1.374188e+06		3.509904e+06
6.175263e+09		3.509904e+06		-1.064693e+09
-2.387780e+06		-3.017344e+07		4.573542e+09
-3.017344e+07		-1.998160e+06		9.423663e+07
4.573542e+09		9.423663e+07		-1.078843e+09
-3.026481e+06		1.141053e-04		4.128730e+09
1.141053e-04		-4.893115e+06		-3.531203e-05
4.128730e+09		-3.531203e-05		-1.085244e+09
-2.387780e+06		3.017344e+07		4.573542e+09
3.017344e+07		-1.998160e+06		-9.423663e+07
4.573542e+09		-9.423663e+07		-1.078843e+09
3.887376e+06		6.315954e+06		6.175263e+09
6.315954e+06		1.374188e+06		-3.509904e+06
6.175263e+09		-3.509904e+06		-1.064693e+09
2.564557e+06		-4.949024e+06		5.476551e+09
-4.949024e+06		-1.591256e+06		4.582433e+07
5.476551e+09		4.582433e+07		-2.137460e+09
-3.791532e+06		-1.463355e+07		4.468174e+09
-1.463355e+07		-4.737139e+06		1.424316e+08
4.468174e+09		1.424316e+08		-2.151040e+09
-5.546558e+06		-2.410893e+07		3.847357e+09
-2.410893e+07		-6.804224e+06		2.209690e+08
3.847357e+09		2.209690e+08		-2.162028e+09
-6.424309e+06		-1.274149e+07		3.555783e+09
-1.274149e+07		-1.183463e+07		1.222131e+08
3.555783e+09		1.222131e+08		-2.171608e+09
-5.088039e+06		9.329274e-05		3.447560e+09
9.329274e-05		-1.231022e+07		-6.556883e-05
3.447560e+09		-6.556883e-05		-2.172421e+09
-6.424309e+06		1.274149e+07		3.555783e+09
1.274149e+07		-1.183463e+07		-1.222131e+08
3.555783e+09		-1.222131e+08		-2.171608e+09
-5.546558e+06		2.410893e+07		3.847357e+09
2.410893e+07		-6.804224e+06		-2.209690e+08
3.847357e+09		-2.209690e+08		-2.162028e+09
-3.791532e+06		1.463355e+07		4.468174e+09
1.463355e+07		-4.737139e+06		-1.424316e+08
4.468174e+09		-1.424316e+08		-2.151040e+09
2.564557e+06		4.949024e+06		5.476551e+09
4.949024e+06		-1.591256e+06		-4.582433e+07
5.476551e+09		-4.582433e+07		-2.137460e+09
4.135624e+06		-3.014104e+06		3.196230e+09
-3.014104e+06		1.841482e+06		9.027185e+07
3.196230e+09		9.027185e+07		-3.210361e+09
-1.326015e+06		-1.292245e+07		2.119025e+09
-1.292245e+07		-1.104840e+07		5.064867e+08
2.119025e+09		5.064867e+08		-3.244205e+09
-1.706813e+06		1.307090e-04		1.903731e+09
1.307090e-04		-2.409487e+07		-1.520333e-04
1.903731e+09		-1.520333e-04		-3.259261e+09
-1.326015e+06		1.292245e+07		2.119025e+09
1.292245e+07		-1.104840e+07		-5.064867e+08
2.119025e+09		-5.064867e+08		-3.244205e+09
4.135624e+06		3.014104e+06		3.196230e+09
3.014104e+06		1.841482e+06		-9.027185e+07
3.196230e+09		-9.027185e+07		-3.210361e+09
-9.719567e+05		1.238761e+06		6.878989e+08
1.238761e+06		5.326810e+05		4.656826e+08
6.878989e+08		4.656826e+08		-4.299144e+09
-3.481093e+06		1.494980e+06		2.675279e+08
1.494980e+06		-8.491619e+06		7.996895e+08
2.675279e+08		7.996895e+08		-4.317858e+09
3.768485e+05		-4.223123e+05		2.666801e+08
-4.223123e+05		-1.733417e+07		1.003151e+09
2.666801e+08		1.003151e+09		-4.328019e+09
-7.101279e+05		8.415794e+04		1.923505e+08
8.415794e+04		-3.197978e+07		4.715776e+08
1.923505e+08		4.715776e+08		-4.339426e+09
1.061631e+06		1.194392e-04		2.455327e+08
1.194392e-04		-3.807402e+07		-1.929328e-04
2.455327e+08		-1.929328e-04		-4.340440e+09
-7.101279e+05		-8.415794e+04		1.923505e+08
-8.415794e+04		-3.197978e+07		-4.715776e+08
1.923505e+08		-4.715776e+08		-4.339426e+09
3.768485e+05		4.223123e+05		2.666801e+08
4.223123e+05		-1.733417e+07		-1.003151e+09
2.666801e+08		-1.003151e+09		-4.328019e+09
-3.481093e+06		-1.494980e+06		2.675279e+08
-1.494980e+06		-8.491619e+06		-7.996895e+08
2.675279e+08		-7.996895e+08		-4.317858e+09
-9.719567e+05		-1.238761e+06		6.878989e+08
-1.238761e+06		5.326810e+05		-4.656826e+08
6.878989e+08		-4.656826e+08		-4.299144e+09
-1.266734e+06		7.826440e+05		5.158873e+08
7.826440e+05		-1.912895e+06		-4.621455e+08
5.158873e+08		-4.621455e+08		2.147672e+09
-2.994333e+05		-1.573975e+05		9.438658e+07
-1.573975e+05		7.651338e+06		-1.002405e+09
9.438658e+07		-1.002405e+09		2.163842e+09
2.718478e+05		-8.983232e-05		7.407673e+07
-8.983232e-05		1.817627e+07		2.998635e-04
7.407673e+07		2.998635e-04		2.170978e+09
-2.994333e+05		1.573975e+05		9.438658e+07
1.573975e+05		7.651338e+06		1.002405e+09
9.438658e+07		1.002405e+09		2.163842e+09
-1.266734e+06		-7.826440e+05		5.158873e+08
-7.826440e+05		-1.912895e+06		4.621455e+08
5.158873e+08		4.621455e+08		2.147672e+09
-2.619165e+06		-1.572183e+06		5.310177e+09
-1.572183e+06		-5.390905e+05		-4.280814e+07
5.310177e+09		-4.280814e+07		1.067296e+09
2.531184e+06		-1.122087e+07		3.671708e+09
-1.122087e+07		2.801417e+06		-2.172467e+08
3.671708e+09		-2.172467e+08		1.080722e+09
3.206891e+06		1.105597e-04		3.267221e+09
1.105597e-04		6.185733e+06		1.490954e-04
3.267221e+09		1.490954e-04		1.086920e+09
2.531184e+06		1.122087e+07		3.671708e+09
1.122087e+07		2.801417e+06		2.172467e+08
3.671708e+09		2.172467e+08		1.080722e+09
-2.619165e+06		1.572183e+06		5.310177e+09
1.572183e+06		-5.390905e+05		4.280814e+07
5.310177e+09		4.280814e+07		1.067296e+09
9.097275e-05		-2.496917e+06		6.641030e+09
-2.496917e+06		2.361188e-05		4.556519e-05
6.641030e+09		4.556519e-05		-1.086693e-04
-2.215489e-04		-1.634678e+07		4.945315e+09
-1.634678e+07		5.237781e-05		-6.104813e-05
4.945315e+09		-6.104813e-05		-8.428656e-05
2.641510e-05		1.139882e-04		4.435443e+09
1.139882e-04		1.361764e-04		1.427386e-05
4.435443e+09		1.427386e-05		7.128180e-05
3.866951e-05		1.634678e+07		4.945315e+09
1.634678e+07		5.298007e-05		5.778713e-05
4.945315e+09		5.778713e-05		2.109512e-04
7.733470e-06		2.496917e+06		6.641030e+09
2.496917e+06		1.729194e-04		9.501915e-05
6.641030e+09		9.501915e-05		4.659127e-04
2.619165e+06		-1.572183e+06		5.310177e+09
-1.572183e+06		5.390905e+05		4.280814e+07
5.310177e+09		4.280814e+07		-1.067296e+09
-2.531184e+06		-1.122087e+07		3.671708e+09
-1.122087e+07		-2.801417e+06		2.172467e+08
3.671708e+09		2.172467e+08		-1.080722e+09
-3.206891e+06		1.758656e-04		3.267221e+09
1.758656e-04		-6.185733e+06		-9.109266e-05
3.267221e+09		-9.109266e-05		-1.086920e+09
-2.531184e+06		1.122087e+07		3.671708e+09
1.122087e+07		-2.801417e+06		-2.172467e+08
3.671708e+09		-2.172467e+08		-1.080722e+09
2.619165e+06		1.572183e+06		5.310177e+09
1.572183e+06		5.390905e+05		-4.280814e+07
5.310177e+09		-4.280814e+07		-1.067296e+09
1.266734e+06		7.826440e+05		5.158873e+08
7.826440e+05		1.912895e+06		4.621455e+08
5.158873e+08		4.621455e+08		-2.147672e+09
2.994333e+05		-1.573975e+05		9.438658e+07
-1.573975e+05		-7.651338e+06		1.002405e+09
9.438658e+07		1.002405e+09		-2.163842e+09
-2.718478e+05		-8.493749e-06		7.407673e+07
-8.493749e-06		-1.817627e+07		-9.355694e-05
7.407673e+07		-9.355694e-05		-2.170978e+09
2.994333e+05		1.573975e+05		9.438658e+07
1.573975e+05		-7.651338e+06		-1.002405e+09
9.438658e+07		-1.002405e+09		-2.163842e+09
1.266734e+06		-7.826440e+05		5.158873e+08
-7.826440e+05		1.912895e+06		-4.621455e+08
5.158873e+08		-4.621455e+08		-2.147672e+09
4.797103e-04		5.954839e-05		6.893685e+08
5.954839e-05		3.191195e-04		-4.654792e+08
6.893685e+08		-4.654792e+08		-4.774220e-04
-6.772391e-05		6.212121e-05		2.677521e+08
6.212121e-05		8.128863e-05		-8.016162e+08
2.677521e+08		-8.016162e+08		-6.596446e-04
-8.579954e-04		1.301932e-04		2.663214e+08
1.301932e-04		-3.612479e-04		-1.006499e+09
2.663214e+08		-1.006499e+09		-1.061087e-03
-5.846526e-04		-1.681881e-05		1.907148e+08
-1.681881e-05		-4.613753e-04		-4.737877e+08
1.907148e+08		-4.737877e+08		-9.779222e-04
3.607152e-05		-7.911703e-05		2.451085e+08
-7.911703e-05		-1.845108e-04		2.680048e-04
2.451085e+08		2.680048e-04		-7.940251e-04
-1.966683e-04		5.166011e-05		1.907148e+08
5.166011e-05		1.140451e-04		4.737877e+08
1.907148e+08		4.737877e+08		-7.028244e-04
-9.806924e-04		-6.268714e-05		2.663214e+08
-6.268714e-05		6.099883e-05		1.006499e+09
2.663214e+08		1.006499e+09		-8.235108e-04
-4.449720e-04		-1.573799e-04		2.677521e+08
-1.573799e-04		1.318743e-04		8.016162e+08
2.677521e+08		8.016162e+08		-7.121637e-04
-5.009351e-04		2.013387e-04		6.893685e+08
2.013387e-04		-8.382462e-05		4.654792e+08
6.893685e+08		4.654792e+08		-6.546229e-04
-4.496248e-04		-1.942490e-04		3.204872e+09
-1.942490e-04		-2.101399e-04		-8.821076e+07
3.204872e+09		-8.821076e+07		-7.906575e-04
-9.915791e-06		9.411797e-05		2.116155e+09
9.411797e-05		2.668053e-05		-5.043506e+08
2.116155e+09		-5.043506e+08		-3.707521e-04
-4.004186e-04		5.969920e-05		1.895027e+09
5.969920e-05		-2.095397e-04		1.094565e-04
1.895027e+09		1.094565e-04		-7.551573e-04
-4.079167e-04		1.036186e-04		2.116155e+09
1.036186e-04		1.120069e-04		5.043506e+08
2.116155e+09		5.043506e+08		-3.753202e-04
-6.500441e-04		2.556977e-04		3.204872e+09
2.556977e-04		-1.062602e-04		8.821076e+07
3.204872e+09		8.821076e+07		-1.660436e-04
-3.280919e-04		3.710573e-05		5.493093e+09
3.710573e-05		3.104028e-05		-4.439345e+07
5.493093e+09		-4.439345e+07		-5.315421e-04
-9.474228e-05		1.910502e-04		4.476078e+09
1.910502e-04		1.139533e-04		-1.391625e+08
4.476078e+09		-1.391625e+08		-3.397847e-04
7.644459e-05		7.456105e-05		3.845065e+09
7.456105e-05		1.172946e-04		-2.170465e+08
3.845065e+09		-2.170465e+08		-1.356159e-04
-3.290238e-04		1.690515e-04		3.545974e+09
1.690515e-04		-5.090632e-05		-1.203115e+08
3.545974e+09		-1.203115e+08		-2.865703e-04
-5.463096e-04		2.355793e-04		3.434636e+09
2.355793e-04		-5.690020e-05		1.277644e-04
3.434636e+09		1.277644e-04		-3.691856e-04
-1.893241e-04		7.762185e-05		3.545974e+09
7.762185e-05		5.166256e-05		1.203115e+08
3.545974e+09		1.203115e+08		-2.820659e-04
-1.185625e-04		7.474719e-05		3.845065e+09
7.474719e-05		5.214859e-05		2.170465e+08
3.845065e+09		2.170465e+08		-2.482408e-04
-3.499729e-04		8.993364e-05		4.476078e+09
8.993364e-05		1.977652e-05		1.391625e+08
4.476078e+09		1.391625e+08		-4.558079e-05
-6.361171e-04		-1.281204e-04		5.493093e+09
-1.281204e-04		-2.827274e-05		4.439345e+07
5.493093e+09		4.439345e+07		1.955987e-04
4.918881e-04		-7.747908e-05		6.195305e+09
-7.747908e-05		3.678622e-04		-2.551693e+06
6.195305e+09		-2.551693e+06		2.879184e-05
-4.274729e-04		1.605743e-04		4.573343e+09
1.605743e-04		-4.847476e-05		-9.169743e+07
4.573343e+09		-9.169743e+07		-2.585729e-04
-3.823445e-04		2.344783e-04		4.116347e+09
2.344783e-04		6.344600e-05		5.053566e-05
4.116347e+09		5.053566e-05		-1.172479e-04
-1.130406e-04		5.488425e-05		4.573343e+09
5.488425e-05		-1.664914e-06		9.169743e+07
4.573343e+09		9.169743e+07		2.615200e-05
-2.452834e-04		-2.094110e-04		6.195305e+09
-2.094110e-04		7.612049e-05		2.551693e+06
6.195305e+09		2.551693e+06		3.364580e-04
8.083816e-05		-1.313031e-04		6.828817e+09
-1.313031e-04		1.476779e-04		9.308127e-05
6.828817e+09		9.308127e-05		1.953822e-05
-1.797001e-04		7.851408e-05		5.800243e+09
7.851408e-05		1.621055e-05		4.272792e-06
5.800243e+09		4.272792e-06		-2.039773e-04
-1.875180e-05		4.371909e-04		5.123141e+09
4.371909e-04		7.512529e-05		-4.646964e-05
5.123141e+09		-4.646964e-05		-1.998314e-04
3.454887e-05		1.856893e-04		4.741103e+09
1.856893e-04		1.405522e-04		-3.713586e-05
4.741103e+09		-3.713586e-05		-4.290510e-05
2.863755e-05		1.645548e-04		4.606529e+09
1.645548e-04		2.380650e-04		-1.817105e-05
4.606529e+09		-1.817105e-05		1.602208e-04
1.029385e-05		2.219047e-04		4.741103e+09
2.219047e-04		1.460895e-04		4.578126e-05
4.741103e+09		4.578126e-05		2.219565e-04
1.017080e-05		4.826721e-05		5.123141e+09
4.826721e-05		7.449564e-05		-1.776625e-05
5.123141e+09		-1.776625e-05		3.549295e-04
-4.828093e-05		2.484825e-05		5.800243e+09
2.484825e-05		1.289959e-04		2.229635e-05
5.800243e+09		2.229635e-05		3.456138e-04
-4.812062e-05		-2.541271e-04		6.828817e+09
-2.541271e-04		2.163320e-04		1.268378e-04
6.828817e+09		1.268378e-04		4.210640e-04
3.482657e-05		-1.601248e-04		6.195305e+09
-1.601248e-04		2.278155e-05		2.551693e+06
6.195305e+09		2.551693e+06		-4.457869e-05
2.170218e-04		2.159529e-04		4.573343e+09
2.159529e-04		1.934650e-04		9.169743e+07
4.573343e+09		9.169743e+07		2.717301e-04
1.377811e-04		2.060193e-04		4.116347e+09
2.060193e-04		2.340473e-04		-1.606694e-05
4.116347e+09		-1.606694e-05		1.987023e-04
8.021184e-05		-5.927988e-05		4.573343e+09
-5.927988e-05		1.108728e-04		-9.169743e+07
4.573343e+09		-9.169743e+07		4.731491e-04
8.913479e-05		-6.109374e-06		6.195305e+09
-6.109374e-06		2.372682e-04		-2.551693e+06
6.195305e+09		-2.551693e+06		5.255118e-04
2.558555e-04		-1.963802e-04		5.493093e+09
-1.963802e-04		1.598854e-04		4.439345e+07
5.493093e+09		4.439345e+07		1.918469e-04
9.159045e-05		5.259763e-05		4.476078e+09
5.259763e-05		1.284007e-04		1.391625e+08
4.476078e+09		1.391625e+08		3.386904e-04
-4.198713e-04		1.506390e-04		3.845065e+09
1.506390e-04		-3.768352e-05		2.170465e+08
3.845065e+09		2.170465e+08		3.408585e-04
-3.153490e-04		8.474156e-05		3.545974e+09
8.474156e-05		-4.427438e-05		1.203115e+08
3.545974e+09		1.203115e+08		2.712868e-04
-4.506408e-04		2.619471e-04		3.434636e+09
2.619471e-04		-4.523678e-05		-4.965160e-05
3.434636e+09		-4.965160e-05		6.994233e-05
-2.544939e-04		2.034795e-04		3.545974e+09
2.034795e-04		1.878012e-05		-1.203115e+08
3.545974e+09		-1.203115e+08		2.602264e-04
3.283296e-05		1.946034e-04		3.845065e+09
1.946034e-04		7.684028e-05		-2.170465e+08
3.845065e+09		-2.170465e+08		4.682345e-04
1.351098e-04		-7.035990e-05		4.476078e+09
-7.035990e-05		2.386381e-04		-1.391625e+08
4.476078e+09		-1.391625e+08		5.825441e-04
1.611541e-04		2.349326e-05		5.493093e+09
2.349326e-05		2.772273e-04		-4.439345e+07
5.493093e+09		-4.439345e+07		6.681941e-04
-2.285880e-04		-9.088533e-05		3.204872e+09
-9.088533e-05		-2.645189e-05		8.821076e+07
3.204872e+09		8.821076e+07		2.443530e-04
-4.527904e-04		8.326574e-05		2.116155e+09
8.326574e-05		-1.918075e-04		5.043506e+08
2.116155e+09		5.043506e+08		2.644956e-04
-4.147957e-04		1.682219e-04		1.895027e+09
1.682219e-04		-4.485948e-05		2.966356e-05
1.895027e+09		2.966356e-05		2.484061e-04
2.450850e-04		2.269630e-04		2.116155e+09
2.269630e-04		1.286797e-04		-5.043506e+08
2.116155e+09		-5.043506e+08		7.317699e-04
-6.768508e-04		-1.329079e-04		3.204872e+09
-1.329079e-04		-2.247221e-04		-8.821076e+07
3.204872e+09		-8.821076e+07		3.281534e-04
-6.968193e-04		3.163152e-04		6.893685e+08
3.163152e-04		-3.293715e-05		4.654792e+08
6.893685e+08		4.654792e+08		3.141798e-04
3.189351e-04		-2.081378e-04		2.677521e+08
-2.081378e-04		2.555819e-04		8.016162e+08
2.677521e+08		8.016162e+08		7.191151e-04
2.382617e-04		-9.329355e-06		2.663214e+08
-9.329355e-06		9.203376e-05		1.006499e+09
2.663214e+08		1.006499e+09		7.139128e-04
5.322425e-04		1.117234e-04		1.907148e+08
1.117234e-04		2.542911e-04		4.737877e+08
1.907148e+08		4.737877e+08		7.255971e-04
6.235298e-05		-1.770230e-04		2.451085e+08
-1.770230e-04		7.649930e-05		5.336851e-05
2.451085e+08		5.336851e-05		5.376022e-04
3.441479e-04		4.186458e-04		1.907148e+08
4.186458e-04		3.041504e-04		-4.737877e+08
1.907148e+08		-4.737877e+08		9.274632e-04
7.942291e-04		1.757707e-04		2.663214e+08
1.757707e-04		6.056358e-04		-1.006499e+09
2.663214e+08		-1.006499e+09		1.310242e-03
5.343342e-04		-1.829409e-04		2.677521e+08
-1.829409e-04		6.415537e-04		-8.016162e+08
2.677521e+08		-8.016162e+08		1.222312e-03
-5.035214e-04		-3.216896e-04		6.893685e+08
-3.216896e-04		2.615731e-04		-4.654792e+08
6.893685e+08		-4.654792e+08		6.274283e-04
1.266734e+06		-7.826440e+05		5.158873e+08
-7.826440e+05		1.912895e+06		-4.621455e+08
5.158873e+08		-4.621455e+08		-2.147672e+09
2.994333e+05		1.573975e+05		9.438658e+07
1.573975e+05		-7.651338e+06		-1.002405e+09
9.438658e+07		-1.002405e+09		-2.163842e+09
-2.718478e+05		4.981871e-05		7.407673e+07
4.981871e-05		-1.817627e+07		2.071708e-04
7.407673e+07		2.071708e-04		-2.170978e+09
2.994333e+05		-1.573975e+05		9.438658e+07
-1.573975e+05		-7.651338e+06		1.002405e+09
9.438658e+07		1.002405e+09		-2.163842e+09
1.266734e+06		7.826440e+05		5.158873e+08
7.826440e+05		1.912895e+06		4.621455e+08
5.158873e+08		4.621455e+08		-2.147672e+09
2.619165e+06		1.572183e+06		5.310177e+09
1.572183e+06		5.390905e+05		-4.280814e+07
5.310177e+09		-4.280814e+07		-1.067296e+09
-2.531184e+06		1.122087e+07		3.671708e+09
1.122087e+07		-2.801417e+06		-2.172467e+08
3.671708e+09		-2.172467e+08		-1.080722e+09
-3.206891e+06		3.183844e-04		3.267221e+09
3.183844e-04		-6.185733e+06		-8.014962e-06
3.267221e+09		-8.014962e-06		-1.086920e+09
-2.531184e+06		-1.122087e+07		3.671708e+09
-1.122087e+07		-2.801417e+06		2.172467e+08
3.671708e+09		2.172467e+08		-1.080722e+09
2.619165e+06		-1.572183e+06		5.310177e+09
-1.572183e+06		5.390905e+05		4.280814e+07
5.310177e+09		4.280814e+07		-1.067296e+09
-2.976309e-05		2.496917e+06		6.641030e+09
2.496917e+06		4.465698e-05		3.825256e-05
6.641030e+09		3.825256e-05		4.006736e-05
-8.447250e-05		1.634678e+07		4.945315e+09
1.634678e+07		1.377577e-04		-4.470271e-05
4.945315e+09		-4.470271e-05		-4.428439e-05
1.389315e-05		3.772537e-05		4.435443e+09
3.772537e-05		2.199077e-04		2.890742e-05
4.435443e+09		2.890742e-05		2.469886e-04
-1.408064e-04		-1.634678e+07		4.945315e+09
-1.634678e+07		6.196852e-05		-8.997023e-06
4.945315e+09		-8.997023e-06		2.361983e-04
4.022021e-05		-2.496917e+06		6.641030e+09
-2.496917e+06		2.333625e-04		7.257985e-05
6.641030e+09		7.257985e-05		4.467443e-04
-2.619165e+06		1.572183e+06		5.310177e+09
1.572183e+06		-5.390905e+05		4.280814e+07
5.310177e+09		4.280814e+07		1.067296e+09
2.531184e+06		1.122087e+07		3.671708e+09
1.122087e+07		2.801417e+06		2.172467e+08
3.671708e+09		2.172467e+08		1.080722e+09
3.206891e+06		1.731934e-05		3.267221e+09
1.731934e-05		6.185733e+06		-1.834147e-05
3.267221e+09		-1.834147e-05		1.086920e+09
2.531184e+06		-1.122087e+07		3.671708e+09
-1.122087e+07		2.801417e+06		-2.172467e+08
3.671708e+09		-2.172467e+08		1.080722e+09
-2.619165e+06		-1.572183e+06		5.310177e+09
-1.572183e+06		-5.390905e+05		-4.280814e+07
5.310177e+09		-4.280814e+07		1.067296e+09
-1.266734e+06		-7.826440e+05		5.158873e+08
-7.826440e+05		-1.912895e+06		4.621455e+08
5.158873e+08		4.621455e+08		2.147672e+09
-2.994333e+05		1.573975e+05		9.438658e+07
1.573975e+05		7.651338e+06		1.002405e+09
9.438658e+07		1.002405e+09		2.163842e+09
2.718478e+05		-1.292667e-05		7.407673e+07
-1.292667e-05		1.817627e+07		1.069382e-04
7.407673e+07		1.069382e-04		2.170978e+09
-2.994333e+05		-1.573975e+05		9.438658e+07
-1.573975e+05		7.651338e+06		-1.002405e+09
9.438658e+07		-1.002405e+09		2.163842e+09
-1.266734e+06		7.826440e+05		5.158873e+08
7.826440e+05		-1.912895e+06		-4.621455e+08
5.158873e+08		-4.621455e+08		2.147672e+09
-9.719567e+05		-1.238761e+06		6.878989e+08
-1.238761e+06		5.326810e+05		-4.656826e+08
6.878989e+08		-4.656826e+08		-4.299144e+09
-3.481093e+06		-1.494980e+06		2.675279e+08
-1.494980e+06		-8.491619e+06		-7.996895e+08
2.675279e+08		-7.996895e+08		-4.317858e+09
3.768485e+05		4.223123e+05		2.666801e+08
4.223123e+05		-1.733417e+07		-1.003151e+09
2.666801e+08		-1.003151e+09		-4.328019e+09
-7.101279e+05		-8.415794e+04		1.923505e+08
-8.415794e+04		-3.197978e+07		-4.715776e+08
1.923505e+08		-4.715776e+08		-4.339426e+09
1.061631e+06		-1.480801e-04		2.455327e+08
-1.480801e-04		-3.807402e+07		2.921373e-05
2.455327e+08		2.921373e-05		-4.340440e+09
-7.101279e+05		8.415794e+04		1.923505e+08
8.415794e+04		-3.197978e+07		4.715776e+08
1.923505e+08		4.715776e+08		-4.339426e+09
3.768485e+05		-4.223123e+05		2.666801e+08
-4.223123e+05		-1.733417e+07		1.003151e+09
2.666801e+08		1.003151e+09		-4.328019e+09
-3.481093e+06		1.494980e+06		2.675279e+08
1.494980e+06		-8.491619e+06		7.996895e+08
2.675279e+08		7.996895e+08		-4.317858e+09
-9.719567e+05		1.238761e+06		6.878989e+08
1.238761e+06		5.326810e+05		4.656826e+08
6.878989e+08		4.656826e+08		-4.299144e+09
4.135624e+06		3.014104e+06		3.196230e+09
3.014104e+06		1.841482e+06		-9.027185e+07
3.196230e+09		-9.027185e+07		-3.210361e+09
-1.326015e+06		1.292245e+07		2.119025e+09
1.292245e+07		-1.104840e+07		-5.064867e+08
2.119025e+09		-5.064867e+08		-3.244205e+09
-1.706813e+06		1.057725e-04		1.903731e+09
1.057725e-04		-2.409487e+07		-4.678266e-05
1.903731e+09		-4.678266e-05		-3.259261e+09
-1.326015e+06		-1.292245e+07		2.119025e+09
-1.292245e+07		-1.104840e+07		5.064867e+08
2.119025e+09		5.064867e+08		-3.244205e+09
4.135624e+06		-3.014104e+06		3.196230e+09
-3.014104e+06		1.841482e+06		9.027185e+07
3.196230e+09		9.027185e+07		-3.210361e+09
2.564557e+06		4.949024e+06		5.476551e+09
4.949024e+06		-1.591256e+06		-4.582433e+07
5.476551e+09		-4.582433e+07		-2.137460e+09
-3.791532e+06		1.463355e+07		4.468174e+09
1.463355e+07		-4.737139e+06		-1.424316e+08
4.468174e+09		-1.424316e+08		-2.151040e+09
-5.546558e+06		2.410893e+07		3.847357e+09
2.410893e+07		-6.804224e+06		-2.209690e+08
3.847357e+09		-2.209690e+08		-2.162028e+09
-6.424309e+06		1.274149e+07		3.555783e+09
1.274149e+07		-1.183463e+07		-1.222131e+08
3.555783e+09		-1.222131e+08		-2.171608e+09
-5.088039e+06		2.809668e-04		3.447560e+09
2.809668e-04		-1.231022e+07		-1.115631e-04
3.447560e+09		-1.115631e-04		-2.172421e+09
-6.424309e+06		-1.274149e+07		3.555783e+09
-1.274149e+07		-1.183463e+07		1.222131e+08
3.555783e+09		1.222131e+08		-2.171608e+09
-5.546558e+06		-2.410893e+07		3.847357e+09
-2.410893e+07		-6.804224e+06		2.209690e+08
3.847357e+09		2.209690e+08		-2.162028e+09
-3.791532e+06		-1.463355e+07		4.468174e+09
-1.463355e+07		-4.737139e+06		1.424316e+08
4.468174e+09		1.424316e+08		-2.151040e+09
2.564557e+06		-4.949024e+06		5.476551e+09
-4.949024e+06		-1.591256e+06		4.582433e+07
5.476551e+09		4.582433e+07		-2.137460e+09
3.887376e+06		6.315954e+06		6.175263e+09
6.315954e+06		1.374188e+06		-3.509904e+06
6.175263e+09		-3.509904e+06		-1.064693e+09
-2.387780e+06		3.017344e+07		4.573542e+09
3.017344e+07		-1.998160e+06		-9.423663e+07
4.573542e+09		-9.423663e+07		-1.078843e+09
-3.026481e+06		2.006426e-04		4.128730e+09
2.006426e-04		-4.893115e+06		-3.380654e-05
4.128730e+09		-3.380654e-05		-1.085244e+09
-2.387780e+06		-3.017344e+07		4.573542e+09
-3.017344e+07		-1.998160e+06		9.423663e+07
4.573542e+09		9.423663e+07		-1.078843e+09
3.887376e+06		-6.315954e+06		6.175263e+09
-6.315954e+06		1.374188e+06		3.509904e+06
6.175263e+09		3.509904e+06		-1.064693e+09
-2.974805e-04		7.067373e+06		6.805332e+09
7.067373e+06		-2.073215e-04		-1.343683e-04
6.805332e+09		-1.343683e-04		-1.325756e-04
-1.585669e-04		2.231742e+07		5.786004e+09
2.231742e+07		5.239621e-06		-4.816416e-05
5.786004e+09		-4.816416e-05		-3.289990e-05
-1.178193e-04		3.504139e+07		5.120955e+09
3.504139e+07		1.799387e-04		-8.418523e-06
5.120955e+09		-8.418523e-06		6.355532e-05
-1.691070e-04		1.857610e+07		4.748396e+09
1.857610e+07		1.031027e-04		6.410742e-05
4.748396e+09		6.410742e-05		9.667315e-05
9.306468e-05		4.967535e-05		4.617334e+09
4.967535e-05		2.086927e-04		7.519303e-05
4.617334e+09		7.519303e-05		2.750964e-04
-2.096547e-04		-1.857610e+07		4.748396e+09
-1.857610e+07		9.408342e-05		3.724737e-05
4.748396e+09		3.724737e-05		1.922827e-04
2.262935e-05		-3.504139e+07		5.120955e+09
-3.504139e+07		2.158195e-04		3.500996e-05
5.120955e+09		3.500996e-05		3.237505e-04
-1.134195e-04		-2.231742e+07		5.786004e+09
-2.231742e+07		1.885994e-04		4.669863e-05
5.786004e+09		4.669863e-05		3.527161e-04
2.435931e-04		-7.067373e+06		6.805332e+09
-7.067373e+06		3.558936e-04		1.374533e-04
6.805332e+09		1.374533e-04		6.113574e-04
-3.887376e+06		6.315954e+06		6.175263e+09
6.315954e+06		-1.374188e+06		3.509904e+06
6.175263e+09		3.509904e+06		1.064693e+09
2.387780e+06		3.017344e+07		4.573542e+09
3.017344e+07		1.998160e+06		9.423663e+07
4.573542e+09		9.423663e+07		1.078843e+09
3.026481e+06		4.155538e-05		4.128730e+09
4.155538e-05		4.893115e+06		5.851733e-05
4.128730e+09		5.851733e-05		1.085244e+09
2.387780e+06		-3.017344e+07		4.573542e+09
-3.017344e+07		1.998160e+06		-9.423663e+07
4.573542e+09		-9.423663e+07		1.078843e+09
-3.887376e+06		-6.315954e+06		6.175263e+09
-6.315954e+06		-1.374188e+06		-3.509904e+06
6.175263e+09		-3.509904e+06		1.064693e+09
-2.564557e+06		4.949024e+06		5.476551e+09
4.949024e+06		1.591256e+06		4.582433e+07
5.476551e+09		4.582433e+07		2.137460e+09
3.791532e+06		1.463355e+07		4.468174e+09
1.463355e+07		4.737139e+06		1.424316e+08
4.468174e+09		1.424316e+08		2.151040e+09
5.546558e+06		2.410893e+07		3.847357e+09
2.410893e+07		6.804224e+06		2.209690e+08
3.847357e+09		2.209690e+08		2.162028e+09
6.424309e+06		1.274149e+07		3.555783e+09
1.274149e+07		1.183463e+07		1.222131e+08
3.555783e+09		1.222131e+08		2.171608e+09
5.088039e+06		3.351650e-05		3.447560e+09
3.351650e-05		1.231022e+07		1.296494e-05
3.447560e+09		1.296494e-05		2.172421e+09
6.424309e+06		-1.274149e+07		3.555783e+09
-1.274149e+07		1.183463e+07		-1.222131e+08
3.555783e+09		-1.222131e+08		2.171608e+09
5.546558e+06		-2.410893e+07		3.847357e+09
-2.410893e+07		6.804224e+06		-2.209690e+08
3.847357e+09		-2.209690e+08		2.162028e+09
3.791532e+06		-1.463355e+07		4.468174e+09
-1.463355e+07		4.737139e+06		-1.424316e+08
4.468174e+09		-1.424316e+08		2.151040e+09
-2.564557e+06		-4.949024e+06		5.476551e+09
-4.949024e+06		1.591256e+06		-4.582433e+07
5.476551e+09		-4.582433e+07		2.137460e+09
-4.135624e+06		3.014104e+06		3.196230e+09
3.014104e+06		-1.841482e+06		9.027185e+07
3.196230e+09		9.027185e+07		3.210361e+09
1.326015e+06		1.292245e+07		2.119025e+09
1.292245e+07		1.104840e+07		5.064867e+08
2.119025e+09		5.064867e+08		3.244205e+09
1.706813e+06		4.902319e-05		1.903731e+09
4.902319e-05		2.409487e+07		-5.198456e-05
1.903731e+09		-5.198456e-05		3.259261e+09
1.326015e+06		-1.292245e+07		2.119025e+09
-1.292245e+07		1.104840e+07		-5.064867e+08
2.119025e+09		-5.064867e+08		3.244205e+09
-4.135624e+06		-3.014104e+06		3.196230e+09
-3.014104e+06		-1.841482e+06		-9.027185e+07
3.196230e+09		-9.027185e+07		3.210361e+09
9.719567e+05		-1.238761e+06		6.878989e+08
-1.238761e+06		-5.326810e+05		4.656826e+08
6.878989e+08		4.656826e+08		4.299144e+09
3.481093e+06		-1.494980e+06		2.675279e+08
-1.494980e+06		8.491619e+06		7.996895e+08
2.675279e+08		7.996895e+08		4.317858e+09
-3.768485e+05		4.223123e+05		2.666801e+08
4.223123e+05		1.733417e+07		1.003151e+09
2.666801e+08		1.003151e+09		4.328019e+09
7.101279e+05		-8.415794e+04		1.923505e+08
-8.415794e+04		3.197978e+07		4.715776e+08
1.923505e+08		4.715776e+08		4.339426e+09
-1.061631e+06		5.455327e-05		2.455327e+08
5.455327e-05		3.807402e+07		7.837266e-05
2.455327e+08		7.837266e-05		4.340440e+09
7.101279e+05		8.415794e+04		1.923505e+08
8.415794e+04		3.197978e+07		-4.715776e+08
1.923505e+08		-4.715776e+08		4.339426e+09
-3.768485e+05		-4.223123e+05		2.666801e+08
-4.223123e+05		1.733417e+07		-1.003151e+09
2.666801e+08		-1.003151e+09		4.328019e+09
3.481093e+06		1.494980e+06		2.675279e+08
1.494980e+06		8.491619e+06		-7.996895e+08
2.675279e+08		-7.996895e+08		4.317858e+09
9.719567e+05		1.238761e+06		6.878989e+08
1.238761e+06		-5.326810e+05		-4.656826e+08
6.878989e+08		-4.656826e+08		4.299144e+09
5.942070e+06		-2.272094e+06		5.118928e+08
-2.272094e+06		9.505995e+06		-4.578715e+08
5.118928e+08		-4.578715e+08		-6.427334e+09
2.779981e+06		1.030805e+06		9.475390e+07
1.030805e+06		-3.233193e+07		-9.916275e+08
9.475390e+07		-9.916275e+08		-6.498632e+09
1.736485e+06		-1.175521e-04		7.466839e+07
-1.175521e-04		-7.235177e+07		-1.783296e-04
7.466839e+07		-1.783296e-04		-6.529151e+09
2.779981e+06		-1.030805e+06		9.475390e+07
-1.030805e+06		-3.233193e+07		9.916275e+08
9.475390e+07		9.916275e+08		-6.498632e+09
5.942070e+06		2.272094e+06		5.118928e+08
2.272094e+06		9.505995e+06		4.578715e+08
5.118928e+08		4.578715e+08		-6.427334e+09
1.058666e+07		6.396750e+06		5.267778e+09
6.396750e+06		2.471304e+06		-4.352936e+07
5.267778e+09		-4.352936e+07		-3.183246e+09
-7.594083e+06		4.505702e+07		3.676959e+09
4.505702e+07		-1.088382e+07		-2.246382e+08
3.676959e+09		-2.246382e+08		-3.240548e+09
-9.623397e+06		2.435189e-04		3.298032e+09
2.435189e-04		-2.428178e+07		-4.338473e-05
3.298032e+09		-4.338473e-05		-3.266027e+09
-7.594083e+06		-4.505702e+07		3.676959e+09
-4.505702e+07		-1.088382e+07		2.246382e+08
3.676959e+09		2.246382e+08		-3.240548e+09
1.058666e+07		-6.396750e+06		5.267778e+09
-6.396750e+06		2.471304e+06		4.352936e+07
5.267778e+09		4.352936e+07		-3.183246e+09
-9.040989e-05		9.151669e+06		6.585293e+09
9.151669e+06		-1.022747e-04		-3.194553e-06
6.585293e+09		-3.194553e-06		-2.785325e-04
-2.507381e-04		6.463734e+07		4.942038e+09
6.463734e+07		8.584931e-06		3.477988e-05
4.942038e+09		3.477988e-05		-4.592352e-05
-1.467695e-05		1.538058e-04		4.464218e+09
1.538058e-04		2.170507e-04		9.580707e-05
4.464218e+09		9.580707e-05		1.022760e-04
-5.337363e-05		-6.463734e+07		4.942038e+09
-6.463734e+07		8.413824e-05		7.595650e-05
4.942038e+09		7.595650e-05		7.540174e-05
1.151060e-04		-9.151669e+06		6.585293e+09
-9.151669e+06		3.951700e-04		1.785674e-04
6.585293e+09		1.785674e-04		4.899949e-04
-1.058666e+07		6.396750e+06		5.267778e+09
6.396750e+06		-2.471304e+06		4.352936e+07
5.267778e+09		4.352936e+07		3.183246e+09
7.594083e+06		4.505702e+07		3.676959e+09
4.505702e+07		1.088382e+07		2.246382e+08
3.676959e+09		2.246382e+08		3.240548e+09
9.623397e+06		-8.464360e-05		3.298032e+09
-8.464360e-05		2.428178e+07		1.038816e-04
3.298032e+09		1.038816e-04		3.266027e+09
7.594083e+06		-4.505702e+07		3.676959e+09
-4.505702e+07		1.088382e+07		-2.246382e+08
3.676959e+09		-2.246382e+08		3.240548e+09
-1.058666e+07		-6.396750e+06		5.267778e+09
-6.396750e+06		-2.471304e+06		-4.352936e+07
5.267778e+09		-4.352936e+07		3.183246e+09
-5.942070e+06		-2.272094e+06		5.118928e+08
-2.272094e+06		-9.505995e+06		4.578715e+08
5.118928e+08		4.578715e+08		6.427334e+09
-2.779981e+06		1.030805e+06		9.475390e+07
1.030805e+06		3.233193e+07		9.916275e+08
9.475390e+07		9.916275e+08		6.498632e+09
-1.736485e+06		7.283344e-05		7.466839e+07
7.283344e-05		7.235177e+07		1.903623e-04
7.466839e+07		1.903623e-04		6.529151e+09
-2.779981e+06		-1.030805e+06		9.475390e+07
-1.030805e+06		3.233193e+07		-9.916275e+08
9.475390e+07		-9.916275e+08		6.498632e+09
-5.942070e+06		2.272094e+06		5.118928e+08
2.272094e+06		-9.505995e+06		-4.578715e+08
5.118928e+08		-4.578715e+08		6.427334e+09
2.807688e+06		-2.254927e+06		6.837434e+08
-2.254927e+06		7.950323e+06		-4.649818e+08
6.837434e+08		-4.649818e+08		-8.565626e+09
-8.331557e+06		-4.335719e+06		2.691587e+08
-4.335719e+06		-2.762083e+07		-7.927343e+08
2.691587e+08		-7.927343e+08		-8.637240e+09
2.856361e+06		1.530589e+06		2.708663e+08
1.530589e+06		-5.834440e+07		-9.915974e+08
2.708663e+08		-9.915974e+08		-8.676152e+09
7.071274e+05		-5.966398e+05		2.012979e+08
-5.966398e+05		-9.993403e+07		-4.636149e+08
2.012979e+08		-4.636149e+08		-8.712275e+09
4.362259e+06		-4.280201e-04		2.506344e+08
-4.280201e-04		-1.199218e+08		-5.197488e-04
2.506344e+08		-5.197488e-04		-8.723913e+09
7.071274e+05		5.966398e+05		2.012979e+08
5.966398e+05		-9.993403e+07		4.636149e+08
2.012979e+08		4.636149e+08		-8.712275e+09
2.856361e+06		-1.530589e+06		2.708663e+08
-1.530589e+06		-5.834440e+07		9.915974e+08
2.708663e+08		9.915974e+08		-8.676152e+09
-8.331557e+06		4.335719e+06		2.691587e+08
4.335719e+06		-2.762083e+07		7.927343e+08
2.691587e+08		7.927343e+08		-8.637240e+09
2.807688e+06		2.254927e+06		6.837434e+08
2.254927e+06		7.950323e+06		4.649818e+08
6.837434e+08		4.649818e+08		-8.565626e+09
1.533734e+07		9.428091e+06		3.156047e+09
9.428091e+06		9.473332e+06		-9.817141e+07
3.156047e+09		-9.817141e+07		-6.374786e+09
-2.030898e+06		3.910475e+07		2.127159e+09
3.910475e+07		-3.667845e+07		-5.149230e+08
2.127159e+09		-5.149230e+08		-6.494106e+09
-3.174883e+06		2.264648e-04		1.934434e+09
2.264648e-04		-7.546438e+07		-2.071839e-04
1.934434e+09		-2.071839e-04		-6.545117e+09
-2.030898e+06		-3.910475e+07		2.127159e+09
-3.910475e+07		-3.667845e+07		5.149230e+08
2.127159e+09		5.149230e+08		-6.494106e+09
1.533734e+07		-9.428091e+06		3.156047e+09
-9.428091e+06		9.473332e+06		9.817141e+07
3.156047e+09		9.817141e+07		-6.374786e+09
1.329030e+07		1.424290e+07		5.407813e+09
1.424290e+07		-4.463937e+05		-5.050655e+07
5.407813e+09		-5.050655e+07		-4.233676e+09
-4.277746e+06		4.392829e+07		4.438263e+09
4.392829e+07		-1.150498e+07		-1.548955e+08
4.438263e+09		-1.548955e+08		-4.281111e+09
-8.608188e+06		7.175440e+07		3.857632e+09
7.175440e+07		-1.874704e+07		-2.365384e+08
3.857632e+09		-2.365384e+08		-4.319358e+09
-1.009136e+07		3.726707e+07		3.597113e+09
3.726707e+07		-3.336266e+07		-1.294340e+08
3.597113e+09		-1.294340e+08		-4.347969e+09
-7.005691e+06		1.823984e-04		3.499541e+09
1.823984e-04		-3.651969e+07		-4.468672e-05
3.499541e+09		-4.468672e-05		-4.354299e+09
-1.009136e+07		-3.726707e+07		3.597113e+09
-3.726707e+07		-3.336266e+07		1.294340e+08
3.597113e+09		1.294340e+08		-4.347969e+09
-8.608188e+06		-7.175440e+07		3.857632e+09
-7.175440e+07		-1.874704e+07		2.365384e+08
3.857632e+09		2.365384e+08		-4.319358e+09
-4.277746e+06		-4.392829e+07		4.438263e+09
-4.392829e+07		-1.150498e+07		1.548955e+08
4.438263e+09		1.548955e+08		-4.281111e+09
1.329030e+07		-1.424290e+07		5.407813e+09
-1.424290e+07		-4.463937e+05		5.050655e+07
5.407813e+09		5.050655e+07		-4.233676e+09
1.416987e+07		1.824370e+07		6.092072e+09
1.824370e+07		5.250759e+06		-7.832969e+06
6.092072e+09		-7.832969e+06		-2.104597e+09
-3.170766e+06		8.910002e+07		4.574203e+09
8.910002e+07		-5.773230e+06		-1.041519e+08
4.574203e+09		-1.041519e+08		-2.152953e+09
-4.269311e+06		2.532206e-04		4.177493e+09
2.532206e-04		-1.440759e+07		6.622681e-05
4.177493e+09		6.622681e-05		-2.173572e+09
-3.170766e+06		-8.910002e+07		4.574203e+09
-8.910002e+07		-5.773230e+06		1.041519e+08
4.574203e+09		1.041519e+08		-2.152953e+09
1.416987e+07		-1.824370e+07		6.092072e+09
-1.824370e+07		5.250759e+06		7.832969e+06
6.092072e+09		7.832969e+06		-2.104597e+09
-2.482790e-05		1.859820e+07		6.711205e+09
1.859820e+07		-9.138620e-05		1.440224e-04
6.711205e+09		1.440224e-04		-2.154317e-04
-1.453115e-04		6.456088e+07		5.732251e+09
6.456088e+07		-1.240880e-04		1.162607e-04
5.732251e+09		1.162607e-04		-1.665913e-04
-4.266186e-04		1.025557e+08		5.115464e+09
1.025557e+08		-2.141894e-04		8.633790e-05
5.115464e+09		8.633790e-05		-1.719007e-04
-2.229277e-04		5.408013e+07		4.782030e+09
5.408013e+07		5.434244e-05		2.413664e-05
4.782030e+09		2.413664e-05		-5.666539e-05
-1.730947e-04		3.165980e-04		4.664137e+09
3.165980e-04		2.478893e-04		8.353512e-06
4.664137e+09		8.353512e-06		-5.836878e-05
5.248911e-05		-5.408013e+07		4.782030e+09
-5.408013e+07		1.819609e-04		8.434826e-05
4.782030e+09		8.434826e-05		4.357472e-05
-8.956902e-05		-1.025557e+08		5.115464e+09
-1.025557e+08		-5.657633e-05		5.834505e-05
5.115464e+09		5.834505e-05		-7.036235e-05
1.367056e-04		-6.456088e+07		5.732251e+09
-6.456088e+07		1.925130e-04		7.713115e-05
5.732251e+09		7.713115e-05		1.536645e-04
3.273250e-04		-1.859820e+07		6.711205e+09
-1.859820e+07		3.902044e-04		1.074990e-04
6.711205e+09		1.074990e-04		2.942830e-04
-1.416987e+07		1.824370e+07		6.092072e+09
1.824370e+07		-5.250759e+06		7.832969e+06
6.092072e+09		7.832969e+06		2.104597e+09
3.170766e+06		8.910002e+07		4.574203e+09
8.910002e+07		5.773230e+06		1.041519e+08
4.574203e+09		1.041519e+08		2.152953e+09
4.269311e+06		1.299703e-04		4.177493e+09
1.299703e-04		1.440759e+07		4.769885e-05
4.177493e+09		4.769885e-05		2.173572e+09
3.170766e+06		-8.910002e+07		4.574203e+09
-8.910002e+07		5.773230e+06		-1.041519e+08
4.574203e+09		-1.041519e+08		2.152953e+09
-1.416987e+07		-1.824370e+07		6.092072e+09
-1.824370e+07		-5.250759e+06		-7.832969e+06
6.092072e+09		-7.832969e+06		2.104597e+09
-1.329030e+07		1.424290e+07		5.407813e+09
1.424290e+07		4.463937e+05		5.050655e+07
5.407813e+09		5.050655e+07		4.233676e+09
4.277746e+06		4.392829e+07		4.438263e+09
4.392829e+07		1.150498e+07		1.548955e+08
4.438263e+09		1.548955e+08		4.281111e+09
8.608188e+06		7.175440e+07		3.857632e+09
7.175440e+07		1.874704e+07		2.365384e+08
3.857632e+09		2.365384e+08		4.319358e+09
1.009136e+07		3.726707e+07		3.597113e+09
3.726707e+07		3.336266e+07		1.294340e+08
3.597113e+09		1.294340e+08		4.347969e+09
7.005691e+06		2.280739e-05		3.499541e+09
2.280739e-05		3.651969e+07		1.174584e-04
3.499541e+09		1.174584e-04		4.354299e+09
1.009136e+07		-3.726707e+07		3.597113e+09
-3.726707e+07		3.336266e+07		-1.294340e+08
3.597113e+09		-1.294340e+08		4.347969e+09
8.608188e+06		-7.175440e+07		3.857632e+09
-7.175440e+07		1.874704e+07		-2.365384e+08
3.857632e+09		-2.365384e+08		4.319358e+09
4.277746e+06		-4.392829e+07		4.438263e+09
-4.392829e+07		1.150498e+07		-1.548955e+08
4.438263e+09		-1.548955e+08		4.281111e+09
-1.329030e+07		-1.424290e+07		5.407813e+09
-1.424290e+07		4.463937e+05		-5.050655e+07
5.407813e+09		-5.050655e+07		4.233676e+09
-1.533734e+07		9.428091e+06		3.156047e+09
9.428091e+06		-9.473332e+06		9.817141e+07
3.156047e+09		9.817141e+07		6.374786e+09
2.030898e+06		3.910475e+07		2.127159e+09
3.910475e+07		3.667845e+07		5.149230e+08
2.127159e+09		5.149230e+08		6.494106e+09
3.174883e+06		-1.050823e-04		1.934434e+09
-1.050823e-04		7.546438e+07		1.779636e-04
1.934434e+09		1.779636e-04		6.545117e+09
2.030898e+06		-3.910475e+07		2.127159e+09
-3.910475e+07		3.667845e+07		-5.149230e+08
2.127159e+09		-5.149230e+08		6.494106e+09
-1.533734e+07		-9.428091e+06		3.156047e+09
-9.428091e+06		-9.473332e+06		-9.817141e+07
3.156047e+09		-9.817141e+07		6.374786e+09
-2.807688e+06		-2.254927e+06		6.837434e+08
-2.254927e+06		-7.950323e+06		4.649818e+08
6.837434e+08		4.649818e+08		8.565626e+09
8.331557e+06		-4.335719e+06		2.691587e+08
-4.335719e+06		2.762083e+07		7.927343e+08
2.691587e+08		7.927343e+08		8.637240e+09
-2.856361e+06		1.530589e+06		2.708663e+08
1.530589e+06		5.834440e+07		9.915974e+08
2.708663e+08		9.915974e+08		8.676152e+09
-7.071274e+05		-5.966398e+05		2.012979e+08
-5.966398e+05		9.993403e+07		4.636149e+08
2.012979e+08		4.636149e+08		8.712275e+09
-4.362259e+06		5.107699e-05		2.506344e+08
5.107699e-05		1.199218e+08		2.468415e-04
2.506344e+08		2.468415e-04		8.723913e+09
-7.071274e+05		5.966398e+05		2.012979e+08
5.966398e+05		9.993403e+07		-4.636149e+08
2.012979e+08		-4.636149e+08		8.712275e+09
-2.856361e+06		-1.530589e+06		2.708663e+08
-1.530589e+06		5.834440e+07		-9.915974e+08
2.708663e+08		-9.915974e+08		8.676152e+09
8.331557e+06		4.335719e+06		2.691587e+08
4.335719e+06		2.762083e+07		-7.927343e+08
2.691587e+08		-7.927343e+08		8.637240e+09
-2.807688e+06		2.254927e+06		6.837434e+08
2.254927e+06		-7.950323e+06		-4.649818e+08
6.837434e+08		-4.649818e+08		8.565626e+09
4.699445e+06		-6.099987e+06		5.002998e+08
-6.099987e+06		1.571229e+07		-4.395176e+08
5.002998e+08		-4.395176e+08		-1.063145e+10
-2.982974e+06		3.106127e+06		1.016132e+08
3.106127e+06		-1.016139e+08		-9.535026e+08
1.016132e+08		-9.535026e+08		-1.086140e+10
-9.814925e+06		1.560482e-04		8.238596e+07
1.560482e-04		-2.083076e+08		-5.967468e-04
8.238596e+07		-5.967468e-04		-1.096248e+10
-2.982974e+06		-3.106127e+06		1.016132e+08
-3.106127e+06		-1.016139e+08		9.535026e+08
1.016132e+08		9.535026e+08		-1.086140e+10
4.699445e+06		6.099987e+06		5.002998e+08
6.099987e+06		1.571229e+07		4.395176e+08
5.002998e+08		4.395176e+08		-1.063145e+10
3.610082e+07		2.039799e+07		5.135998e+09
2.039799e+07		1.114052e+06		-4.225264e+07
5.135998e+09		-4.225264e+07		-5.233955e+09
-8.380727e+06		1.167580e+08		3.692380e+09
1.167580e+08		-3.326914e+07		-2.410050e+08
3.692380e+09		-2.410050e+08		-5.403314e+09
-1.251495e+07		1.949996e-04		3.385918e+09
1.949996e-04		-7.063447e+07		-2.084337e-04
3.385918e+09		-2.084337e-04		-5.483201e+09
-8.380727e+06		-1.167580e+08		3.692380e+09
-1.167580e+08		-3.326914e+07		2.410050e+08
3.692380e+09		2.410050e+08		-5.403314e+09
3.610082e+07		-2.039799e+07		5.135998e+09
-2.039799e+07		1.114052e+06		4.225264e+07
5.135998e+09		4.225264e+07		-5.233955e+09
-1.337873e-04		2.640703e+07		6.434858e+09
2.640703e+07		-4.151231e-05		-7.535564e-05
6.434858e+09		-7.535564e-05		-3.086030e-05
-2.503002e-04		1.685118e+08		4.952514e+09
1.685118e+08		-1.353237e-04		6.921978e-05
4.952514e+09		6.921978e-05		-1.254603e-04
-1.648630e-04		6.586243e-05		4.569150e+09
6.586243e-05		2.238500e-04		9.182259e-07
4.569150e+09		9.182259e-07		-1.168922e-04
2.301466e-04		-1.685118e+08		4.952514e+09
-1.685118e+08		3.737246e-05		1.292786e-05
4.952514e+09		1.292786e-05		-6.212667e-05
1.449194e-04		-2.640703e+07		6.434858e+09
-2.640703e+07		2.357410e-05		-1.275912e-07
6.434858e+09		-1.275912e-07		-2.164394e-04
-3.610082e+07		2.039799e+07		5.135998e+09
2.039799e+07		-1.114052e+06		4.225264e+07
5.135998e+09		4.225264e+07		5.233955e+09
8.380727e+06		1.167580e+08		3.692380e+09
1.167580e+08		3.326914e+07		2.410050e+08
3.692380e+09		2.410050e+08		5.403314e+09
1.251495e+07		-2.718065e-05		3.385918e+09
-2.718065e-05		7.063447e+07		4.695356e-05
3.385918e+09		4.695356e-05		5.483201e+09
8.380727e+06		-1.167580e+08		3.692380e+09
-1.167580e+08		3.326914e+07		-2.410050e+08
3.692380e+09		-2.410050e+08		5.403314e+09
-3.610082e+07		-2.039799e+07		5.135998e+09
-2.039799e+07		-1.114052e+06		-4.225264e+07
5.135998e+09		-4.225264e+07		5.233955e+09
-4.699445e+06		-6.099987e+06		5.002998e+08
-6.099987e+06		-1.571229e+07		4.395176e+08
5.002998e+08		4.395176e+08		1.063145e+10
2.982974e+06		3.106127e+06		1.016132e+08
3.106127e+06		1.016139e+08		9.535026e+08
1.016132e+08		9.535026e+08		1.086140e+10
9.814925e+06		1.157536e-04		8.238596e+07
1.157536e-04		2.083076e+08		1.450032e-04
8.238596e+07		1.450032e-04		1.096248e+10
2.982974e+06		-3.106127e+06		1.016132e+08
-3.106127e+06		1.016139e+08		-9.535026e+08
1.016132e+08		-9.535026e+08		1.086140e+10
-4.699445e+06		6.099987e+06		5.002998e+08
6.099987e+06		-1.571229e+07		-4.395176e+08
5.002998e+08		-4.395176e+08		1.063145e+10
-2.265687e+07		-1.405785e+07		6.501872e+08
-1.405785e+07		-1.395941e+07		-4.623071e+08
6.501872e+08		-4.623071e+08		-1.272879e+10
-3.777566e+07		-1.251129e+07		2.657729e+08
-1.251129e+07		-9.276125e+07		-7.613302e+08
2.657729e+08		-7.613302e+08		-1.293244e+10
-7.809988e+06		1.480137e+06		2.683638e+08
1.480137e+06		-1.736397e+08		-9.572017e+08
2.683638e+08		-9.572017e+08		-1.305026e+10
-2.315109e+07		-3.631381e+06		2.083739e+08
-3.631381e+06		-2.935084e+08		-4.428737e+08
2.083739e+08		-4.428737e+08		-1.317763e+10
-6.171128e+06		4.189205e-04		2.491373e+08
4.189205e-04		-3.253551e+08		-4.790835e-04
2.491373e+08		-4.790835e-04		-1.319098e+10
-2.315109e+07		3.631381e+06		2.083739e+08
3.631381e+06		-2.935084e+08		4.428737e+08
2.083739e+08		4.428737e+08		-1.317763e+10
-7.809988e+06		-1.480137e+06		2.683638e+08
-1.480137e+06		-1.736397e+08		9.572017e+08
2.683638e+08		9.572017e+08		-1.305026e+10
-3.777566e+07		1.251129e+07		2.657729e+08
1.251129e+07		-9.276125e+07		7.613302e+08
2.657729e+08		7.613302e+08		-1.293244e+10
-2.265687e+07		1.405785e+07		6.501872e+08
1.405785e+07		-1.395941e+07		4.623071e+08
6.501872e+08		4.623071e+08		-1.272879e+10
4.742948e+07		2.434041e+07		3.023631e+09
2.434041e+07		1.189703e+07		-1.179506e+08
3.023631e+09		-1.179506e+08		-9.404602e+09
1.083390e+07		9.367072e+07		2.133979e+09
9.367072e+07		-1.043049e+08		-5.287645e+08
2.133979e+09		-5.287645e+08		-9.746434e+09
1.134408e+07		7.927278e-05		1.996597e+09
7.927278e-05		-2.015176e+08		-1.799753e-04
1.996597e+09		-1.799753e-04		-9.890016e+09
1.083390e+07		-9.367072e+07		2.133979e+09
-9.367072e+07		-1.043049e+08		5.287645e+08
2.133979e+09		5.287645e+08		-9.746434e+09
4.742948e+07		-2.434041e+07		3.023631e+09
-2.434041e+07		1.189703e+07		1.179506e+08
3.023631e+09		1.179506e+08		-9.404602e+09
6.162111e+07		3.805490e+07		5.192188e+09
3.805490e+07		-5.247540e+06		-6.437548e+07
5.192188e+09		-6.437548e+07		-6.226738e+09
2.504917e+07		1.079118e+08		4.336604e+09
1.079118e+08		-2.447572e+07		-1.809006e+08
4.336604e+09		-1.809006e+08		-6.353718e+09
1.371459e+07		1.731034e+08		3.867171e+09
1.731034e+08		-4.589493e+07		-2.729179e+08
3.867171e+09		-2.729179e+08		-6.460410e+09
6.673600e+06		8.927634e+07		3.679419e+09
8.927634e+07		-9.467686e+07		-1.443189e+08
3.679419e+09		-1.443189e+08		-6.556492e+09
2.252295e+07		1.880885e-04		3.613112e+09
1.880885e-04		-9.315347e+07		-1.496226e-04
3.613112e+09		-1.496226e-04		-6.565783e+09
6.673600e+06		-8.927634e+07		3.679419e+09
-8.927634e+07		-9.467686e+07		1.443189e+08
3.679419e+09		1.443189e+08		-6.556492e+09
1.371459e+07		-1.731034e+08		3.867171e+09
-1.731034e+08		-4.589493e+07		2.729179e+08
3.867171e+09		2.729179e+08		-6.460410e+09
2.504917e+07		-1.079118e+08		4.336604e+09
-1.079118e+08		-2.447572e+07		1.809006e+08
4.336604e+09		1.809006e+08		-6.353718e+09
6.162111e+07		-3.805490e+07		5.192188e+09
-3.805490e+07		-5.247540e+06		6.437548e+07
5.192188e+09		6.437548e+07		-6.226738e+09
5.684393e+07		4.534732e+07		5.885712e+09
4.534732e+07		7.318386e+06		-2.141160e+07
5.885712e+09		-2.141160e+07		-3.104669e+09
1.736685e+07		2.175621e+08		4.602330e+09
2.175621e+08		-1.830985e+07		-1.282987e+08
4.602330e+09		-1.282987e+08		-3.235273e+09
1.472705e+07		4.334562e-05		4.335179e+09
4.334562e-05		-4.457150e+07		-1.043682e-04
4.335179e+09		-1.043682e-04		-3.301588e+09
1.736685e+07		-2.175621e+08		4.602330e+09
-2.175621e+08		-1.830985e+07		1.282987e+08
4.602330e+09		1.282987e+08		-3.235273e+09
5.684393e+07		-4.534732e+07		5.885712e+09
-4.534732e+07		7.318386e+06		2.141160e+07
5.885712e+09		2.141160e+07		-3.104669e+09
2.257247e-04		4.788226e+07		6.485195e+09
4.788226e+07		1.244955e-04		-8.492114e-05
6.485195e+09		-8.492114e-05		4.641712e-06
4.252233e-05		1.600535e+08		5.618381e+09
1.600535e+08		4.102290e-05		-2.306886e-06
5.618381e+09		-2.306886e-06		-9.028241e-05
-2.239253e-04		2.514122e+08		5.131806e+09
2.514122e+08		-1.178109e-04		2.868353e-05
5.131806e+09		2.868353e-05		-2.042875e-04
-2.583582e-04		1.336057e+08		4.899288e+09
1.336057e+08		-7.242151e-05		-1.131769e-05
4.899288e+09		-1.131769e-05		-2.346449e-04
-6.651320e-05		-7.285271e-05		4.824017e+09
-7.285271e-05		2.188401e-04		3.729017e-05
4.824017e+09		3.729017e-05		-1.639947e-04
3.737621e-04		-1.336057e+08		4.899288e+09
-1.336057e+08		2.795942e-04		-5.005929e-05
4.899288e+09		-5.005929e-05		-5.970150e-05
6.312216e-04		-2.514122e+08		5.131806e+09
-2.514122e+08		1.854645e-04		-4.471751e-05
5.131806e+09		-4.471751e-05		-5.396083e-05
5.078465e-04		-1.600535e+08		5.618381e+09
-1.600535e+08		1.339745e-04		1.047004e-05
5.618381e+09		1.047004e-05		-1.345500e-04
-3.377832e-04		-4.788226e+07		6.485195e+09
-4.788226e+07		-2.697073e-04		-6.438215e-05
6.485195e+09		-6.438215e-05		-5.597770e-04
-5.684393e+07		4.534732e+07		5.885712e+09
4.534732e+07		-7.318386e+06		2.141160e+07
5.885712e+09		2.141160e+07		3.104669e+09
-1.736685e+07		2.175621e+08		4.602330e+09
2.175621e+08		1.830985e+07		1.282987e+08
4.602330e+09		1.282987e+08		3.235273e+09
-1.472705e+07		2.448717e-04		4.335179e+09
2.448717e-04		4.457150e+07		1.593237e-04
4.335179e+09		1.593237e-04		3.301588e+09
-1.736685e+07		-2.175621e+08		4.602330e+09
-2.175621e+08		1.830985e+07		-1.282987e+08
4.602330e+09		-1.282987e+08		3.235273e+09
-5.684393e+07		-4.534732e+07		5.885712e+09
-4.534732e+07		-7.318386e+06		-2.141160e+07
5.885712e+09		-2.141160e+07		3.104669e+09
-6.162111e+07		3.805490e+07		5.192188e+09
3.805490e+07		5.247540e+06		6.437548e+07
5.192188e+09		6.437548e+07		6.226738e+09
-2.504917e+07		1.079118e+08		4.336604e+09
1.079118e+08		2.447572e+07		1.809006e+08
4.336604e+09		1.809006e+08		6.353718e+09
-1.371459e+07		1.731034e+08		3.867171e+09
1.731034e+08		4.589493e+07		2.729179e+08
3.867171e+09		2.729179e+08		6.460410e+09
-6.673600e+06		8.927634e+07		3.679419e+09
8.927634e+07		9.467686e+07		1.443189e+08
3.679419e+09		1.443189e+08		6.556492e+09
-2.252295e+07		3.661164e-04		3.613112e+09
3.661164e-04		9.315347e+07		2.454380e-04
3.613112e+09		2.454380e-04		6.565783e+09
-6.673600e+06		-8.927634e+07		3.679419e+09
-8.927634e+07		9.467686e+07		-1.443189e+08
3.679419e+09		-1.443189e+08		6.556492e+09
-1.371459e+07		-1.731034e+08		3.867171e+09
-1.731034e+08		4.589493e+07		-2.729179e+08
3.867171e+09		-2.729179e+08		6.460410e+09
-2.504917e+07		-1.079118e+08		4.336604e+09
-1.079118e+08		2.447572e+07		-1.809006e+08
4.336604e+09		-1.809006e+08		6.353718e+09
-6.162111e+07		-3.805490e+07		5.192188e+09
-3.805490e+07		5.247540e+06		-6.437548e+07
5.192188e+09		-6.437548e+07		6.226738e+09
-4.742948e+07		2.434041e+07		3.023631e+09
2.434041e+07		-1.189703e+07		1.179506e+08
3.023631e+09		1.179506e+08		9.404602e+09
-1.083390e+07		9.367072e+07		2.133979e+09
9.367072e+07		1.043049e+08		5.287645e+08
2.133979e+09		5.287645e+08		9.746434e+09
-1.134408e+07		2.130209e-04		1.996597e+09
2.130209e-04		2.015176e+08		2.227137e-04
1.996597e+09		2.227137e-04		9.890016e+09
-1.083390e+07		-9.367072e+07		2.133979e+09
-9.367072e+07		1.043049e+08		-5.287645e+08
2.133979e+09		-5.287645e+08		9.746434e+09
-4.742948e+07		-2.434041e+07		3.023631e+09
-2.434041e+07		-1.189703e+07		-1.179506e+08
3.023631e+09		-1.179506e+08		9.404602e+09
2.265687e+07		-1.405785e+07		6.501872e+08
-1.405785e+07		1.395941e+07		4.623071e+08
6.501872e+08		4.623071e+08		1.272879e+10
3.777566e+07		-1.251129e+07		2.657729e+08
-1.251129e+07		9.276125e+07		7.613302e+08
2.657729e+08		7.613302e+08		1.293244e+10
7.809988e+06		1.480137e+06		2.683638e+08
1.480137e+06		1.736397e+08		9.572017e+08
2.683638e+08		9.572017e+08		1.305026e+10
2.315109e+07		-3.631381e+06		2.083739e+08
-3.631381e+06		2.935084e+08		4.428737e+08
2.083739e+08		4.428737e+08		1.317763e+10
6.171128e+06		-2.129015e-04		2.491373e+08
-2.129015e-04		3.253551e+08		1.355745e-04
2.491373e+08		1.355745e-04		1.319098e+10
2.315109e+07		3.631381e+06		2.083739e+08
3.631381e+06		2.935084e+08		-4.428737e+08
2.083739e+08		-4.428737e+08		1.317763e+10
7.809988e+06		-1.480137e+06		2.683638e+08
-1.480137e+06		1.736397e+08		-9.572017e+08
2.683638e+08		-9.572017e+08		1.305026e+10
3.777566e+07		1.251129e+07		2.657729e+08
1.251129e+07		9.276125e+07		-7.613302e+08
2.657729e+08		-7.613302e+08		1.293244e+10
2.265687e+07		1.405785e+07		6.501872e+08
1.405785e+07		1.395941e+07		-4.623071e+08
6.501872e+08		-4.623071e+08		1.272879e+10
5.404257e+07		-1.790192e+06		4.259753e+08
-1.790192e+06		8.683877e+07		-4.020942e+08
4.259753e+08		-4.020942e+08		-1.462554e+10
4.024182e+07		2.812574e+06		7.724432e+07
2.812574e+06		-2.651888e+08		-8.665215e+08
7.724432e+07		-8.665215e+08		-1.518562e+10
3.299822e+07		1.094006e-04		5.133763e+07
1.094006e-04		-5.318526e+08		-5.081519e-04
5.133763e+07		-5.081519e-04		-1.543701e+10
4.024182e+07		-2.812574e+06		7.724432e+07
-2.812574e+06		-2.651888e+08		8.665215e+08
7.724432e+07		8.665215e+08		-1.518562e+10
5.404257e+07		1.790192e+06		4.259753e+08
1.790192e+06		8.683877e+07		4.020942e+08
4.259753e+08		4.020942e+08		-1.462554e+10
1.618984e+08		4.408686e+07		4.763146e+09
4.408686e+07		3.737053e+07		-5.640491e+07
4.763146e+09		-5.640491e+07		-7.139639e+09
6.062607e+07		2.603229e+08		3.693070e+09
2.603229e+08		-7.594223e+07		-2.830470e+08
3.693070e+09		-2.830470e+08		-7.558148e+09
4.742991e+07		2.844785e-04		3.540867e+09
2.844785e-04		-2.104338e+08		-3.809016e-05
3.540867e+09		-3.809016e-05		-7.765210e+09
6.062607e+07		-2.603229e+08		3.693070e+09
-2.603229e+08		-7.594223e+07		2.830470e+08
3.693070e+09		2.830470e+08		-7.558148e+09
1.618984e+08		-4.408686e+07		4.763146e+09
-4.408686e+07		3.737053e+07		5.640491e+07
4.763146e+09		5.640491e+07		-7.139639e+09
-2.964139e-04		5.999416e+07		6.131573e+09
5.999416e+07		-1.832247e-04		2.194010e-05
6.131573e+09		2.194010e-05		-2.913177e-04
-2.559666e-04		3.952239e+08		5.033740e+09
3.952239e+08		-1.505911e-04		1.313034e-04
5.033740e+09		1.313034e-04		-3.638081e-04
-2.994612e-04		1.783110e-05		4.877707e+09
1.783110e-05		-7.134397e-06		2.990337e-05
4.877707e+09		2.990337e-05		-3.391393e-04
-1.177429e-04		-3.952239e+08		5.033740e+09
-3.952239e+08		-8.078571e-05		-5.853578e-05
5.033740e+09		-5.853578e-05		-3.316998e-04
4.363544e-04		-5.999416e+07		6.131573e+09
-5.999416e+07		1.148991e-04		-7.232185e-06
6.131573e+09		-7.232185e-06		-9.647012e-05
-1.618984e+08		4.408686e+07		4.763146e+09
4.408686e+07		-3.737053e+07		5.640491e+07
4.763146e+09		5.640491e+07		7.139639e+09
-6.062607e+07		2.603229e+08		3.693070e+09
2.603229e+08		7.594223e+07		2.830470e+08
3.693070e+09		2.830470e+08		7.558148e+09
-4.742991e+07		3.159707e-04		3.540867e+09
3.159707e-04		2.104338e+08		2.537919e-04
3.540867e+09		2.537919e-04		7.765210e+09
-6.062607e+07		-2.603229e+08		3.693070e+09
-2.603229e+08		7.594223e+07		-2.830470e+08
3.693070e+09		-2.830470e+08		7.558148e+09
-1.618984e+08		-4.408686e+07		4.763146e+09
-4.408686e+07		-3.737053e+07		-5.640491e+07
4.763146e+09		-5.640491e+07		7.139639e+09
-5.404257e+07		-1.790192e+06		4.259753e+08
-1.790192e+06		-8.683877e+07		4.020942e+08
4.259753e+08		4.020942e+08		1.462554e+10
-4.024182e+07		2.812574e+06		7.724432e+07
2.812574e+06		2.651888e+08		8.665215e+08
7.724432e+07		8.665215e+08		1.518562e+10
-3.299822e+07		-1.986898e-04		5.133763e+07
-1.986898e-04		5.318526e+08		3.682040e-04
5.133763e+07		3.682040e-04		1.543701e+10
-4.024182e+07		-2.812574e+06		7.724432e+07
-2.812574e+06		2.651888e+08		-8.665215e+08
7.724432e+07		-8.665215e+08		1.518562e+10
-5.404257e+07		1.790192e+06		4.259753e+08
1.790192e+06		-8.683877e+07		-4.020942e+08
4.259753e+08		-4.020942e+08		1.462554e+10
1.299588e+08		2.953066e+05		5.243998e+08
2.953066e+05		1.519886e+08		-3.644875e+08
5.243998e+08		-3.644875e+08		-1.652177e+10
1.084428e+07		-3.306335e+07		2.362236e+08
-3.306335e+07		-2.062597e+08		-6.503122e+08
2.362236e+08		-6.503122e+08		-1.707940e+10
7.007781e+07		-9.481833e+06		2.373224e+08
-9.481833e+06		-4.562827e+08		-8.238482e+08
2.373224e+08		-8.238482e+08		-1.738614e+10
6.733336e+07		-2.324574e+07		1.981420e+08
-2.324574e+07		-7.040391e+08		-3.578718e+08
1.981420e+08		-3.578718e+08		-1.765465e+10
3.332249e+07		3.784320e-04		2.055715e+08
3.784320e-04		-9.118011e+08		-4.199985e-04
2.055715e+08		-4.199985e-04		-1.784299e+10
6.733336e+07		2.324574e+07		1.981420e+08
2.324574e+07		-7.040391e+08		3.578718e+08
1.981420e+08		3.578718e+08		-1.765465e+10
7.007781e+07		9.481833e+06		2.373224e+08
9.481833e+06		-4.562827e+08		8.238482e+08
2.373224e+08		8.238482e+08		-1.738614e+10
1.084428e+07		3.306335e+07		2.362236e+08
3.306335e+07		-2.062597e+08		6.503122e+08
2.362236e+08		6.503122e+08		-1.707940e+10
1.299588e+08		-2.953066e+05		5.243998e+08
-2.953066e+05		1.519886e+08		3.644875e+08
5.243998e+08		3.644875e+08		-1.652177e+10
1.981173e+08		5.615565e+07		2.609987e+09
5.615565e+07		1.252521e+08		-1.283731e+08
2.609987e+09		-1.283731e+08		-1.217355e+10
6.008556e+07		1.891695e+08		2.065896e+09
1.891695e+08		-3.091969e+08		-5.217731e+08
2.065896e+09		-5.217731e+08		-1.302108e+10
-3.821895e+06		1.695035e-04		2.033200e+09
1.695035e-04		-6.757521e+08		-3.130357e-04
2.033200e+09		-3.130357e-04		-1.349012e+10
6.008556e+07		-1.891695e+08		2.065896e+09
-1.891695e+08		-3.091969e+08		5.217731e+08
2.065896e+09		5.217731e+08		-1.302108e+10
1.981173e+08		-5.615565e+07		2.609987e+09
-5.615565e+07		1.252521e+08		1.283731e+08
2.609987e+09		1.283731e+08		-1.217355e+10
2.497061e+08		6.421114e+07		4.643478e+09
6.421114e+07		4.598720e+07		-7.080836e+07
4.643478e+09		-7.080836e+07		-8.105816e+09
1.443122e+08		2.121218e+08		4.085282e+09
2.121218e+08		-6.213465e+07		-2.304035e+08
4.085282e+09		-2.304035e+08		-8.406966e+09
1.053563e+08		3.584184e+08		3.849656e+09
3.584184e+08		-1.537252e+08		-3.413845e+08
3.849656e+09		-3.413845e+08		-8.703440e+09
8.449422e+07		1.721913e+08		3.833448e+09
1.721913e+08		-3.036420e+08		-1.575189e+08
3.833448e+09		-1.575189e+08		-8.941485e+09
6.215025e+07		5.343556e-05		3.820223e+09
5.343556e-05		-4.134628e+08		-2.195821e-04
3.820223e+09		-2.195821e-04		-9.066494e+09
8.449422e+07		-1.721913e+08		3.833448e+09
-1.721913e+08		-3.036420e+08		1.575189e+08
3.833448e+09		1.575189e+08		-8.941485e+09
1.053563e+08		-3.584184e+08		3.849656e+09
-3.584184e+08		-1.537252e+08		3.413845e+08
3.849656e+09		3.413845e+08		-8.703440e+09
1.443122e+08		-2.121218e+08		4.085282e+09
-2.121218e+08		-6.213465e+07		2.304035e+08
4.085282e+09		2.304035e+08		-8.406966e+09
2.497061e+08		-6.421114e+07		4.643478e+09
-6.421114e+07		4.598720e+07		7.080836e+07
4.643478e+09		7.080836e+07		-8.105816e+09
2.013711e+08		9.466943e+07		5.443372e+09
9.466943e+07		5.535566e+07		-5.252146e+07
5.443372e+09		-5.252146e+07		-4.023230e+09
7.583295e+07		4.760621e+08		4.694088e+09
4.760621e+08		-6.550981e+07		-1.752888e+08
4.694088e+09		-1.752888e+08		-4.363013e+09
4.224689e+07		1.367368e-04		4.712181e+09
1.367368e-04		-1.979161e+08		-1.426521e-04
4.712181e+09		-1.426521e-04		-4.567305e+09
7.583295e+07		-4.760621e+08		4.694088e+09
-4.760621e+08		-6.550981e+07		1.752888e+08
4.694088e+09		1.752888e+08		-4.363013e+09
2.013711e+08		-9.466943e+07		5.443372e+09
-9.466943e+07		5.535566e+07		5.252146e+07
5.443372e+09		5.252146e+07		-4.023230e+09
-3.276020e-04		9.525650e+07		6.149458e+09
9.525650e+07		-1.936797e-04		-9.438454e-05
6.149458e+09		-9.438454e-05		-7.465109e-05
3.318768e-05		3.438860e+08		5.559482e+09
3.438860e+08		3.192294e-05		-7.177237e-06
5.559482e+09		-7.177237e-06		-5.059689e-05
-2.505342e-04		5.583700e+08		5.364221e+09
5.583700e+08		-1.232014e-04		9.464384e-05
5.364221e+09		9.464384e-05		-3.748219e-04
-2.804138e-04		2.790739e+08		5.375926e+09
2.790739e+08		-1.203339e-04		-1.389676e-05
5.375926e+09		-1.389676e-05		-3.394708e-04
-1.569605e-04		9.019859e-06		5.391722e+09
9.019859e-06		1.732260e-07		-6.408458e-05
5.391722e+09		-6.408458e-05		-1.944546e-04
-1.586694e-05		-2.790739e+08		5.375926e+09
-2.790739e+08		-2.137967e-05		-2.457103e-05
5.375926e+09		-2.457103e-05		-2.370998e-04
5.074684e-05		-5.583700e+08		5.364221e+09
-5.583700e+08		4.762318e-06		-1.035835e-04
5.364221e+09		-1.035835e-04		-2.722424e-04
1.420081e-04		-3.438860e+08		5.559482e+09
-3.438860e+08		-8.082390e-05		-2.660020e-05
5.559482e+09		-2.660020e-05		-4.176274e-04
3.426056e-04		-9.525650e+07		6.149458e+09
-9.525650e+07		-1.441613e-04		9.497919e-05
6.149458e+09		9.497919e-05		-5.414337e-04
-2.013711e+08		9.466943e+07		5.443372e+09
9.466943e+07		-5.535566e+07		5.252146e+07
5.443372e+09		5.252146e+07		4.023230e+09
-7.583295e+07		4.760621e+08		4.694088e+09
4.760621e+08		6.550981e+07		1.752888e+08
4.694088e+09		1.752888e+08		4.363013e+09
-4.224689e+07		9.851716e-05		4.712181e+09
9.851716e-05		1.979161e+08		6.001443e-06
4.712181e+09		6.001443e-06		4.567305e+09
-7.583295e+07		-4.760621e+08		4.694088e+09
-4.760621e+08		6.550981e+07		-1.752888e+08
4.694088e+09		-1.752888e+08		4.363013e+09
-2.013711e+08		-9.466943e+07		5.443372e+09
-9.466943e+07		-5.535566e+07		-5.252146e+07
5.443372e+09		-5.252146e+07		4.023230e+09
-2.497061e+08		6.421114e+07		4.643478e+09
6.421114e+07		-4.598720e+07		7.080836e+07
4.643478e+09		7.080836e+07		8.105816e+09
-1.443122e+08		2.121218e+08		4.085282e+09
2.121218e+08		6.213465e+07		2.304035e+08
4.085282e+09		2.304035e+08		8.406966e+09
-1.053563e+08		3.584184e+08		3.849656e+09
3.584184e+08		1.537252e+08		3.413845e+08
3.849656e+09		3.413845e+08		8.703440e+09
-8.449422e+07		1.721913e+08		3.833448e+09
1.721913e+08		3.036420e+08		1.575189e+08
3.833448e+09		1.575189e+08		8.941485e+09
-6.215025e+07		3.328836e-04		3.820223e+09
3.328836e-04		4.134628e+08		1.245723e-04
3.820223e+09		1.245723e-04		9.066494e+09
-8.449422e+07		-1.721913e+08		3.833448e+09
-1.721913e+08		3.036420e+08		-1.575189e+08
3.833448e+09		-1.575189e+08		8.941485e+09
-1.053563e+08		-3.584184e+08		3.849656e+09
-3.584184e+08		1.537252e+08		-3.413845e+08
3.849656e+09		-3.413845e+08		8.703440e+09
-1.443122e+08		-2.121218e+08		4.085282e+09
-2.121218e+08		6.213465e+07		-2.304035e+08
4.085282e+09		-2.304035e+08		8.406966e+09
-2.497061e+08		-6.421114e+07		4.643478e+09
-6.421114e+07		-4.598720e+07		-7.080836e+07
4.643478e+09		-7.080836e+07		8.105816e+09
-1.981173e+08		5.615565e+07		2.609987e+09
5.615565e+07		-1.252521e+08		1.283731e+08
2.609987e+09		1.283731e+08		1.217355e+10
-6.008556e+07		1.891695e+08		2.065896e+09
1.891695e+08		3.091969e+08		5.217731e+08
2.065896e+09		5.217731e+08		1.302108e+10
3.821895e+06		-8.296221e-05		2.033200e+09
-8.296221e-05		6.757521e+08		2.322260e-04
2.033200e+09		2.322260e-04		1.349012e+10
-6.008556e+07		-1.891695e+08		2.065896e+09
-1.891695e+08		3.091969e+08		-5.217731e+08
2.065896e+09		-5.217731e+08		1.302108e+10
-1.981173e+08		-5.615565e+07		2.609987e+09
-5.615565e+07		-1.252521e+08		-1.283731e+08
2.609987e+09		-1.283731e+08		1.217355e+10
-1.299588e+08		2.953066e+05		5.243998e+08
2.953066e+05		-1.519886e+08		3.644875e+08
5.243998e+08		3.644875e+08		1.652177e+10
-1.084428e+07		-3.306335e+07		2.362236e+08
-3.306335e+07		2.062597e+08		6.503122e+08
2.362236e+08		6.503122e+08		1.707940e+10
-7.007781e+07		-9.481833e+06		2.373224e+08
-9.481833e+06		4.562827e+08		8.238482e+08
2.373224e+08		8.238482e+08		1.738614e+10
-6.733336e+07		-2.324574e+07		1.981420e+08
-2.324574e+07		7.040391e+08		3.578718e+08
1.981420e+08		3.578718e+08		1.765465e+10
-3.332249e+07		-2.067467e-04		2.055715e+08
-2.067467e-04		9.118011e+08		3.574202e-04
2.055715e+08		3.574202e-04		1.784299e+10
-6.733336e+07		2.324574e+07		1.981420e+08
2.324574e+07		7.040391e+08		-3.578718e+08
1.981420e+08		-3.578718e+08		1.765465e+10
-7.007781e+07		9.481833e+06		2.373224e+08
9.481833e+06		4.562827e+08		-8.238482e+08
2.373224e+08		-8.238482e+08		1.738614e+10
-1.084428e+07		3.306335e+07		2.362236e+08
3.306335e+07		2.062597e+08		-6.503122e+08
2.362236e+08		-6.503122e+08		1.707940e+10
-1.299588e+08		-2.953066e+05		5.243998e+08
-2.953066e+05		-1.519886e+08		-3.644875e+08
5.243998e+08		-3.644875e+08		1.652177e+10
-1.868641e+08		-1.669816e+07		3.292490e+08
-1.669816e+07		-1.369169e+08		-1.318305e+08
3.292490e+08		-1.318305e+08		-1.810529e+10
-1.892729e+08		-2.345663e+07		1.796809e+08
-2.345663e+07		-7.131587e+08		-3.935542e+08
1.796809e+08		-3.935542e+08		-1.949176e+10
-2.146788e+08		3.161654e-05		1.659539e+08
3.161654e-05		-1.470240e+09		-2.475902e-04
1.659539e+08		-2.475902e-04		-1.983977e+10
-1.892729e+08		2.345663e+07		1.796809e+08
2.345663e+07		-7.131587e+08		3.935542e+08
1.796809e+08		3.935542e+08		-1.949176e+10
-1.868641e+08		1.669816e+07		3.292490e+08
1.669816e+07		-1.369169e+08		1.318305e+08
3.292490e+08		1.318305e+08		-1.810529e+10
4.285207e+08		1.131019e+08		4.026956e+09
1.131019e+08		-6.691499e+07		4.632365e+06
4.026956e+09		4.632365e+06		-9.084319e+09
1.605416e+08		4.485842e+08		3.798016e+09
4.485842e+08		-2.989303e+08		-2.459444e+08
3.798016e+09		-2.459444e+08		-1.011630e+10
1.482765e+08		6.796326e-05		3.948672e+09
6.796326e-05		-7.540951e+08		-2.726447e-04
3.948672e+09		-2.726447e-04		-1.046823e+10
1.605416e+08		-4.485842e+08		3.798016e+09
-4.485842e+08		-2.989303e+08		2.459444e+08
3.798016e+09		2.459444e+08		-1.011630e+10
4.285207e+08		-1.131019e+08		4.026956e+09
-1.131019e+08		-6.691499e+07		-4.632365e+06
4.026956e+09		-4.632365e+06		-9.084319e+09
-4.400909e-04		1.721267e+08		5.512647e+09
1.721267e+08		-1.883060e-04		-1.035887e-04
5.512647e+09		-1.035887e-04		-2.255589e-04
-1.667552e-04		7.754554e+08		5.278348e+09
7.754554e+08		-6.480701e-05		-2.240020e-05
5.278348e+09		-2.240020e-05		-7.747114e-05
-7.576356e-05		6.687641e-05		5.504772e+09
6.687641e-05		3.134646e-05		-7.980812e-05
5.504772e+09		-7.980812e-05		-8.989125e-05
-2.432093e-04		-7.754554e+08		5.278348e+09
-7.754554e+08		-1.021083e-04		-4.037016e-05
5.278348e+09		-4.037016e-05		-4.243106e-04
-3.643930e-04		-1.721267e+08		5.512647e+09
-1.721267e+08		-3.798679e-04		8.306932e-05
5.512647e+09		8.306932e-05		-8.094013e-04
-4.285207e+08		1.131019e+08		4.026956e+09
1.131019e+08		6.691499e+07		-4.632365e+06
4.026956e+09		-4.632365e+06		9.084319e+09
-1.605416e+08		4.485842e+08		3.798016e+09
4.485842e+08		2.989303e+08		2.459444e+08
3.798016e+09		2.459444e+08		1.011630e+10
-1.482765e+08		2.702661e-04		3.948672e+09
2.702661e-04		7.540951e+08		1.525227e-04
3.948672e+09		1.525227e-04		1.046823e+10
-1.605416e+08		-4.485842e+08		3.798016e+09
-4.485842e+08		2.989303e+08		-2.459444e+08
3.798016e+09		-2.459444e+08		1.011630e+10
-4.285207e+08		-1.131019e+08		4.026956e+09
-1.131019e+08		6.691499e+07		4.632365e+06
4.026956e+09		4.632365e+06		9.084319e+09
1.868641e+08		-1.669816e+07		3.292490e+08
-1.669816e+07		1.369169e+08		1.318305e+08
3.292490e+08		1.318305e+08		1.810529e+10
1.892729e+08		-2.345663e+07		1.796809e+08
-2.345663e+07		7.131587e+08		3.935542e+08
1.796809e+08		3.935542e+08		1.949176e+10
2.146788e+08		-6.436463e-05		1.659539e+08
-6.436463e-05		1.470240e+09		3.276095e-04
1.659539e+08		3.276095e-04		1.983977e+10
1.892729e+08		2.345663e+07		1.796809e+08
2.345663e+07		7.131587e+08		-3.935542e+08
1.796809e+08		-3.935542e+08		1.949176e+10
1.868641e+08		1.669816e+07		3.292490e+08
1.669816e+07		1.369169e+08		-1.318305e+08
3.292490e+08		-1.318305e+08		1.810529e+10
-1.612847e+08		-1.367985e+08		-9.114824e+05
-1.367985e+08		-8.105996e+07		-3.876623e+08
-9.114824e+05		-3.876623e+08		-1.877953e+10
-4.517309e+08		-1.201650e+08		-8.715549e+07
-1.201650e+08		-5.407797e+08		-9.323592e+07
-8.715549e+07		-9.323592e+07		-2.057525e+10
-1.430915e+08		-8.575279e+07		-1.207919e+08
-8.575279e+07		-8.507407e+08		-5.612568e+07
-1.207919e+08		-5.612568e+07		-2.092026e+10
-2.627521e+08		-4.486688e+07		-1.321868e+08
-4.486688e+07		-1.798882e+09		1.641878e+08
-1.321868e+08		1.641878e+08		-2.126575e+10
-2.728707e+08		2.332181e-04		-1.920299e+08
2.332181e-04		-2.130230e+09		-2.502203e-04
-1.920299e+08		-2.502203e-04		-2.129782e+10
-2.627521e+08		4.486688e+07		-1.321868e+08
4.486688e+07		-1.798882e+09		-1.641878e+08
-1.321868e+08		-1.641878e+08		-2.126575e+10
-1.430915e+08		8.575279e+07		-1.207919e+08
8.575279e+07		-8.507407e+08		5.612568e+07
-1.207919e+08		5.612568e+07		-2.092026e+10
-4.517309e+08		1.201650e+08		-8.715549e+07
1.201650e+08		-5.407797e+08		9.323592e+07
-8.715549e+07		9.323592e+07		-2.057525e+10
-1.612847e+08		1.367985e+08		-9.114824e+05
1.367985e+08		-8.105996e+07		3.876623e+08
-9.114824e+05		3.876623e+08		-1.877953e+10
4.016887e+08		8.227762e+07		1.890140e+09
8.227762e+07		2.411492e+07		-3.125805e+08
1.890140e+09		-3.125805e+08		-1.419337e+10
-3.781173e+07		2.322520e+08		2.112960e+09
2.322520e+08		-8.457556e+08		-1.374832e+08
2.112960e+09		-1.374832e+08		-1.668974e+10
-2.033138e+08		8.074753e-05		2.238446e+09
8.074753e-05		-1.975636e+09		-3.373921e-04
2.238446e+09		-3.373921e-04		-1.727805e+10
-3.781173e+07		-2.322520e+08		2.112960e+09
-2.322520e+08		-8.457556e+08		1.374832e+08
2.112960e+09		1.374832e+08		-1.668974e+10
4.016887e+08		-8.227762e+07		1.890140e+09
-8.227762e+07		2.411492e+07		3.125805e+08
1.890140e+09		3.125805e+08		-1.419337e+10
7.755313e+08		1.819389e+08		3.590780e+09
1.819389e+08		8.374514e+07		-2.886555e+08
3.590780e+09		-2.886555e+08		-9.536697e+09
2.774518e+08		3.845868e+08		3.709503e+09
3.845868e+08		-2.465095e+08		-2.117867e+08
3.709503e+09		-2.117867e+08		-1.086341e+10
2.063737e+08		5.183453e+08		4.037175e+09
5.183453e+08		-4.697430e+08		-2.386532e+08
4.037175e+09		-2.386532e+08		-1.139415e+10
1.046569e+08		2.375689e+08		4.237513e+09
2.375689e+08		-1.096077e+09		2.164836e+07
4.237513e+09		2.164836e+07		-1.180365e+10
8.883963e+07		4.568882e-05		4.331969e+09
4.568882e-05		-1.338805e+09		-2.999883e-04
4.331969e+09		-2.999883e-04		-1.193936e+10
1.046569e+08		-2.375689e+08		4.237513e+09
-2.375689e+08		-1.096077e+09		-2.164836e+07
4.237513e+09		-2.164836e+07		-1.180365e+10
2.063737e+08		-5.183453e+08		4.037175e+09
-5.183453e+08		-4.697430e+08		2.386532e+08
4.037175e+09		2.386532e+08		-1.139415e+10
2.774518e+08		-3.845868e+08		3.709503e+09
-3.845868e+08		-2.465095e+08		2.117867e+08
3.709503e+09		2.117867e+08		-1.086341e+10
7.755313e+08		-1.819389e+08		3.590780e+09
-1.819389e+08		8.374514e+07		2.886555e+08
3.590780e+09		2.886555e+08		-9.536697e+09
3.024817e+08		2.500331e+08		4.528083e+09
2.500331e+08		2.854274e+07		-1.689791e+08
4.528083e+09		-1.689791e+08		-4.850736e+09
-1.545795e+08		7.731942e+08		5.022521e+09
7.731942e+08		-3.408848e+08		-1.303858e+08
5.022521e+09		-1.303858e+08		-5.888796e+09
-2.914734e+08		-3.619492e-05		5.377781e+09
-3.619492e-05		-8.195324e+08		-1.869965e-04
5.377781e+09		-1.869965e-04		-6.208420e+09
-1.545795e+08		-7.731942e+08		5.022521e+09
-7.731942e+08		-3.408848e+08		1.303858e+08
5.022521e+09		1.303858e+08		-5.888796e+09
3.024817e+08		-2.500331e+08		4.528083e+09
-2.500331e+08		2.854274e+07		1.689791e+08
4.528083e+09		1.689791e+08		-4.850736e+09
-1.053877e-03		2.825988e+08		5.130487e+09
2.825988e+08		-4.482530e-04		-9.353040e-05
5.130487e+09		-9.353040e-05		-8.016080e-04
-2.133176e-04		7.013943e+08		5.179598e+09
7.013943e+08		-1.325496e-04		1.925416e-05
5.179598e+09		1.925416e-05		-2.196729e-04
8.129738e-04		9.447715e+08		5.607562e+09
9.447715e+08		3.036945e-04		-5.138425e-05
5.607562e+09		-5.138425e-05		3.573857e-04
2.357047e-04		4.163372e+08		5.886251e+09
4.163372e+08		1.003277e-04		-5.025446e-05
5.886251e+09		-5.025446e-05		-1.783669e-05
-5.876981e-04		8.512475e-05		6.022986e+09
8.512475e-05		-2.635606e-04		-1.065550e-04
6.022986e+09		-1.065550e-04		-4.451871e-04
-1.055524e-04		-4.163372e+08		5.886251e+09
-4.163372e+08		6.884336e-06		-1.332065e-04
5.886251e+09		-1.332065e-04		-3.565252e-04
3.371509e-04		-9.447715e+08		5.607562e+09
-9.447715e+08		2.155853e-04		9.054900e-05
5.607562e+09		9.054900e-05		-2.567843e-04
-1.368225e-04		-7.013943e+08		5.179598e+09
-7.013943e+08		-4.508160e-05		9.104959e-05
5.179598e+09		9.104959e-05		-4.032105e-04
-2.240874e-04		-2.825988e+08		5.130487e+09
-2.825988e+08		-7.888302e-05		5.074218e-05
5.130487e+09		5.074218e-05		-4.126951e-04
-3.024817e+08		2.500331e+08		4.528083e+09
2.500331e+08		-2.854274e+07		1.689791e+08
4.528083e+09		1.689791e+08		4.850736e+09
1.545795e+08		7.731942e+08		5.022521e+09
7.731942e+08		3.408848e+08		1.303858e+08
5.022521e+09		1.303858e+08		5.888796e+09
2.914734e+08		2.719462e-05		5.377781e+09
2.719462e-05		8.195324e+08		7.337704e-05
5.377781e+09		7.337704e-05		6.208420e+09
1.545795e+08		-7.731942e+08		5.022521e+09
-7.731942e+08		3.408848e+08		-1.303858e+08
5.022521e+09		-1.303858e+08		5.888796e+09
-3.024817e+08		-2.500331e+08		4.528083e+09
-2.500331e+08		-2.854274e+07		-1.689791e+08
4.528083e+09		-1.689791e+08		4.850736e+09
-7.755313e+08		1.819389e+08		3.590780e+09
1.819389e+08		-8.374514e+07		2.886555e+08
3.590780e+09		2.886555e+08		9.536697e+09
-2.774518e+08		3.845868e+08		3.709503e+09
3.845868e+08		2.465095e+08		2.117867e+08
3.709503e+09		2.117867e+08		1.086341e+10
-2.063737e+08		5.183453e+08		4.037175e+09
5.183453e+08		4.697430e+08		2.386532e+08
4.037175e+09		2.386532e+08		1.139415e+10
-1.046569e+08		2.375689e+08		4.237513e+09
2.375689e+08		1.096077e+09		-2.164836e+07
4.237513e+09		-2.164836e+07		1.180365e+10
-8.883963e+07		1.977896e-04		4.331969e+09
1.977896e-04		1.338805e+09		1.946781e-04
4.331969e+09		1.946781e-04		1.193936e+10
-1.046569e+08		-2.375689e+08		4.237513e+09
-2.375689e+08		1.096077e+09		2.164836e+07
4.237513e+09		2.164836e+07		1.180365e+10
-2.063737e+08		-5.183453e+08		4.037175e+09
-5.183453e+08		4.697430e+08		-2.386532e+08
4.037175e+09		-2.386532e+08		1.139415e+10
-2.774518e+08		-3.845868e+08		3.709503e+09
-3.845868e+08		2.465095e+08		-2.117867e+08
3.709503e+09		-2.117867e+08		1.086341e+10
-7.755313e+08		-1.819389e+08		3.590780e+09
-1.819389e+08		-8.374514e+07		-2.886555e+08
3.590780e+09		-2.886555e+08		9.536697e+09
-4.016887e+08		8.227762e+07		1.890140e+09
8.227762e+07		-2.411492e+07		3.125805e+08
1.890140e+09		3.125805e+08		1.419337e+10
3.781173e+07		2.322520e+08		2.112960e+09
2.322520e+08		8.457556e+08		1.374832e+08
2.112960e+09		1.374832e+08		1.668974e+10
2.033138e+08		6.775931e-05		2.238446e+09
6.775931e-05		1.975636e+09		3.774054e-04
2.238446e+09		3.774054e-04		1.727805e+10
3.781173e+07		-2.322520e+08		2.112960e+09
-2.322520e+08		8.457556e+08		-1.374832e+08
2.112960e+09		-1.374832e+08		1.668974e+10
-4.016887e+08		-8.227762e+07		1.890140e+09
-8.227762e+07		-2.411492e+07		-3.125805e+08
1.890140e+09		-3.125805e+08		1.419337e+10
1.612847e+08		-1.367985e+08		-9.114824e+05
-1.367985e+08		8.105996e+07		3.876623e+08
-9.114824e+05		3.876623e+08		1.877953e+10
4.517309e+08		-1.201650e+08		-8.715549e+07
-1.201650e+08		5.407797e+08		9.323592e+07
-8.715549e+07		9.323592e+07		2.057525e+10
1.430915e+08		-8.575279e+07		-1.207919e+08
-8.575279e+07		8.507407e+08		5.612568e+07
-1.207919e+08		5.612568e+07		2.092026e+10
2.627521e+08		-4.486688e+07		-1.321868e+08
-4.486688e+07		1.798882e+09		-1.641878e+08
-1.321868e+08		-1.641878e+08		2.126575e+10
2.728707e+08		4.685707e-04		-1.920299e+08
4.685707e-04		2.130230e+09		5.281307e-04
-1.920299e+08		5.281307e-04		2.129782e+10
2.627521e+08		4.486688e+07		-1.321868e+08
4.486688e+07		1.798882e+09		1.641878e+08
-1.321868e+08		1.641878e+08		2.126575e+10
1.430915e+08		8.575279e+07		-1.207919e+08
8.575279e+07		8.507407e+08		-5.612568e+07
-1.207919e+08		-5.612568e+07		2.092026e+10
4.517309e+08		1.201650e+08		-8.715549e+07
1.201650e+08		5.407797e+08		-9.323592e+07
-8.715549e+07		-9.323592e+07		2.057525e+10
1.612847e+08		1.367985e+08		-9.114824e+05
1.367985e+08		8.105996e+07		-3.876623e+08
-9.114824e+05		-3.876623e+08		1.877953e+10
1.999905e+09		-2.482249e+08		-9.177045e+08
-2.482249e+08		2.073002e+09		-5.841934e+08
-9.177045e+08		-5.841934e+08		-1.932860e+10
1.779114e+09		-7.467092e+07		-9.802942e+08
-7.467092e+07		-1.112523e+09		1.118811e+09
-9.802942e+08		1.118811e+09		-2.178673e+10
1.624911e+09		1.090243e-04		-9.537944e+08
1.090243e-04		-2.577118e+09		-2.703574e-04
-9.537944e+08		-2.703574e-04		-2.228076e+10
1.779114e+09		7.467092e+07		-9.802942e+08
7.467092e+07		-1.112523e+09		-1.118811e+09
-9.802942e+08		-1.118811e+09		-2.178673e+10
1.999905e+09		2.482249e+08		-9.177045e+08
2.482249e+08		2.073002e+09		5.841934e+08
-9.177045e+08		5.841934e+08		-1.932860e+10
5.347785e+08		2.890368e+08		2.642202e+09
2.890368e+08		1.036381e+09		-6.617677e+08
2.642202e+09		-6.617677e+08		-9.706473e+09
-8.083521e+08		6.231438e+08		4.233930e+09
6.231438e+08		-1.291485e+09		2.812321e+08
4.233930e+09		2.812321e+08		-1.218347e+10
-9.737548e+08		-3.119931e-06		4.648769e+09
-3.119931e-06		-2.292794e+09		-3.054729e-04
4.648769e+09		-3.054729e-04		-1.268558e+10
-8.083521e+08		-6.231438e+08		4.233930e+09
-6.231438e+08		-1.291485e+09		-2.812321e+08
4.233930e+09		-2.812321e+08		-1.218347e+10
5.347785e+08		-2.890368e+08		2.642202e+09
-2.890368e+08		1.036381e+09		6.617677e+08
2.642202e+09		6.617677e+08		-9.706473e+09
-8.221865e-04		4.757915e+08		3.911697e+09
4.757915e+08		-2.333373e-04		1.612650e-04
3.911697e+09		1.612650e-04		-6.561726e-04
4.972368e-04		1.028700e+09		5.456756e+09
1.028700e+09		2.825446e-05		-5.097612e-05
5.456756e+09		-5.097612e-05		-2.378672e-04
-9.987876e-05		1.289696e-05		5.949007e+09
1.289696e-05		-1.272205e-04		-8.365419e-05
5.949007e+09		-8.365419e-05		-4.400089e-04
-3.648512e-04		-1.028700e+09		5.456756e+09
-1.028700e+09		5.334429e-05		-5.058269e-05
5.456756e+09		-5.058269e-05		-4.273728e-04
4.640520e-04		-4.757915e+08		3.911697e+09
-4.757915e+08		3.164485e-04		4.593376e-05
3.911697e+09		4.593376e-05		5.957484e-05
-5.347785e+08		2.890368e+08		2.642202e+09
2.890368e+08		-1.036381e+09		6.617677e+08
2.642202e+09		6.617677e+08		9.706473e+09
8.083521e+08		6.231438e+08		4.233930e+09
6.231438e+08		1.291485e+09		-2.812321e+08
4.233930e+09		-2.812321e+08		1.218347e+10
9.737548e+08		1.521092e-04		4.648769e+09
1.521092e-04		2.292794e+09		1.617698e-04
4.648769e+09		1.617698e-04		1.268558e+10
8.083521e+08		-6.231438e+08		4.233930e+09
-6.231438e+08		1.291485e+09		2.812321e+08
4.233930e+09		2.812321e+08		1.218347e+10
-5.347785e+08		-2.890368e+08		2.642202e+09
-2.890368e+08		-1.036381e+09		-6.617677e+08
2.642202e+09		-6.617677e+08		9.706473e+09
-1.999905e+09		-2.482249e+08		-9.177045e+08
-2.482249e+08		-2.073002e+09		5.841934e+08
-9.177045e+08		5.841934e+08		1.932860e+10
-1.779114e+09		-7.467092e+07		-9.802942e+08
-7.467092e+07		1.112523e+09		-1.118811e+09
-9.802942e+08		-1.118811e+09		2.178673e+10
-1.624911e+09		8.277595e-05		-9.537944e+08
8.277595e-05		2.577118e+09		5.999357e-04
-9.537944e+08		5.999357e-04		2.228076e+10
-1.779114e+09		7.467092e+07		-9.802942e+08
7.467092e+07		1.112523e+09		1.118811e+09
-9.802942e+08		1.118811e+09		2.178673e+10
-1.999905e+09		2.482249e+08		-9.177045e+08
2.482249e+08		-2.073002e+09		-5.841934e+08
-9.177045e+08		-5.841934e+08		1.932860e+10
2.085232e+09		-3.283319e+08		-1.627790e+09
-3.283319e+08		1.970407e+09		-7.156574e+08
-1.627790e+09		-7.156574e+08		-2.280041e+10
1.136261e+09		-3.892859e+08		-7.820599e+08
-3.892859e+08		-1.542932e+09		1.662213e+09
-7.820599e+08		1.662213e+09		-2.502757e+10
8.924265e+08		6.424945e+07		-8.542000e+08
6.424945e+07		-4.049369e+09		3.178250e+09
-8.542000e+08		3.178250e+09		-2.655609e+10
1.374029e+09		8.713675e+06		-6.357199e+08
8.713675e+06		-4.018863e+09		1.215325e+09
-6.357199e+08		1.215325e+09		-2.577692e+10
1.318299e+09		2.638493e-04		-6.759185e+08
2.638493e-04		-4.869918e+09		-3.954098e-04
-6.759185e+08		-3.954098e-04		-2.545986e+10
1.374029e+09		-8.713675e+06		-6.357199e+08
-8.713675e+06		-4.018863e+09		-1.215325e+09
-6.357199e+08		-1.215325e+09		-2.577692e+10
8.924265e+08		-6.424945e+07		-8.542000e+08
-6.424945e+07		-4.049369e+09		-3.178250e+09
-8.542000e+08		-3.178250e+09		-2.655609e+10
1.136261e+09		3.892859e+08		-7.820599e+08
3.892859e+08		-1.542932e+09		-1.662213e+09
-7.820599e+08		-1.662213e+09		-2.502757e+10
2.085232e+09		3.283319e+08		-1.627790e+09
3.283319e+08		1.970407e+09		7.156574e+08
-1.627790e+09		7.156574e+08		-2.280041e+10
1.936224e+07		-2.305315e+07		6.755187e+08
-2.305315e+07		1.078930e+09		-1.032249e+09
6.755187e+08		-1.032249e+09		-1.739828e+10
-1.786964e+09		4.333925e+08		2.491742e+09
4.333925e+08		-4.039650e+09		1.998005e+09
2.491742e+09		1.998005e+09		-2.094685e+10
-1.545680e+09		2.477132e-05		3.016379e+09
2.477132e-05		-4.794902e+09		-2.671555e-04
3.016379e+09		-2.671555e-04		-2.013586e+10
-1.786964e+09		-4.333925e+08		2.491742e+09
-4.333925e+08		-4.039650e+09		-1.998005e+09
2.491742e+09		-1.998005e+09		-2.094685e+10
1.936224e+07		2.305315e+07		6.755187e+08
2.305315e+07		1.078930e+09		1.032249e+09
6.755187e+08		1.032249e+09		-1.739828e+10
-1.235417e+09		1.359549e+08		2.845057e+09
1.359549e+08		4.095906e+08		-5.314500e+08
2.845057e+09		-5.314500e+08		-1.213558e+10
-2.656169e+09		2.663709e+08		4.602690e+09
2.663709e+08		-1.959401e+09		6.173662e+08
4.602690e+09		6.173662e+08		-1.402266e+10
-3.551043e+09		6.484759e+08		5.364906e+09
6.484759e+08		-3.739057e+09		1.335458e+09
5.364906e+09		1.335458e+09		-1.539782e+10
-3.335583e+09		1.290746e+08		5.896836e+09
1.290746e+08		-3.845801e+09		5.007594e+08
5.896836e+09		5.007594e+08		-1.500437e+10
-3.417034e+09		-2.279356e-04		6.162150e+09
-2.279356e-04		-4.394779e+09		-3.491845e-04
6.162150e+09		-3.491845e-04		-1.487728e+10
-3.335583e+09		-1.290746e+08		5.896836e+09
-1.290746e+08		-3.845801e+09		-5.007594e+08
5.896836e+09		-5.007594e+08		-1.500437e+10
-3.551043e+09		-6.484759e+08		5.364906e+09
-6.484759e+08		-3.739057e+09		-1.335458e+09
5.364906e+09		-1.335458e+09		-1.539782e+10
-2.656169e+09		-2.663709e+08		4.602690e+09
-2.663709e+08		-1.959401e+09		-6.173662e+08
4.602690e+09		-6.173662e+08		-1.402266e+10
-1.235417e+09		-1.359549e+08		2.845057e+09
-1.359549e+08		4.095906e+08		5.314500e+08
2.845057e+09		5.314500e+08		-1.213558e+10
4.394308e+07		3.777661e+08		2.343404e+09
3.777661e+08		5.774200e+08		-2.616135e+08
2.343404e+09		-2.616135e+08		-5.644993e+09
-1.152091e+09		8.765319e+08		4.564812e+09
8.765319e+08		-1.522014e+09		6.613558e+08
4.564812e+09		6.613558e+08		-7.290501e+09
-1.067293e+09		-2.720244e-04		5.227407e+09
-2.720244e-04		-1.848307e+09		-2.170540e-04
5.227407e+09		-2.170540e-04		-7.014566e+09
-1.152091e+09		-8.765319e+08		4.564812e+09
-8.765319e+08		-1.522014e+09		-6.613558e+08
4.564812e+09		-6.613558e+08		-7.290501e+09
4.394308e+07		-3.777661e+08		2.343404e+09
-3.777661e+08		5.774200e+08		2.616135e+08
2.343404e+09		2.616135e+08		-5.644993e+09
-4.703924e-04		3.718356e+08		2.555082e+09
3.718356e+08		-1.160409e-04		2.792510e-04
2.555082e+09		2.792510e-04		-4.260242e-04
-1.376495e-04		5.857259e+08		4.287394e+09
5.857259e+08		-1.760870e-04		2.737250e-05
4.287394e+09		2.737250e-05		-5.175434e-04
4.524700e-04		1.011982e+09		4.907442e+09
1.011982e+09		-1.048390e-04		-1.126385e-04
4.907442e+09		-1.126385e-04		-4.862584e-04
1.097992e-04		2.701249e+08		5.394696e+09
2.701249e+08		-1.167562e-04		2.750894e-07
5.394696e+09		2.750894e-07		-4.703477e-04
1.487955e-04		1.792610e-05		5.553131e+09
1.792610e-05		-8.084252e-05		-9.377778e-05
5.553131e+09		-9.377778e-05		-3.965199e-04
-1.800135e-04		-2.701249e+08		5.394696e+09
-2.701249e+08		-4.795752e-05		-1.323102e-04
5.394696e+09		-1.323102e-04		-4.011728e-04
-8.743107e-04		-1.011982e+09		4.907442e+09
-1.011982e+09		-1.075007e-04		-1.520526e-04
4.907442e+09		-1.520526e-04		-5.790815e-04
-3.395677e-04		-5.857259e+08		4.287394e+09
-5.857259e+08		5.409308e-05		-1.277770e-04
4.287394e+09		-1.277770e-04		-3.481358e-04
2.906192e-04		-3.718356e+08		2.555082e+09
-3.718356e+08		2.613626e-04		-7.618219e-05
2.555082e+09		-7.618219e-05		-3.768504e-05
-4.394308e+07		3.777661e+08		2.343404e+09
3.777661e+08		-5.774200e+08		2.616135e+08
2.343404e+09		2.616135e+08		5.644993e+09
1.152091e+09		8.765319e+08		4.564812e+09
8.765319e+08		1.522014e+09		-6.613558e+08
4.564812e+09		-6.613558e+08		7.290501e+09
1.067293e+09		-2.043694e-05		5.227407e+09
-2.043694e-05		1.848307e+09		4.910398e-05
5.227407e+09		4.910398e-05		7.014566e+09
1.152091e+09		-8.765319e+08		4.564812e+09
-8.765319e+08		1.522014e+09		6.613558e+08
4.564812e+09		6.613558e+08		7.290501e+09
-4.394308e+07		-3.777661e+08		2.343404e+09
-3.777661e+08		-5.774200e+08		-2.616135e+08
2.343404e+09		-2.616135e+08		5.644993e+09
1.235417e+09		1.359549e+08		2.845057e+09
1.359549e+08		-4.095906e+08		5.314500e+08
2.845057e+09		5.314500e+08		1.213558e+10
2.656169e+09		2.663709e+08		4.602690e+09
2.663709e+08		1.959401e+09		-6.173662e+08
4.602690e+09		-6.173662e+08		1.402266e+10
3.551043e+09		6.484759e+08		5.364906e+09
6.484759e+08		3.739057e+09		-1.335458e+09
5.364906e+09		-1.335458e+09		1.539782e+10
3.335583e+09		1.290746e+08		5.896836e+09
1.290746e+08		3.845801e+09		-5.007594e+08
5.896836e+09		-5.007594e+08		1.500437e+10
3.417034e+09		3.563054e-05		6.162150e+09
3.563054e-05		4.394779e+09		1.913439e-04
6.162150e+09		1.913439e-04		1.487728e+10
3.335583e+09		-1.290746e+08		5.896836e+09
-1.290746e+08		3.845801e+09		5.007594e+08
5.896836e+09		5.007594e+08		1.500437e+10
3.551043e+09		-6.484759e+08		5.364906e+09
-6.484759e+08		3.739057e+09		1.335458e+09
5.364906e+09		1.335458e+09		1.539782e+10
2.656169e+09		-2.663709e+08		4.602690e+09
-2.663709e+08		1.959401e+09		6.173662e+08
4.602690e+09		6.173662e+08		1.402266e+10
1.235417e+09		-1.359549e+08		2.845057e+09
-1.359549e+08		-4.095906e+08		-5.314500e+08
2.845057e+09		-5.314500e+08		1.213558e+10
-1.936224e+07		-2.305315e+07		6.755187e+08
-2.305315e+07		-1.078930e+09		1.032249e+09
6.755187e+08		1.032249e+09		1.739828e+10
1.786964e+09		4.333925e+08		2.491742e+09
4.333925e+08		4.039650e+09		-1.998005e+09
2.491742e+09		-1.998005e+09		2.094685e+10
1.545680e+09		2.905764e-04		3.016379e+09
2.905764e-04		4.794902e+09		2.560671e-04
3.016379e+09		2.560671e-04		2.013586e+10
1.786964e+09		-4.333925e+08		2.491742e+09
-4.333925e+08		4.039650e+09		1.998005e+09
2.491742e+09		1.998005e+09		2.094685e+10
-1.936224e+07		2.305315e+07		6.755187e+08
2.305315e+07		-1.078930e+09		-1.032249e+09
6.755187e+08		-1.032249e+09		1.739828e+10
-2.085232e+09		-3.283319e+08		-1.627790e+09
-3.283319e+08		-1.970407e+09		7.156574e+08
-1.627790e+09		7.156574e+08		2.280041e+10
-1.136261e+09		-3.892859e+08		-7.820599e+08
-3.892859e+08		1.542932e+09		-1.662213e+09
-7.820599e+08		-1.662213e+09		2.502757e+10
-8.924265e+08		6.424945e+07		-8.542000e+08
6.424945e+07		4.049369e+09		-3.178250e+09
-8.542000e+08		-3.178250e+09		2.655609e+10
-1.374029e+09		8.713675e+06		-6.357199e+08
8.713675e+06		4.018863e+09		-1.215325e+09
-6.357199e+08		-1.215325e+09		2.577692e+10
-1.318299e+09		1.020469e-04		-6.759185e+08
1.020469e-04		4.869918e+09		5.251691e-04
-6.759185e+08		5.251691e-04		2.545986e+10
-1.374029e+09		-8.713675e+06		-6.357199e+08
-8.713675e+06		4.018863e+09		1.215325e+09
-6.357199e+08		1.215325e+09		2.577692e+10
-8.924265e+08		-6.424945e+07		-8.542000e+08
-6.424945e+07		4.049369e+09		3.178250e+09
-8.542000e+08		3.178250e+09		2.655609e+10
-1.136261e+09		3.892859e+08		-7.820599e+08
3.892859e+08		1.542932e+09		1.662213e+09
-7.820599e+08		1.662213e+09		2.502757e+10
-2.085232e+09		3.283319e+08		-1.627790e+09
3.283319e+08		-1.970407e+09		-7.156574e+08
-1.627790e+09		-7.156574e+08		2.280041e+10
-5.522716e+09		5.637649e+08		3.015738e+09
5.637649e+08		-5.671664e+09		5.865282e+09
3.015738e+09		5.865282e+09		-3.187625e+10
-5.516959e+09		2.141117e+07		5.393952e+09
2.141117e+07		-8.516471e+09		3.219753e+09
5.393952e+09		3.219753e+09		-3.091540e+10
-5.998012e+09		-1.278892e-04		5.627118e+09
-1.278892e-04		-1.038314e+10		-5.905032e-04
5.627118e+09		-5.905032e-04		-3.146299e+10
-5.516959e+09		-2.141117e+07		5.393952e+09
-2.141117e+07		-8.516471e+09		-3.219753e+09
5.393952e+09		-3.219753e+09		-3.091540e+10
-5.522716e+09		-5.637649e+08		3.015738e+09
-5.637649e+08		-5.671664e+09		-5.865282e+09
3.015738e+09		-5.865282e+09		-3.187625e+10
-3.205159e+09		4.524591e+08		6.905992e+08
4.524591e+08		-2.367328e+09		2.795110e+09
6.905992e+08		2.795110e+09		-1.424930e+10
-3.446112e+09		2.065728e+08		3.902018e+09
2.065728e+08		-3.715200e+09		1.382144e+09
3.902018e+09		1.382144e+09		-1.311672e+10
-3.612888e+09		2.734736e-05		4.346080e+09
2.734736e-05		-4.609487e+09		-2.949238e-04
4.346080e+09		-2.949238e-04		-1.311269e+10
-3.446112e+09		-2.065728e+08		3.902018e+09
-2.065728e+08		-3.715200e+09		-1.382144e+09
3.902018e+09		-1.382144e+09		-1.311672e+10
-3.205159e+09		-4.524591e+08		6.905992e+08
-4.524591e+08		-2.367328e+09		-2.795110e+09
6.905992e+08		-2.795110e+09		-1.424930e+10
-3.387332e-04		4.772170e+08		2.435753e+08
4.772170e+08		-1.024902e-04		7.290207e-05
2.435753e+08		7.290207e-05		-2.891123e-04
1.455247e-04		3.485559e+08		3.567178e+09
3.485559e+08		-7.680058e-05		-4.505145e-05
3.567178e+09		-4.505145e-05		-2.198666e-04
-2.690256e-04		-9.066239e-05		3.956382e+09
-9.066239e-05		-2.441108e-04		-1.985161e-05
3.956382e+09		-1.985161e-05		-5.187094e-04
8.285046e-06		-3.485559e+08		3.567178e+09
-3.485559e+08		9.804964e-05		-1.179930e-04
3.567178e+09		-1.179930e-04		-3.215075e-04
-1.197755e-04		-4.772170e+08		2.435753e+08
-4.772170e+08		-1.004189e-04		-2.818406e-04
2.435753e+08		-2.818406e-04		-5.596280e-04
3.205159e+09		4.524591e+08		6.905992e+08
4.524591e+08		2.367328e+09		-2.795110e+09
6.905992e+08		-2.795110e+09		1.424930e+10
3.446112e+09		2.065728e+08		3.902018e+09
2.065728e+08		3.715200e+09		-1.382144e+09
3.902018e+09		-1.382144e+09		1.311672e+10
3.612888e+09		3.188476e-05		4.346080e+09
3.188476e-05		4.609487e+09		2.387613e-04
4.346080e+09		2.387613e-04		1.311269e+10
3.446112e+09		-2.065728e+08		3.902018e+09
-2.065728e+08		3.715200e+09		1.382144e+09
3.902018e+09		1.382144e+09		1.311672e+10
3.205159e+09		-4.524591e+08		6.905992e+08
-4.524591e+08		2.367328e+09		2.795110e+09
6.905992e+08		2.795110e+09		1.424930e+10
5.522716e+09		5.637649e+08		3.015738e+09
5.637649e+08		5.671664e+09		-5.865282e+09
3.015738e+09		-5.865282e+09		3.187625e+10
5.516959e+09		2.141117e+07		5.393952e+09
2.141117e+07		8.516471e+09		-3.219753e+09
5.393952e+09		-3.219753e+09		3.091540e+10
5.998012e+09		1.571057e-04		5.627118e+09
1.571057e-04		1.038314e+10		4.565716e-04
5.627118e+09		4.565716e-04		3.146299e+10
5.516959e+09		-2.141117e+07		5.393952e+09
-2.141117e+07		8.516471e+09		3.219753e+09
5.393952e+09		3.219753e+09		3.091540e+10
5.522716e+09		-5.637649e+08		3.015738e+09
-5.637649e+08		5.671664e+09		5.865282e+09
3.015738e+09		5.865282e+09		3.187625e+10
-1.982855e+10		-4.931688e-04		9.507704e+09
-4.931688e-04		-1.982855e+10		1.425327e+10
9.507704e+09		1.425327e+10		-4.413451e+10
-1.737529e+10		-4.357239e-05		1.132476e+10
-4.357239e-05		-1.737529e+10		8.005119e+09
1.132476e+10		8.005119e+09		-3.867402e+10
-1.609538e+10		1.552036e-04		1.244870e+10
1.552036e-04		-1.609538e+10		2.882994e+09
1.244870e+10		2.882994e+09		-3.582521e+10
-1.666608e+10		5.716644e-05		1.299724e+10
5.716644e-05		-1.666608e+10		1.233976e+09
1.299724e+10		1.233976e+09		-3.709548e+10
-1.736116e+10		-4.719403e-04		1.317664e+10
-4.719403e-04		-1.736116e+10		-6.645024e-04
1.317664e+10		-6.645024e-04		-3.864259e+10
-1.666608e+10		-1.733564e-04		1.299724e+10
-1.733564e-04		-1.666608e+10		-1.233976e+09
1.299724e+10		-1.233976e+09		-3.709548e+10
-1.609538e+10		1.126281e-04		1.244870e+10
1.126281e-04		-1.609538e+10		-2.882994e+09
1.244870e+10		-2.882994e+09		-3.582521e+10
-1.737529e+10		-1.528636e-04		1.132476e+10
-1.528636e-04		-1.737529e+10		-8.005119e+09
1.132476e+10		-8.005119e+09		-3.867402e+10
-1.982855e+10		-3.983974e-04		9.507704e+09
-3.983974e-04		-1.982855e+10		-1.425327e+10
9.507704e+09		-1.425327e+10		-4.413451e+10
-1.323881e+10		1.463378e-04		3.187260e+09
1.463378e-04		-1.323881e+10		1.060566e+10
3.187260e+09		1.060566e+10		-2.946703e+10
-9.480577e+09		9.519188e-05		6.109113e+09
9.519188e-05		-9.480577e+09		2.132042e+09
6.109113e+09		2.132042e+09		-2.110193e+10
-1.020607e+10		2.837693e-05		6.538319e+09
2.837693e-05		-1.020607e+10		-3.930479e-04
6.538319e+09		-3.930479e-04		-2.271674e+10
-9.480577e+09		-2.631135e-04		6.109113e+09
-2.631135e-04		-9.480577e+09		-2.132042e+09
6.109113e+09		-2.132042e+09		-2.110193e+10
-1.323881e+10		8.129328e-05		3.187260e+09
8.129328e-05		-1.323881e+10		-1.060566e+10
3.187260e+09		-1.060566e+10		-2.946703e+10
-7.617683e+09		8.062623e-05		-1.590617e+09
8.062623e-05		-7.617683e+09		7.003988e+09
-1.590617e+09		7.003988e+09		-1.695549e+10
-5.807516e+09		-1.797229e-04		4.989458e+08
-1.797229e-04		-5.807516e+09		3.910174e+09
4.989458e+08		3.910174e+09		-1.292641e+10
-4.614208e+09		-1.658195e-04		1.738279e+09
-1.658195e-04		-4.614208e+09		1.414637e+09
1.738279e+09		1.414637e+09		-1.027033e+10
-4.735005e+09		-1.091666e-04		1.960218e+09
-1.091666e-04		-4.735005e+09		5.819406e+08
1.960218e+09		5.819406e+08		-1.053920e+10
-5.001333e+09		-7.342990e-05		1.920593e+09
-7.342990e-05		-5.001333e+09		-1.936910e-04
1.920593e+09		-1.936910e-04		-1.113200e+10
-4.735005e+09		-1.575835e-04		1.960218e+09
-1.575835e-04		-4.735005e+09		-5.819406e+08
1.960218e+09		-5.819406e+08		-1.053920e+10
-4.614208e+09		1.247653e-04		1.738279e+09
1.247653e-04		-4.614208e+09		-1.414637e+09
1.738279e+09		-1.414637e+09		-1.027033e+10
-5.807516e+09		4.223548e-05		4.989458e+08
4.223548e-05		-5.807516e+09		-3.910174e+09
4.989458e+08		-3.910174e+09		-1.292641e+10
-7.617683e+09		-1.196293e-04		-1.590617e+09
-1.196293e-04		-7.617683e+09		-7.003988e+09
-1.590617e+09		-7.003988e+09		-1.695549e+10
-3.611583e+09		2.574404e-04		-2.029634e+09
2.574404e-04		-3.611583e+09		3.551231e+09
-2.029634e+09		3.551231e+09		-8.038684e+09
-2.085509e+09		1.083189e-04		1.300214e+09
1.083189e-04		-2.085509e+09		7.240979e+08
1.300214e+09		7.240979e+08		-4.641940e+09
-2.267537e+09		-4.093489e-05		1.503179e+09
-4.093489e-05		-2.267537e+09		-4.978850e-06
1.503179e+09		-4.978850e-06		-5.047099e+09
-2.085509e+09		-1.096111e-04		1.300214e+09
-1.096111e-04		-2.085509e+09		-7.240979e+08
1.300214e+09		-7.240979e+08		-4.641940e+09
-3.611583e+09		-6.096065e-05		-2.029634e+09
-6.096065e-05		-3.611583e+09		-3.551231e+09
-2.029634e+09		-3.551231e+09		-8.038684e+09
3.918260e-05		-2.019586e-04		-1.769455e+09
-2.019586e-04		1.553074e-05		7.662736e-05
-1.769455e+09		7.662736e-05		2.560019e-05
-1.230836e-05		-4.571778e-05		4.235521e+08
-4.571778e-05		-2.998114e-05		3.309548e-05
4.235521e+08		3.309548e-05		-8.603930e-05
-6.506592e-05		-1.477088e-04		1.594838e+09
-1.477088e-04		-4.984438e-06		2.676575e-05
1.594838e+09		2.676575e-05		4.409254e-05
-1.110286e-04		-3.552833e-05		1.854442e+09
-3.552833e-05		-1.105815e-04		9.050639e-05
1.854442e+09		9.050639e-05		-2.472699e-04
-5.613267e-05		-4.680210e-05		1.882492e+09
-4.680210e-05		-1.575109e-04		1.197495e-04
1.882492e+09		1.197495e-04		-4.510507e-04
-2.488196e-04		-6.290618e-06		1.854442e+09
-6.290618e-06		-2.249926e-04		5.637109e-05
1.854442e+09		5.637109e-05		-4.766285e-04
-6.630309e-04		-2.906786e-04		1.594838e+09
-2.906786e-04		-4.056767e-04		-9.058416e-05
1.594838e+09		-9.058416e-05		-6.315038e-04
-3.284514e-04		-7.686112e-05		4.235521e+08
-7.686112e-05		-3.007203e-04		-2.695471e-04
4.235521e+08		-2.695471e-04		-6.414652e-04
-3.081560e-04		-6.432366e-05		-1.769455e+09
-6.432366e-05		-3.474355e-04		-3.920197e-04
-1.769455e+09		-3.920197e-04		-8.109808e-04
3.611583e+09		-8.126175e-05		-2.029634e+09
-8.126175e-05		3.611583e+09		-3.551231e+09
-2.029634e+09		-3.551231e+09		8.038684e+09
2.085509e+09		1.109285e-04		1.300214e+09
1.109285e-04		2.085509e+09		-7.240979e+08
1.300214e+09		-7.240979e+08		4.641940e+09
2.267537e+09		-7.720664e-07		1.503179e+09
-7.720664e-07		2.267537e+09		1.138747e-04
1.503179e+09		1.138747e-04		5.047099e+09
2.085509e+09		8.654967e-05		1.300214e+09
8.654967e-05		2.085509e+09		7.240979e+08
1.300214e+09		7.240979e+08		4.641940e+09
3.611583e+09		9.584427e-05		-2.029634e+09
9.584427e-05		3.611583e+09		3.551231e+09
-2.029634e+09		3.551231e+09		8.038684e+09
7.617683e+09		-4.271434e-04		-1.590617e+09
-4.271434e-04		7.617683e+09		-7.003988e+09
-1.590617e+09		-7.003988e+09		1.695549e+10
5.807516e+09		-2.804398e-04		4.989458e+08
-2.804398e-04		5.807516e+09		-3.910174e+09
4.989458e+08		-3.910174e+09		1.292641e+10
4.614208e+09		-2.984747e-04		1.738279e+09
-2.984747e-04		4.614208e+09		-1.414637e+09
1.738279e+09		-1.414637e+09		1.027033e+10
4.735005e+09		-1.768576e-04		1.960218e+09
-1.768576e-04		4.735005e+09		-5.819406e+08
1.960218e+09		-5.819406e+08		1.053920e+10
5.001333e+09		-1.696297e-04		1.920593e+09
-1.696297e-04		5.001333e+09		1.992825e-04
1.920593e+09		1.992825e-04		1.113200e+10
4.735005e+09		-1.471437e-04		1.960218e+09
-1.471437e-04		4.735005e+09		5.819406e+08
1.960218e+09		5.819406e+08		1.053920e+10
4.614208e+09		-9.357580e-05		1.738279e+09
-9.357580e-05		4.614208e+09		1.414637e+09
1.738279e+09		1.414637e+09		1.027033e+10
5.807516e+09		-2.713464e-04		4.989458e+08
-2.713464e-04		5.807516e+09		3.910174e+09
4.989458e+08		3.910174e+09		1.292641e+10
7.617683e+09		-4.132837e-05		-1.590617e+09
-4.132837e-05		7.617683e+09		7.003988e+09
-1.590617e+09		7.003988e+09		1.695549e+10
1.323881e+10		-4.214747e-05		3.187260e+09
-4.214747e-05		1.323881e+10		-1.060566e+10
3.187260e+09		-1.060566e+10		2.946703e+10
9.480577e+09		5.544600e-06		6.109113e+09
5.544600e-06		9.480577e+09		-2.132042e+09
6.109113e+09		-2.132042e+09		2.110193e+10
1.020607e+10		-2.423228e-04		6.538319e+09
-2.423228e-04		1.020607e+10		3.246218e-04
6.538319e+09		3.246218e-04		2.271674e+10
9.480577e+09		-2.878492e-04		6.109113e+09
-2.878492e-04		9.480577e+09		2.132042e+09
6.109113e+09		2.132042e+09		2.110193e+10
1.323881e+10		9.551644e-06		3.187260e+09
9.551644e-06		1.323881e+10		1.060566e+10
3.187260e+09		1.060566e+10		2.946703e+10
1.982855e+10		-5.310574e-04		9.507704e+09
-5.310574e-04		1.982855e+10		-1.425327e+10
9.507704e+09		-1.425327e+10		4.413451e+10
1.737529e+10		6.434973e-05		1.132476e+10
6.434973e-05		1.737529e+10		-8.005119e+09
1.132476e+10		-8.005119e+09		3.867402e+10
1.609538e+10		-2.518354e-05		1.244870e+10
-2.518354e-05		1.609538e+10		-2.882994e+09
1.244870e+10		-2.882994e+09		3.582521e+10
1.666608e+10		-2.421145e-04		1.299724e+10
-2.421145e-04		1.666608e+10		-1.233976e+09
1.299724e+10		-1.233976e+09		3.709548e+10
1.736116e+10		-3.076616e-04		1.317664e+10
-3.076616e-04		1.736116e+10		6.026030e-04
1.317664e+10		6.026030e-04		3.864259e+10
1.666608e+10		-1.936425e-04		1.299724e+10
-1.936425e-04		1.666608e+10		1.233976e+09
1.299724e+10		1.233976e+09		3.709548e+10
1.609538e+10		-2.428368e-04		1.244870e+10
-2.428368e-04		1.609538e+10		2.882994e+09
1.244870e+10		2.882994e+09		3.582521e+10
1.737529e+10		-3.655255e-05		1.132476e+10
-3.655255e-05		1.737529e+10		8.005119e+09
1.132476e+10		8.005119e+09		3.867402e+10
1.982855e+10		-6.449223e-05		9.507704e+09
-6.449223e-05		1.982855e+10		1.425327e+10
9.507704e+09		1.425327e+10		4.413451e+10
