# vtk DataFile Version 3.0
output from step 9
ASCII
DATASET UNSTRUCTURED_GRID
POINTS 1325 double
-5.000000e-01		-5.000000e-01		-1.500000e+00
-5.000000e-01		-3.750000e-01		-1.500000e+00
-5.000000e-01		-2.500000e-01		-1.500000e+00
-5.000000e-01		-1.250000e-01		-1.500000e+00
-5.000000e-01		0.000000e+00		-1.500000e+00
-5.000000e-01		1.250000e-01		-1.500000e+00
-5.000000e-01		2.500000e-01		-1.500000e+00
-5.000000e-01		3.750000e-01		-1.500000e+00
-5.000000e-01		5.000000e-01		-1.500000e+00
-3.750000e-01		-5.000000e-01		-1.500000e+00
-3.750000e-01		-2.500000e-01		-1.500000e+00
-3.750000e-01		0.000000e+00		-1.500000e+00
-3.750000e-01		2.500000e-01		-1.500000e+00
-3.750000e-01		5.000000e-01		-1.500000e+00
-2.500000e-01		-5.000000e-01		-1.500000e+00
-2.500000e-01		-3.750000e-01		-1.500000e+00
-2.500000e-01		-2.500000e-01		-1.500000e+00
-2.500000e-01		-1.250000e-01		-1.500000e+00
-2.500000e-01		0.000000e+00		-1.500000e+00
-2.500000e-01		1.250000e-01		-1.500000e+00
-2.500000e-01		2.500000e-01		-1.500000e+00
-2.500000e-01		3.750000e-01		-1.500000e+00
-2.500000e-01		5.000000e-01		-1.500000e+00
-1.250000e-01		-5.000000e-01		-1.500000e+00
-1.250000e-01		-2.500000e-01		-1.500000e+00
-1.250000e-01		0.000000e+00		-1.500000e+00
-1.250000e-01		2.500000e-01		-1.500000e+00
-1.250000e-01		5.000000e-01		-1.500000e+00
0.000000e+00		-5.000000e-01		-1.500000e+00
0.000000e+00		-3.750000e-01		-1.500000e+00
0.000000e+00		-2.500000e-01		-1.500000e+00
0.000000e+00		-1.250000e-01		-1.500000e+00
0.000000e+00		0.000000e+00		-1.500000e+00
0.000000e+00		1.250000e-01		-1.500000e+00
0.000000e+00		2.500000e-01		-1.500000e+00
0.000000e+00		3.750000e-01		-1.500000e+00
0.000000e+00		5.000000e-01		-1.500000e+00
1.250000e-01		-5.000000e-01		-1.500000e+00
1.250000e-01		-2.500000e-01		-1.500000e+00
1.250000e-01		0.000000e+00		-1.500000e+00
1.250000e-01		2.500000e-01		-1.500000e+00
1.250000e-01		5.000000e-01		-1.500000e+00
2.500000e-01		-5.000000e-01		-1.500000e+00
2.500000e-01		-3.750000e-01		-1.500000e+00
2.500000e-01		-2.500000e-01		-1.500000e+00
2.500000e-01		-1.250000e-01		-1.500000e+00
2.500000e-01		0.000000e+00		-1.500000e+00
2.500000e-01		1.250000e-01		-1.500000e+00
2.500000e-01		2.500000e-01		-1.500000e+00
2.500000e-01		3.750000e-01		-1.500000e+00
2.500000e-01		5.000000e-01		-1.500000e+00
3.750000e-01		-5.000000e-01		-1.500000e+00
3.750000e-01		-2.500000e-01		-1.500000e+00
3.750000e-01		0.000000e+00		-1.500000e+00
3.750000e-01		2.500000e-01		-1.500000e+00
3.750000e-01		5.000000e-01		-1.500000e+00
5.000000e-01		-5.000000e-01		-1.500000e+00
5.000000e-01		-3.750000e-01		-1.500000e+00
5.000000e-01		-2.500000e-01		-1.500000e+00
5.000000e-01		-1.250000e-01		-1.500000e+00
5.000000e-01		0.000000e+00		-1.500000e+00
5.000000e-01		1.250000e-01		-1.500000e+00
5.000000e-01		2.500000e-01		-1.500000e+00
5.000000e-01		3.750000e-01		-1.500000e+00
5.000000e-01		5.000000e-01		-1.500000e+00
-5.000000e-01		-5.000000e-01		-1.392857e+00
-5.000000e-01		-2.500000e-01		-1.392857e+00
-5.000000e-01		0.000000e+00		-1.392857e+00
-5.000000e-01		2.500000e-01		-1.392857e+00
-5.000000e-01		5.000000e-01		-1.392857e+00
-2.500000e-01		-5.000000e-01		-1.392857e+00
-2.500000e-01		-2.500000e-01		-1.392857e+00
-2.500000e-01		0.000000e+00		-1.392857e+00
-2.500000e-01		2.500000e-01		-1.392857e+00
-2.500000e-01		5.000000e-01		-1.392857e+00
0.000000e+00		-5.000000e-01		-1.392857e+00
0.000000e+00		-2.500000e-01		-1.392857e+00
0.000000e+00		0.000000e+00		-1.392857e+00
0.000000e+00		2.500000e-01		-1.392857e+00
0.000000e+00		5.000000e-01		-1.392857e+00
2.500000e-01		-5.000000e-01		-1.392857e+00
2.500000e-01		-2.500000e-01		-1.392857e+00
2.500000e-01		0.000000e+00		-1.392857e+00
2.500000e-01		2.500000e-01		-1.392857e+00
2.500000e-01		5.000000e-01		-1.392857e+00
5.000000e-01		-5.000000e-01		-1.392857e+00
5.000000e-01		-2.500000e-01		-1.392857e+00
5.000000e-01		0.000000e+00		-1.392857e+00
5.000000e-01		2.500000e-01		-1.392857e+00
5.000000e-01		5.000000e-01		-1.392857e+00
-5.000000e-01		-5.000000e-01		-1.285714e+00
-5.000000e-01		-3.750000e-01		-1.285714e+00
-5.000000e-01		-2.500000e-01		-1.285714e+00
-5.000000e-01		-1.250000e-01		-1.285714e+00
-5.000000e-01		0.000000e+00		-1.285714e+00
-5.000000e-01		1.250000e-01		-1.285714e+00
-5.000000e-01		2.500000e-01		-1.285714e+00
-5.000000e-01		3.750000e-01		-1.285714e+00
-5.000000e-01		5.000000e-01		-1.285714e+00
-3.750000e-01		-5.000000e-01		-1.285714e+00
-3.750000e-01		-2.500000e-01		-1.285714e+00
-3.750000e-01		0.000000e+00		-1.285714e+00
-3.750000e-01		2.500000e-01		-1.285714e+00
-3.750000e-01		5.000000e-01		-1.285714e+00
-2.500000e-01		-5.000000e-01		-1.285714e+00
-2.500000e-01		-3.750000e-01		-1.285714e+00
-2.500000e-01		-2.500000e-01		-1.285714e+00
-2.500000e-01		-1.250000e-01		-1.285714e+00
-2.500000e-01		0.000000e+00		-1.285714e+00
-2.500000e-01		1.250000e-01		-1.285714e+00
-2.500000e-01		2.500000e-01		-1.285714e+00
-2.500000e-01		3.750000e-01		-1.285714e+00
-2.500000e-01		5.000000e-01		-1.285714e+00
-1.250000e-01		-5.000000e-01		-1.285714e+00
-1.250000e-01		-2.500000e-01		-1.285714e+00
-1.250000e-01		0.000000e+00		-1.285714e+00
-1.250000e-01		2.500000e-01		-1.285714e+00
-1.250000e-01		5.000000e-01		-1.285714e+00
0.000000e+00		-5.000000e-01		-1.285714e+00
0.000000e+00		-3.750000e-01		-1.285714e+00
0.000000e+00		-2.500000e-01		-1.285714e+00
0.000000e+00		-1.250000e-01		-1.285714e+00
0.000000e+00		0.000000e+00		-1.285714e+00
0.000000e+00		1.250000e-01		-1.285714e+00
0.000000e+00		2.500000e-01		-1.285714e+00
0.000000e+00		3.750000e-01		-1.285714e+00
0.000000e+00		5.000000e-01		-1.285714e+00
1.250000e-01		-5.000000e-01		-1.285714e+00
1.250000e-01		-2.500000e-01		-1.285714e+00
1.250000e-01		0.000000e+00		-1.285714e+00
1.250000e-01		2.500000e-01		-1.285714e+00
1.250000e-01		5.000000e-01		-1.285714e+00
2.500000e-01		-5.000000e-01		-1.285714e+00
2.500000e-01		-3.750000e-01		-1.285714e+00
2.500000e-01		-2.500000e-01		-1.285714e+00
2.500000e-01		-1.250000e-01		-1.285714e+00
2.500000e-01		0.000000e+00		-1.285714e+00
2.500000e-01		1.250000e-01		-1.285714e+00
2.500000e-01		2.500000e-01		-1.285714e+00
2.500000e-01		3.750000e-01		-1.285714e+00
2.500000e-01		5.000000e-01		-1.285714e+00
3.750000e-01		-5.000000e-01		-1.285714e+00
3.750000e-01		-2.500000e-01		-1.285714e+00
3.750000e-01		0.000000e+00		-1.285714e+00
3.750000e-01		2.500000e-01		-1.285714e+00
3.750000e-01		5.000000e-01		-1.285714e+00
5.000000e-01		-5.000000e-01		-1.285714e+00
5.000000e-01		-3.750000e-01		-1.285714e+00
5.000000e-01		-2.500000e-01		-1.285714e+00
5.000000e-01		-1.250000e-01		-1.285714e+00
5.000000e-01		0.000000e+00		-1.285714e+00
5.000000e-01		1.250000e-01		-1.285714e+00
5.000000e-01		2.500000e-01		-1.285714e+00
5.000000e-01		3.750000e-01		-1.285714e+00
5.000000e-01		5.000000e-01		-1.285714e+00
-5.000000e-01		-5.000000e-01		-1.178571e+00
-5.000000e-01		-2.500000e-01		-1.178571e+00
-5.000000e-01		0.000000e+00		-1.178571e+00
-5.000000e-01		2.500000e-01		-1.178571e+00
-5.000000e-01		5.000000e-01		-1.178571e+00
-2.500000e-01		-5.000000e-01		-1.178571e+00
-2.500000e-01		-2.500000e-01		-1.178571e+00
-2.500000e-01		0.000000e+00		-1.178571e+00
-2.500000e-01		2.500000e-01		-1.178571e+00
-2.500000e-01		5.000000e-01		-1.178571e+00
0.000000e+00		-5.000000e-01		-1.178571e+00
0.000000e+00		-2.500000e-01		-1.178571e+00
0.000000e+00		0.000000e+00		-1.178571e+00
0.000000e+00		2.500000e-01		-1.178571e+00
0.000000e+00		5.000000e-01		-1.178571e+00
2.500000e-01		-5.000000e-01		-1.178571e+00
2.500000e-01		-2.500000e-01		-1.178571e+00
2.500000e-01		0.000000e+00		-1.178571e+00
2.500000e-01		2.500000e-01		-1.178571e+00
2.500000e-01		5.000000e-01		-1.178571e+00
5.000000e-01		-5.000000e-01		-1.178571e+00
5.000000e-01		-2.500000e-01		-1.178571e+00
5.000000e-01		0.000000e+00		-1.178571e+00
5.000000e-01		2.500000e-01		-1.178571e+00
5.000000e-01		5.000000e-01		-1.178571e+00
-5.000000e-01		-5.000000e-01		-1.071429e+00
-5.000000e-01		-3.750000e-01		-1.071429e+00
-5.000000e-01		-2.500000e-01		-1.071429e+00
-5.000000e-01		-1.250000e-01		-1.071429e+00
-5.000000e-01		0.000000e+00		-1.071429e+00
-5.000000e-01		1.250000e-01		-1.071429e+00
-5.000000e-01		2.500000e-01		-1.071429e+00
-5.000000e-01		3.750000e-01		-1.071429e+00
-5.000000e-01		5.000000e-01		-1.071429e+00
-3.750000e-01		-5.000000e-01		-1.071429e+00
-3.750000e-01		-2.500000e-01		-1.071429e+00
-3.750000e-01		0.000000e+00		-1.071429e+00
-3.750000e-01		2.500000e-01		-1.071429e+00
-3.750000e-01		5.000000e-01		-1.071429e+00
-2.500000e-01		-5.000000e-01		-1.071429e+00
-2.500000e-01		-3.750000e-01		-1.071429e+00
-2.500000e-01		-2.500000e-01		-1.071429e+00
-2.500000e-01		-1.250000e-01		-1.071429e+00
-2.500000e-01		0.000000e+00		-1.071429e+00
-2.500000e-01		1.250000e-01		-1.071429e+00
-2.500000e-01		2.500000e-01		-1.071429e+00
-2.500000e-01		3.750000e-01		-1.071429e+00
-2.500000e-01		5.000000e-01		-1.071429e+00
-1.250000e-01		-5.000000e-01		-1.071429e+00
-1.250000e-01		-2.500000e-01		-1.071429e+00
-1.250000e-01		0.000000e+00		-1.071429e+00
-1.250000e-01		2.500000e-01		-1.071429e+00
-1.250000e-01		5.000000e-01		-1.071429e+00
0.000000e+00		-5.000000e-01		-1.071429e+00
0.000000e+00		-3.750000e-01		-1.071429e+00
0.000000e+00		-2.500000e-01		-1.071429e+00
0.000000e+00		-1.250000e-01		-1.071429e+00
0.000000e+00		0.000000e+00		-1.071429e+00
0.000000e+00		1.250000e-01		-1.071429e+00
0.000000e+00		2.500000e-01		-1.071429e+00
0.000000e+00		3.750000e-01		-1.071429e+00
0.000000e+00		5.000000e-01		-1.071429e+00
1.250000e-01		-5.000000e-01		-1.071429e+00
1.250000e-01		-2.500000e-01		-1.071429e+00
1.250000e-01		0.000000e+00		-1.071429e+00
1.250000e-01		2.500000e-01		-1.071429e+00
1.250000e-01		5.000000e-01		-1.071429e+00
2.500000e-01		-5.000000e-01		-1.071429e+00
2.500000e-01		-3.750000e-01		-1.071429e+00
2.500000e-01		-2.500000e-01		-1.071429e+00
2.500000e-01		-1.250000e-01		-1.071429e+00
2.500000e-01		0.000000e+00		-1.071429e+00
2.500000e-01		1.250000e-01		-1.071429e+00
2.500000e-01		2.500000e-01		-1.071429e+00
2.500000e-01		3.750000e-01		-1.071429e+00
2.500000e-01		5.000000e-01		-1.071429e+00
3.750000e-01		-5.000000e-01		-1.071429e+00
3.750000e-01		-2.500000e-01		-1.071429e+00
3.750000e-01		0.000000e+00		-1.071429e+00
3.750000e-01		2.500000e-01		-1.071429e+00
3.750000e-01		5.000000e-01		-1.071429e+00
5.000000e-01		-5.000000e-01		-1.071429e+00
5.000000e-01		-3.750000e-01		-1.071429e+00
5.000000e-01		-2.500000e-01		-1.071429e+00
5.000000e-01		-1.250000e-01		-1.071429e+00
5.000000e-01		0.000000e+00		-1.071429e+00
5.000000e-01		1.250000e-01		-1.071429e+00
5.000000e-01		2.500000e-01		-1.071429e+00
5.000000e-01		3.750000e-01		-1.071429e+00
5.000000e-01		5.000000e-01		-1.071429e+00
-5.000000e-01		-5.000000e-01		-9.642857e-01
-5.000000e-01		-2.500000e-01		-9.642857e-01
-5.000000e-01		0.000000e+00		-9.642857e-01
-5.000000e-01		2.500000e-01		-9.642857e-01
-5.000000e-01		5.000000e-01		-9.642857e-01
-2.500000e-01		-5.000000e-01		-9.642857e-01
-2.500000e-01		-2.500000e-01		-9.642857e-01
-2.500000e-01		0.000000e+00		-9.642857e-01
-2.500000e-01		2.500000e-01		-9.642857e-01
-2.500000e-01		5.000000e-01		-9.642857e-01
0.000000e+00		-5.000000e-01		-9.642857e-01
0.000000e+00		-2.500000e-01		-9.642857e-01
0.000000e+00		0.000000e+00		-9.642857e-01
0.000000e+00		2.500000e-01		-9.642857e-01
0.000000e+00		5.000000e-01		-9.642857e-01
2.500000e-01		-5.000000e-01		-9.642857e-01
2.500000e-01		-2.500000e-01		-9.642857e-01
2.500000e-01		0.000000e+00		-9.642857e-01
2.500000e-01		2.500000e-01		-9.642857e-01
2.500000e-01		5.000000e-01		-9.642857e-01
5.000000e-01		-5.000000e-01		-9.642857e-01
5.000000e-01		-2.500000e-01		-9.642857e-01
5.000000e-01		0.000000e+00		-9.642857e-01
5.000000e-01		2.500000e-01		-9.642857e-01
5.000000e-01		5.000000e-01		-9.642857e-01
-5.000000e-01		-5.000000e-01		-8.571429e-01
-5.000000e-01		-3.750000e-01		-8.571429e-01
-5.000000e-01		-2.500000e-01		-8.571429e-01
-5.000000e-01		-1.250000e-01		-8.571429e-01
-5.000000e-01		0.000000e+00		-8.571429e-01
-5.000000e-01		1.250000e-01		-8.571429e-01
-5.000000e-01		2.500000e-01		-8.571429e-01
-5.000000e-01		3.750000e-01		-8.571429e-01
-5.000000e-01		5.000000e-01		-8.571429e-01
-3.750000e-01		-5.000000e-01		-8.571429e-01
-3.750000e-01		-2.500000e-01		-8.571429e-01
-3.750000e-01		0.000000e+00		-8.571429e-01
-3.750000e-01		2.500000e-01		-8.571429e-01
-3.750000e-01		5.000000e-01		-8.571429e-01
-2.500000e-01		-5.000000e-01		-8.571429e-01
-2.500000e-01		-3.750000e-01		-8.571429e-01
-2.500000e-01		-2.500000e-01		-8.571429e-01
-2.500000e-01		-1.250000e-01		-8.571429e-01
-2.500000e-01		0.000000e+00		-8.571429e-01
-2.500000e-01		1.250000e-01		-8.571429e-01
-2.500000e-01		2.500000e-01		-8.571429e-01
-2.500000e-01		3.750000e-01		-8.571429e-01
-2.500000e-01		5.000000e-01		-8.571429e-01
-1.250000e-01		-5.000000e-01		-8.571429e-01
-1.250000e-01		-2.500000e-01		-8.571429e-01
-1.250000e-01		0.000000e+00		-8.571429e-01
-1.250000e-01		2.500000e-01		-8.571429e-01
-1.250000e-01		5.000000e-01		-8.571429e-01
0.000000e+00		-5.000000e-01		-8.571429e-01
0.000000e+00		-3.750000e-01		-8.571429e-01
0.000000e+00		-2.500000e-01		-8.571429e-01
0.000000e+00		-1.250000e-01		-8.571429e-01
0.000000e+00		0.000000e+00		-8.571429e-01
0.000000e+00		1.250000e-01		-8.571429e-01
0.000000e+00		2.500000e-01		-8.571429e-01
0.000000e+00		3.750000e-01		-8.571429e-01
0.000000e+00		5.000000e-01		-8.571429e-01
1.250000e-01		-5.000000e-01		-8.571429e-01
1.250000e-01		-2.500000e-01		-8.571429e-01
1.250000e-01		0.000000e+00		-8.571429e-01
1.250000e-01		2.500000e-01		-8.571429e-01
1.250000e-01		5.000000e-01		-8.571429e-01
2.500000e-01		-5.000000e-01		-8.571429e-01
2.500000e-01		-3.750000e-01		-8.571429e-01
2.500000e-01		-2.500000e-01		-8.571429e-01
2.500000e-01		-1.250000e-01		-8.571429e-01
2.500000e-01		0.000000e+00		-8.571429e-01
2.500000e-01		1.250000e-01		-8.571429e-01
2.500000e-01		2.500000e-01		-8.571429e-01
2.500000e-01		3.750000e-01		-8.571429e-01
2.500000e-01		5.000000e-01		-8.571429e-01
3.750000e-01		-5.000000e-01		-8.571429e-01
3.750000e-01		-2.500000e-01		-8.571429e-01
3.750000e-01		0.000000e+00		-8.571429e-01
3.750000e-01		2.500000e-01		-8.571429e-01
3.750000e-01		5.000000e-01		-8.571429e-01
5.000000e-01		-5.000000e-01		-8.571429e-01
5.000000e-01		-3.750000e-01		-8.571429e-01
5.000000e-01		-2.500000e-01		-8.571429e-01
5.000000e-01		-1.250000e-01		-8.571429e-01
5.000000e-01		0.000000e+00		-8.571429e-01
5.000000e-01		1.250000e-01		-8.571429e-01
5.000000e-01		2.500000e-01		-8.571429e-01
5.000000e-01		3.750000e-01		-8.571429e-01
5.000000e-01		5.000000e-01		-8.571429e-01
-5.000000e-01		-5.000000e-01		-7.500000e-01
-5.000000e-01		-2.500000e-01		-7.500000e-01
-5.000000e-01		0.000000e+00		-7.500000e-01
-5.000000e-01		2.500000e-01		-7.500000e-01
-5.000000e-01		5.000000e-01		-7.500000e-01
-2.500000e-01		-5.000000e-01		-7.500000e-01
-2.500000e-01		-2.500000e-01		-7.500000e-01
-2.500000e-01		0.000000e+00		-7.500000e-01
-2.500000e-01		2.500000e-01		-7.500000e-01
-2.500000e-01		5.000000e-01		-7.500000e-01
0.000000e+00		-5.000000e-01		-7.500000e-01
0.000000e+00		-2.500000e-01		-7.500000e-01
0.000000e+00		0.000000e+00		-7.500000e-01
0.000000e+00		2.500000e-01		-7.500000e-01
0.000000e+00		5.000000e-01		-7.500000e-01
2.500000e-01		-5.000000e-01		-7.500000e-01
2.500000e-01		-2.500000e-01		-7.500000e-01
2.500000e-01		0.000000e+00		-7.500000e-01
2.500000e-01		2.500000e-01		-7.500000e-01
2.500000e-01		5.000000e-01		-7.500000e-01
5.000000e-01		-5.000000e-01		-7.500000e-01
5.000000e-01		-2.500000e-01		-7.500000e-01
5.000000e-01		0.000000e+00		-7.500000e-01
5.000000e-01		2.500000e-01		-7.500000e-01
5.000000e-01		5.000000e-01		-7.500000e-01
-5.000000e-01		-5.000000e-01		-6.428571e-01
-5.000000e-01		-3.750000e-01		-6.428571e-01
-5.000000e-01		-2.500000e-01		-6.428571e-01
-5.000000e-01		-1.250000e-01		-6.428571e-01
-5.000000e-01		0.000000e+00		-6.428571e-01
-5.000000e-01		1.250000e-01		-6.428571e-01
-5.000000e-01		2.500000e-01		-6.428571e-01
-5.000000e-01		3.750000e-01		-6.428571e-01
-5.000000e-01		5.000000e-01		-6.428571e-01
-3.750000e-01		-5.000000e-01		-6.428571e-01
-3.750000e-01		-2.500000e-01		-6.428571e-01
-3.750000e-01		0.000000e+00		-6.428571e-01
-3.750000e-01		2.500000e-01		-6.428571e-01
-3.750000e-01		5.000000e-01		-6.428571e-01
-2.500000e-01		-5.000000e-01		-6.428571e-01
-2.500000e-01		-3.750000e-01		-6.428571e-01
-2.500000e-01		-2.500000e-01		-6.428571e-01
-2.500000e-01		-1.250000e-01		-6.428571e-01
-2.500000e-01		0.000000e+00		-6.428571e-01
-2.500000e-01		1.250000e-01		-6.428571e-01
-2.500000e-01		2.500000e-01		-6.428571e-01
-2.500000e-01		3.750000e-01		-6.428571e-01
-2.500000e-01		5.000000e-01		-6.428571e-01
-1.250000e-01		-5.000000e-01		-6.428571e-01
-1.250000e-01		-2.500000e-01		-6.428571e-01
-1.250000e-01		0.000000e+00		-6.428571e-01
-1.250000e-01		2.500000e-01		-6.428571e-01
-1.250000e-01		5.000000e-01		-6.428571e-01
0.000000e+00		-5.000000e-01		-6.428571e-01
0.000000e+00		-3.750000e-01		-6.428571e-01
0.000000e+00		-2.500000e-01		-6.428571e-01
0.000000e+00		-1.250000e-01		-6.428571e-01
0.000000e+00		0.000000e+00		-6.428571e-01
0.000000e+00		1.250000e-01		-6.428571e-01
0.000000e+00		2.500000e-01		-6.428571e-01
0.000000e+00		3.750000e-01		-6.428571e-01
0.000000e+00		5.000000e-01		-6.428571e-01
1.250000e-01		-5.000000e-01		-6.428571e-01
1.250000e-01		-2.500000e-01		-6.428571e-01
1.250000e-01		0.000000e+00		-6.428571e-01
1.250000e-01		2.500000e-01		-6.428571e-01
1.250000e-01		5.000000e-01		-6.428571e-01
2.500000e-01		-5.000000e-01		-6.428571e-01
2.500000e-01		-3.750000e-01		-6.428571e-01
2.500000e-01		-2.500000e-01		-6.428571e-01
2.500000e-01		-1.250000e-01		-6.428571e-01
2.500000e-01		0.000000e+00		-6.428571e-01
2.500000e-01		1.250000e-01		-6.428571e-01
2.500000e-01		2.500000e-01		-6.428571e-01
2.500000e-01		3.750000e-01		-6.428571e-01
2.500000e-01		5.000000e-01		-6.428571e-01
3.750000e-01		-5.000000e-01		-6.428571e-01
3.750000e-01		-2.500000e-01		-6.428571e-01
3.750000e-01		0.000000e+00		-6.428571e-01
3.750000e-01		2.500000e-01		-6.428571e-01
3.750000e-01		5.000000e-01		-6.428571e-01
5.000000e-01		-5.000000e-01		-6.428571e-01
5.000000e-01		-3.750000e-01		-6.428571e-01
5.000000e-01		-2.500000e-01		-6.428571e-01
5.000000e-01		-1.250000e-01		-6.428571e-01
5.000000e-01		0.000000e+00		-6.428571e-01
5.000000e-01		1.250000e-01		-6.428571e-01
5.000000e-01		2.500000e-01		-6.428571e-01
5.000000e-01		3.750000e-01		-6.428571e-01
5.000000e-01		5.000000e-01		-6.428571e-01
-5.000000e-01		-5.000000e-01		-5.357143e-01
-5.000000e-01		-2.500000e-01		-5.357143e-01
-5.000000e-01		0.000000e+00		-5.357143e-01
-5.000000e-01		2.500000e-01		-5.357143e-01
-5.000000e-01		5.000000e-01		-5.357143e-01
-2.500000e-01		-5.000000e-01		-5.357143e-01
-2.500000e-01		-2.500000e-01		-5.357143e-01
-2.500000e-01		0.000000e+00		-5.357143e-01
-2.500000e-01		2.500000e-01		-5.357143e-01
-2.500000e-01		5.000000e-01		-5.357143e-01
0.000000e+00		-5.000000e-01		-5.357143e-01
0.000000e+00		-2.500000e-01		-5.357143e-01
0.000000e+00		0.000000e+00		-5.357143e-01
0.000000e+00		2.500000e-01		-5.357143e-01
0.000000e+00		5.000000e-01		-5.357143e-01
2.500000e-01		-5.000000e-01		-5.357143e-01
2.500000e-01		-2.500000e-01		-5.357143e-01
2.500000e-01		0.000000e+00		-5.357143e-01
2.500000e-01		2.500000e-01		-5.357143e-01
2.500000e-01		5.000000e-01		-5.357143e-01
5.000000e-01		-5.000000e-01		-5.357143e-01
5.000000e-01		-2.500000e-01		-5.357143e-01
5.000000e-01		0.000000e+00		-5.357143e-01
5.000000e-01		2.500000e-01		-5.357143e-01
5.000000e-01		5.000000e-01		-5.357143e-01
-5.000000e-01		-5.000000e-01		-4.285714e-01
-5.000000e-01		-3.750000e-01		-4.285714e-01
-5.000000e-01		-2.500000e-01		-4.285714e-01
-5.000000e-01		-1.250000e-01		-4.285714e-01
-5.000000e-01		0.000000e+00		-4.285714e-01
-5.000000e-01		1.250000e-01		-4.285714e-01
-5.000000e-01		2.500000e-01		-4.285714e-01
-5.000000e-01		3.750000e-01		-4.285714e-01
-5.000000e-01		5.000000e-01		-4.285714e-01
-3.750000e-01		-5.000000e-01		-4.285714e-01
-3.750000e-01		-2.500000e-01		-4.285714e-01
-3.750000e-01		0.000000e+00		-4.285714e-01
-3.750000e-01		2.500000e-01		-4.285714e-01
-3.750000e-01		5.000000e-01		-4.285714e-01
-2.500000e-01		-5.000000e-01		-4.285714e-01
-2.500000e-01		-3.750000e-01		-4.285714e-01
-2.500000e-01		-2.500000e-01		-4.285714e-01
-2.500000e-01		-1.250000e-01		-4.285714e-01
-2.500000e-01		0.000000e+00		-4.285714e-01
-2.500000e-01		1.250000e-01		-4.285714e-01
-2.500000e-01		2.500000e-01		-4.285714e-01
-2.500000e-01		3.750000e-01		-4.285714e-01
-2.500000e-01		5.000000e-01		-4.285714e-01
-1.250000e-01		-5.000000e-01		-4.285714e-01
-1.250000e-01		-2.500000e-01		-4.285714e-01
-1.250000e-01		0.000000e+00		-4.285714e-01
-1.250000e-01		2.500000e-01		-4.285714e-01
-1.250000e-01		5.000000e-01		-4.285714e-01
0.000000e+00		-5.000000e-01		-4.285714e-01
0.000000e+00		-3.750000e-01		-4.285714e-01
0.000000e+00		-2.500000e-01		-4.285714e-01
0.000000e+00		-1.250000e-01		-4.285714e-01
0.000000e+00		0.000000e+00		-4.285714e-01
0.000000e+00		1.250000e-01		-4.285714e-01
0.000000e+00		2.500000e-01		-4.285714e-01
0.000000e+00		3.750000e-01		-4.285714e-01
0.000000e+00		5.000000e-01		-4.285714e-01
1.250000e-01		-5.000000e-01		-4.285714e-01
1.250000e-01		-2.500000e-01		-4.285714e-01
1.250000e-01		0.000000e+00		-4.285714e-01
1.250000e-01		2.500000e-01		-4.285714e-01
1.250000e-01		5.000000e-01		-4.285714e-01
2.500000e-01		-5.000000e-01		-4.285714e-01
2.500000e-01		-3.750000e-01		-4.285714e-01
2.500000e-01		-2.500000e-01		-4.285714e-01
2.500000e-01		-1.250000e-01		-4.285714e-01
2.500000e-01		0.000000e+00		-4.285714e-01
2.500000e-01		1.250000e-01		-4.285714e-01
2.500000e-01		2.500000e-01		-4.285714e-01
2.500000e-01		3.750000e-01		-4.285714e-01
2.500000e-01		5.000000e-01		-4.285714e-01
3.750000e-01		-5.000000e-01		-4.285714e-01
3.750000e-01		-2.500000e-01		-4.285714e-01
3.750000e-01		0.000000e+00		-4.285714e-01
3.750000e-01		2.500000e-01		-4.285714e-01
3.750000e-01		5.000000e-01		-4.285714e-01
5.000000e-01		-5.000000e-01		-4.285714e-01
5.000000e-01		-3.750000e-01		-4.285714e-01
5.000000e-01		-2.500000e-01		-4.285714e-01
5.000000e-01		-1.250000e-01		-4.285714e-01
5.000000e-01		0.000000e+00		-4.285714e-01
5.000000e-01		1.250000e-01		-4.285714e-01
5.000000e-01		2.500000e-01		-4.285714e-01
5.000000e-01		3.750000e-01		-4.285714e-01
5.000000e-01		5.000000e-01		-4.285714e-01
-5.000000e-01		-5.000000e-01		-3.214286e-01
-5.000000e-01		-2.500000e-01		-3.214286e-01
-5.000000e-01		0.000000e+00		-3.214286e-01
-5.000000e-01		2.500000e-01		-3.214286e-01
-5.000000e-01		5.000000e-01		-3.214286e-01
-2.500000e-01		-5.000000e-01		-3.214286e-01
-2.500000e-01		-2.500000e-01		-3.214286e-01
-2.500000e-01		0.000000e+00		-3.214286e-01
-2.500000e-01		2.500000e-01		-3.214286e-01
-2.500000e-01		5.000000e-01		-3.214286e-01
0.000000e+00		-5.000000e-01		-3.214286e-01
0.000000e+00		-2.500000e-01		-3.214286e-01
0.000000e+00		0.000000e+00		-3.214286e-01
0.000000e+00		2.500000e-01		-3.214286e-01
0.000000e+00		5.000000e-01		-3.214286e-01
2.500000e-01		-5.000000e-01		-3.214286e-01
2.500000e-01		-2.500000e-01		-3.214286e-01
2.500000e-01		0.000000e+00		-3.214286e-01
2.500000e-01		2.500000e-01		-3.214286e-01
2.500000e-01		5.000000e-01		-3.214286e-01
5.000000e-01		-5.000000e-01		-3.214286e-01
5.000000e-01		-2.500000e-01		-3.214286e-01
5.000000e-01		0.000000e+00		-3.214286e-01
5.000000e-01		2.500000e-01		-3.214286e-01
5.000000e-01		5.000000e-01		-3.214286e-01
-5.000000e-01		-5.000000e-01		-2.142857e-01
-5.000000e-01		-3.750000e-01		-2.142857e-01
-5.000000e-01		-2.500000e-01		-2.142857e-01
-5.000000e-01		-1.250000e-01		-2.142857e-01
-5.000000e-01		0.000000e+00		-2.142857e-01
-5.000000e-01		1.250000e-01		-2.142857e-01
-5.000000e-01		2.500000e-01		-2.142857e-01
-5.000000e-01		3.750000e-01		-2.142857e-01
-5.000000e-01		5.000000e-01		-2.142857e-01
-3.750000e-01		-5.000000e-01		-2.142857e-01
-3.750000e-01		-2.500000e-01		-2.142857e-01
-3.750000e-01		0.000000e+00		-2.142857e-01
-3.750000e-01		2.500000e-01		-2.142857e-01
-3.750000e-01		5.000000e-01		-2.142857e-01
-2.500000e-01		-5.000000e-01		-2.142857e-01
-2.500000e-01		-3.750000e-01		-2.142857e-01
-2.500000e-01		-2.500000e-01		-2.142857e-01
-2.500000e-01		-1.250000e-01		-2.142857e-01
-2.500000e-01		0.000000e+00		-2.142857e-01
-2.500000e-01		1.250000e-01		-2.142857e-01
-2.500000e-01		2.500000e-01		-2.142857e-01
-2.500000e-01		3.750000e-01		-2.142857e-01
-2.500000e-01		5.000000e-01		-2.142857e-01
-1.250000e-01		-5.000000e-01		-2.142857e-01
-1.250000e-01		-2.500000e-01		-2.142857e-01
-1.250000e-01		0.000000e+00		-2.142857e-01
-1.250000e-01		2.500000e-01		-2.142857e-01
-1.250000e-01		5.000000e-01		-2.142857e-01
0.000000e+00		-5.000000e-01		-2.142857e-01
0.000000e+00		-3.750000e-01		-2.142857e-01
0.000000e+00		-2.500000e-01		-2.142857e-01
0.000000e+00		-1.250000e-01		-2.142857e-01
0.000000e+00		0.000000e+00		-2.142857e-01
0.000000e+00		1.250000e-01		-2.142857e-01
0.000000e+00		2.500000e-01		-2.142857e-01
0.000000e+00		3.750000e-01		-2.142857e-01
0.000000e+00		5.000000e-01		-2.142857e-01
1.250000e-01		-5.000000e-01		-2.142857e-01
1.250000e-01		-2.500000e-01		-2.142857e-01
1.250000e-01		0.000000e+00		-2.142857e-01
1.250000e-01		2.500000e-01		-2.142857e-01
1.250000e-01		5.000000e-01		-2.142857e-01
2.500000e-01		-5.000000e-01		-2.142857e-01
2.500000e-01		-3.750000e-01		-2.142857e-01
2.500000e-01		-2.500000e-01		-2.142857e-01
2.500000e-01		-1.250000e-01		-2.142857e-01
2.500000e-01		0.000000e+00		-2.142857e-01
2.500000e-01		1.250000e-01		-2.142857e-01
2.500000e-01		2.500000e-01		-2.142857e-01
2.500000e-01		3.750000e-01		-2.142857e-01
2.500000e-01		5.000000e-01		-2.142857e-01
3.750000e-01		-5.000000e-01		-2.142857e-01
3.750000e-01		-2.500000e-01		-2.142857e-01
3.750000e-01		0.000000e+00		-2.142857e-01
3.750000e-01		2.500000e-01		-2.142857e-01
3.750000e-01		5.000000e-01		-2.142857e-01
5.000000e-01		-5.000000e-01		-2.142857e-01
5.000000e-01		-3.750000e-01		-2.142857e-01
5.000000e-01		-2.500000e-01		-2.142857e-01
5.000000e-01		-1.250000e-01		-2.142857e-01
5.000000e-01		0.000000e+00		-2.142857e-01
5.000000e-01		1.250000e-01		-2.142857e-01
5.000000e-01		2.500000e-01		-2.142857e-01
5.000000e-01		3.750000e-01		-2.142857e-01
5.000000e-01		5.000000e-01		-2.142857e-01
-5.000000e-01		-5.000000e-01		-1.071429e-01
-5.000000e-01		-2.500000e-01		-1.071429e-01
-5.000000e-01		0.000000e+00		-1.071429e-01
-5.000000e-01		2.500000e-01		-1.071429e-01
-5.000000e-01		5.000000e-01		-1.071429e-01
-2.500000e-01		-5.000000e-01		-1.071429e-01
-2.500000e-01		-2.500000e-01		-1.071429e-01
-2.500000e-01		0.000000e+00		-1.071429e-01
-2.500000e-01		2.500000e-01		-1.071429e-01
-2.500000e-01		5.000000e-01		-1.071429e-01
0.000000e+00		-5.000000e-01		-1.071429e-01
0.000000e+00		-2.500000e-01		-1.071429e-01
0.000000e+00		0.000000e+00		-1.071429e-01
0.000000e+00		2.500000e-01		-1.071429e-01
0.000000e+00		5.000000e-01		-1.071429e-01
2.500000e-01		-5.000000e-01		-1.071429e-01
2.500000e-01		-2.500000e-01		-1.071429e-01
2.500000e-01		0.000000e+00		-1.071429e-01
2.500000e-01		2.500000e-01		-1.071429e-01
2.500000e-01		5.000000e-01		-1.071429e-01
5.000000e-01		-5.000000e-01		-1.071429e-01
5.000000e-01		-2.500000e-01		-1.071429e-01
5.000000e-01		0.000000e+00		-1.071429e-01
5.000000e-01		2.500000e-01		-1.071429e-01
5.000000e-01		5.000000e-01		-1.071429e-01
-5.000000e-01		-5.000000e-01		0.000000e+00
-5.000000e-01		-3.750000e-01		0.000000e+00
-5.000000e-01		-2.500000e-01		0.000000e+00
-5.000000e-01		-1.250000e-01		0.000000e+00
-5.000000e-01		0.000000e+00		0.000000e+00
-5.000000e-01		1.250000e-01		0.000000e+00
-5.000000e-01		2.500000e-01		0.000000e+00
-5.000000e-01		3.750000e-01		0.000000e+00
-5.000000e-01		5.000000e-01		0.000000e+00
-3.750000e-01		-5.000000e-01		0.000000e+00
-3.750000e-01		-2.500000e-01		0.000000e+00
-3.750000e-01		0.000000e+00		0.000000e+00
-3.750000e-01		2.500000e-01		0.000000e+00
-3.750000e-01		5.000000e-01		0.000000e+00
-2.500000e-01		-5.000000e-01		0.000000e+00
-2.500000e-01		-3.750000e-01		0.000000e+00
-2.500000e-01		-2.500000e-01		0.000000e+00
-2.500000e-01		-1.250000e-01		0.000000e+00
-2.500000e-01		0.000000e+00		0.000000e+00
-2.500000e-01		1.250000e-01		0.000000e+00
-2.500000e-01		2.500000e-01		0.000000e+00
-2.500000e-01		3.750000e-01		0.000000e+00
-2.500000e-01		5.000000e-01		0.000000e+00
-1.250000e-01		-5.000000e-01		0.000000e+00
-1.250000e-01		-2.500000e-01		0.000000e+00
-1.250000e-01		0.000000e+00		0.000000e+00
-1.250000e-01		2.500000e-01		0.000000e+00
-1.250000e-01		5.000000e-01		0.000000e+00
0.000000e+00		-5.000000e-01		0.000000e+00
0.000000e+00		-3.750000e-01		0.000000e+00
0.000000e+00		-2.500000e-01		0.000000e+00
0.000000e+00		-1.250000e-01		0.000000e+00
0.000000e+00		0.000000e+00		0.000000e+00
0.000000e+00		1.250000e-01		0.000000e+00
0.000000e+00		2.500000e-01		0.000000e+00
0.000000e+00		3.750000e-01		0.000000e+00
0.000000e+00		5.000000e-01		0.000000e+00
1.250000e-01		-5.000000e-01		0.000000e+00
1.250000e-01		-2.500000e-01		0.000000e+00
1.250000e-01		0.000000e+00		0.000000e+00
1.250000e-01		2.500000e-01		0.000000e+00
1.250000e-01		5.000000e-01		0.000000e+00
2.500000e-01		-5.000000e-01		0.000000e+00
2.500000e-01		-3.750000e-01		0.000000e+00
2.500000e-01		-2.500000e-01		0.000000e+00
2.500000e-01		-1.250000e-01		0.000000e+00
2.500000e-01		0.000000e+00		0.000000e+00
2.500000e-01		1.250000e-01		0.000000e+00
2.500000e-01		2.500000e-01		0.000000e+00
2.500000e-01		3.750000e-01		0.000000e+00
2.500000e-01		5.000000e-01		0.000000e+00
3.750000e-01		-5.000000e-01		0.000000e+00
3.750000e-01		-2.500000e-01		0.000000e+00
3.750000e-01		0.000000e+00		0.000000e+00
3.750000e-01		2.500000e-01		0.000000e+00
3.750000e-01		5.000000e-01		0.000000e+00
5.000000e-01		-5.000000e-01		0.000000e+00
5.000000e-01		-3.750000e-01		0.000000e+00
5.000000e-01		-2.500000e-01		0.000000e+00
5.000000e-01		-1.250000e-01		0.000000e+00
5.000000e-01		0.000000e+00		0.000000e+00
5.000000e-01		1.250000e-01		0.000000e+00
5.000000e-01		2.500000e-01		0.000000e+00
5.000000e-01		3.750000e-01		0.000000e+00
5.000000e-01		5.000000e-01		0.000000e+00
-5.000000e-01		-5.000000e-01		1.071429e-01
-5.000000e-01		-2.500000e-01		1.071429e-01
-5.000000e-01		0.000000e+00		1.071429e-01
-5.000000e-01		2.500000e-01		1.071429e-01
-5.000000e-01		5.000000e-01		1.071429e-01
-2.500000e-01		-5.000000e-01		1.071429e-01
-2.500000e-01		-2.500000e-01		1.071429e-01
-2.500000e-01		0.000000e+00		1.071429e-01
-2.500000e-01		2.500000e-01		1.071429e-01
-2.500000e-01		5.000000e-01		1.071429e-01
0.000000e+00		-5.000000e-01		1.071429e-01
0.000000e+00		-2.500000e-01		1.071429e-01
0.000000e+00		0.000000e+00		1.071429e-01
0.000000e+00		2.500000e-01		1.071429e-01
0.000000e+00		5.000000e-01		1.071429e-01
2.500000e-01		-5.000000e-01		1.071429e-01
2.500000e-01		-2.500000e-01		1.071429e-01
2.500000e-01		0.000000e+00		1.071429e-01
2.500000e-01		2.500000e-01		1.071429e-01
2.500000e-01		5.000000e-01		1.071429e-01
5.000000e-01		-5.000000e-01		1.071429e-01
5.000000e-01		-2.500000e-01		1.071429e-01
5.000000e-01		0.000000e+00		1.071429e-01
5.000000e-01		2.500000e-01		1.071429e-01
5.000000e-01		5.000000e-01		1.071429e-01
-5.000000e-01		-5.000000e-01		2.142857e-01
-5.000000e-01		-3.750000e-01		2.142857e-01
-5.000000e-01		-2.500000e-01		2.142857e-01
-5.000000e-01		-1.250000e-01		2.142857e-01
-5.000000e-01		0.000000e+00		2.142857e-01
-5.000000e-01		1.250000e-01		2.142857e-01
-5.000000e-01		2.500000e-01		2.142857e-01
-5.000000e-01		3.750000e-01		2.142857e-01
-5.000000e-01		5.000000e-01		2.142857e-01
-3.750000e-01		-5.000000e-01		2.142857e-01
-3.750000e-01		-2.500000e-01		2.142857e-01
-3.750000e-01		0.000000e+00		2.142857e-01
-3.750000e-01		2.500000e-01		2.142857e-01
-3.750000e-01		5.000000e-01		2.142857e-01
-2.500000e-01		-5.000000e-01		2.142857e-01
-2.500000e-01		-3.750000e-01		2.142857e-01
-2.500000e-01		-2.500000e-01		2.142857e-01
-2.500000e-01		-1.250000e-01		2.142857e-01
-2.500000e-01		0.000000e+00		2.142857e-01
-2.500000e-01		1.250000e-01		2.142857e-01
-2.500000e-01		2.500000e-01		2.142857e-01
-2.500000e-01		3.750000e-01		2.142857e-01
-2.500000e-01		5.000000e-01		2.142857e-01
-1.250000e-01		-5.000000e-01		2.142857e-01
-1.250000e-01		-2.500000e-01		2.142857e-01
-1.250000e-01		0.000000e+00		2.142857e-01
-1.250000e-01		2.500000e-01		2.142857e-01
-1.250000e-01		5.000000e-01		2.142857e-01
0.000000e+00		-5.000000e-01		2.142857e-01
0.000000e+00		-3.750000e-01		2.142857e-01
0.000000e+00		-2.500000e-01		2.142857e-01
0.000000e+00		-1.250000e-01		2.142857e-01
0.000000e+00		0.000000e+00		2.142857e-01
0.000000e+00		1.250000e-01		2.142857e-01
0.000000e+00		2.500000e-01		2.142857e-01
0.000000e+00		3.750000e-01		2.142857e-01
0.000000e+00		5.000000e-01		2.142857e-01
1.250000e-01		-5.000000e-01		2.142857e-01
1.250000e-01		-2.500000e-01		2.142857e-01
1.250000e-01		0.000000e+00		2.142857e-01
1.250000e-01		2.500000e-01		2.142857e-01
1.250000e-01		5.000000e-01		2.142857e-01
2.500000e-01		-5.000000e-01		2.142857e-01
2.500000e-01		-3.750000e-01		2.142857e-01
2.500000e-01		-2.500000e-01		2.142857e-01
2.500000e-01		-1.250000e-01		2.142857e-01
2.500000e-01		0.000000e+00		2.142857e-01
2.500000e-01		1.250000e-01		2.142857e-01
2.500000e-01		2.500000e-01		2.142857e-01
2.500000e-01		3.750000e-01		2.142857e-01
2.500000e-01		5.000000e-01		2.142857e-01
3.750000e-01		-5.000000e-01		2.142857e-01
3.750000e-01		-2.500000e-01		2.142857e-01
3.750000e-01		0.000000e+00		2.142857e-01
3.750000e-01		2.500000e-01		2.142857e-01
3.750000e-01		5.000000e-01		2.142857e-01
5.000000e-01		-5.000000e-01		2.142857e-01
5.000000e-01		-3.750000e-01		2.142857e-01
5.000000e-01		-2.500000e-01		2.142857e-01
5.000000e-01		-1.250000e-01		2.142857e-01
5.000000e-01		0.000000e+00		2.142857e-01
5.000000e-01		1.250000e-01		2.142857e-01
5.000000e-01		2.500000e-01		2.142857e-01
5.000000e-01		3.750000e-01		2.142857e-01
5.000000e-01		5.000000e-01		2.142857e-01
-5.000000e-01		-5.000000e-01		3.214286e-01
-5.000000e-01		-2.500000e-01		3.214286e-01
-5.000000e-01		0.000000e+00		3.214286e-01
-5.000000e-01		2.500000e-01		3.214286e-01
-5.000000e-01		5.000000e-01		3.214286e-01
-2.500000e-01		-5.000000e-01		3.214286e-01
-2.500000e-01		-2.500000e-01		3.214286e-01
-2.500000e-01		0.000000e+00		3.214286e-01
-2.500000e-01		2.500000e-01		3.214286e-01
-2.500000e-01		5.000000e-01		3.214286e-01
0.000000e+00		-5.000000e-01		3.214286e-01
0.000000e+00		-2.500000e-01		3.214286e-01
0.000000e+00		0.000000e+00		3.214286e-01
0.000000e+00		2.500000e-01		3.214286e-01
0.000000e+00		5.000000e-01		3.214286e-01
2.500000e-01		-5.000000e-01		3.214286e-01
2.500000e-01		-2.500000e-01		3.214286e-01
2.500000e-01		0.000000e+00		3.214286e-01
2.500000e-01		2.500000e-01		3.214286e-01
2.500000e-01		5.000000e-01		3.214286e-01
5.000000e-01		-5.000000e-01		3.214286e-01
5.000000e-01		-2.500000e-01		3.214286e-01
5.000000e-01		0.000000e+00		3.214286e-01
5.000000e-01		2.500000e-01		3.214286e-01
5.000000e-01		5.000000e-01		3.214286e-01
-5.000000e-01		-5.000000e-01		4.285714e-01
-5.000000e-01		-3.750000e-01		4.285714e-01
-5.000000e-01		-2.500000e-01		4.285714e-01
-5.000000e-01		-1.250000e-01		4.285714e-01
-5.000000e-01		0.000000e+00		4.285714e-01
-5.000000e-01		1.250000e-01		4.285714e-01
-5.000000e-01		2.500000e-01		4.285714e-01
-5.000000e-01		3.750000e-01		4.285714e-01
-5.000000e-01		5.000000e-01		4.285714e-01
-3.750000e-01		-5.000000e-01		4.285714e-01
-3.750000e-01		-2.500000e-01		4.285714e-01
-3.750000e-01		0.000000e+00		4.285714e-01
-3.750000e-01		2.500000e-01		4.285714e-01
-3.750000e-01		5.000000e-01		4.285714e-01
-2.500000e-01		-5.000000e-01		4.285714e-01
-2.500000e-01		-3.750000e-01		4.285714e-01
-2.500000e-01		-2.500000e-01		4.285714e-01
-2.500000e-01		-1.250000e-01		4.285714e-01
-2.500000e-01		0.000000e+00		4.285714e-01
-2.500000e-01		1.250000e-01		4.285714e-01
-2.500000e-01		2.500000e-01		4.285714e-01
-2.500000e-01		3.750000e-01		4.285714e-01
-2.500000e-01		5.000000e-01		4.285714e-01
-1.250000e-01		-5.000000e-01		4.285714e-01
-1.250000e-01		-2.500000e-01		4.285714e-01
-1.250000e-01		0.000000e+00		4.285714e-01
-1.250000e-01		2.500000e-01		4.285714e-01
-1.250000e-01		5.000000e-01		4.285714e-01
0.000000e+00		-5.000000e-01		4.285714e-01
0.000000e+00		-3.750000e-01		4.285714e-01
0.000000e+00		-2.500000e-01		4.285714e-01
0.000000e+00		-1.250000e-01		4.285714e-01
0.000000e+00		0.000000e+00		4.285714e-01
0.000000e+00		1.250000e-01		4.285714e-01
0.000000e+00		2.500000e-01		4.285714e-01
0.000000e+00		3.750000e-01		4.285714e-01
0.000000e+00		5.000000e-01		4.285714e-01
1.250000e-01		-5.000000e-01		4.285714e-01
1.250000e-01		-2.500000e-01		4.285714e-01
1.250000e-01		0.000000e+00		4.285714e-01
1.250000e-01		2.500000e-01		4.285714e-01
1.250000e-01		5.000000e-01		4.285714e-01
2.500000e-01		-5.000000e-01		4.285714e-01
2.500000e-01		-3.750000e-01		4.285714e-01
2.500000e-01		-2.500000e-01		4.285714e-01
2.500000e-01		-1.250000e-01		4.285714e-01
2.500000e-01		0.000000e+00		4.285714e-01
2.500000e-01		1.250000e-01		4.285714e-01
2.500000e-01		2.500000e-01		4.285714e-01
2.500000e-01		3.750000e-01		4.285714e-01
2.500000e-01		5.000000e-01		4.285714e-01
3.750000e-01		-5.000000e-01		4.285714e-01
3.750000e-01		-2.500000e-01		4.285714e-01
3.750000e-01		0.000000e+00		4.285714e-01
3.750000e-01		2.500000e-01		4.285714e-01
3.750000e-01		5.000000e-01		4.285714e-01
5.000000e-01		-5.000000e-01		4.285714e-01
5.000000e-01		-3.750000e-01		4.285714e-01
5.000000e-01		-2.500000e-01		4.285714e-01
5.000000e-01		-1.250000e-01		4.285714e-01
5.000000e-01		0.000000e+00		4.285714e-01
5.000000e-01		1.250000e-01		4.285714e-01
5.000000e-01		2.500000e-01		4.285714e-01
5.000000e-01		3.750000e-01		4.285714e-01
5.000000e-01		5.000000e-01		4.285714e-01
-5.000000e-01		-5.000000e-01		5.357143e-01
-5.000000e-01		-2.500000e-01		5.357143e-01
-5.000000e-01		0.000000e+00		5.357143e-01
-5.000000e-01		2.500000e-01		5.357143e-01
-5.000000e-01		5.000000e-01		5.357143e-01
-2.500000e-01		-5.000000e-01		5.357143e-01
-2.500000e-01		-2.500000e-01		5.357143e-01
-2.500000e-01		0.000000e+00		5.357143e-01
-2.500000e-01		2.500000e-01		5.357143e-01
-2.500000e-01		5.000000e-01		5.357143e-01
0.000000e+00		-5.000000e-01		5.357143e-01
0.000000e+00		-2.500000e-01		5.357143e-01
0.000000e+00		0.000000e+00		5.357143e-01
0.000000e+00		2.500000e-01		5.357143e-01
0.000000e+00		5.000000e-01		5.357143e-01
2.500000e-01		-5.000000e-01		5.357143e-01
2.500000e-01		-2.500000e-01		5.357143e-01
2.500000e-01		0.000000e+00		5.357143e-01
2.500000e-01		2.500000e-01		5.357143e-01
2.500000e-01		5.000000e-01		5.357143e-01
5.000000e-01		-5.000000e-01		5.357143e-01
5.000000e-01		-2.500000e-01		5.357143e-01
5.000000e-01		0.000000e+00		5.357143e-01
5.000000e-01		2.500000e-01		5.357143e-01
5.000000e-01		5.000000e-01		5.357143e-01
-5.000000e-01		-5.000000e-01		6.428571e-01
-5.000000e-01		-3.750000e-01		6.428571e-01
-5.000000e-01		-2.500000e-01		6.428571e-01
-5.000000e-01		-1.250000e-01		6.428571e-01
-5.000000e-01		0.000000e+00		6.428571e-01
-5.000000e-01		1.250000e-01		6.428571e-01
-5.000000e-01		2.500000e-01		6.428571e-01
-5.000000e-01		3.750000e-01		6.428571e-01
-5.000000e-01		5.000000e-01		6.428571e-01
-3.750000e-01		-5.000000e-01		6.428571e-01
-3.750000e-01		-2.500000e-01		6.428571e-01
-3.750000e-01		0.000000e+00		6.428571e-01
-3.750000e-01		2.500000e-01		6.428571e-01
-3.750000e-01		5.000000e-01		6.428571e-01
-2.500000e-01		-5.000000e-01		6.428571e-01
-2.500000e-01		-3.750000e-01		6.428571e-01
-2.500000e-01		-2.500000e-01		6.428571e-01
-2.500000e-01		-1.250000e-01		6.428571e-01
-2.500000e-01		0.000000e+00		6.428571e-01
-2.500000e-01		1.250000e-01		6.428571e-01
-2.500000e-01		2.500000e-01		6.428571e-01
-2.500000e-01		3.750000e-01		6.428571e-01
-2.500000e-01		5.000000e-01		6.428571e-01
-1.250000e-01		-5.000000e-01		6.428571e-01
-1.250000e-01		-2.500000e-01		6.428571e-01
-1.250000e-01		0.000000e+00		6.428571e-01
-1.250000e-01		2.500000e-01		6.428571e-01
-1.250000e-01		5.000000e-01		6.428571e-01
0.000000e+00		-5.000000e-01		6.428571e-01
0.000000e+00		-3.750000e-01		6.428571e-01
0.000000e+00		-2.500000e-01		6.428571e-01
0.000000e+00		-1.250000e-01		6.428571e-01
0.000000e+00		0.000000e+00		6.428571e-01
0.000000e+00		1.250000e-01		6.428571e-01
0.000000e+00		2.500000e-01		6.428571e-01
0.000000e+00		3.750000e-01		6.428571e-01
0.000000e+00		5.000000e-01		6.428571e-01
1.250000e-01		-5.000000e-01		6.428571e-01
1.250000e-01		-2.500000e-01		6.428571e-01
1.250000e-01		0.000000e+00		6.428571e-01
1.250000e-01		2.500000e-01		6.428571e-01
1.250000e-01		5.000000e-01		6.428571e-01
2.500000e-01		-5.000000e-01		6.428571e-01
2.500000e-01		-3.750000e-01		6.428571e-01
2.500000e-01		-2.500000e-01		6.428571e-01
2.500000e-01		-1.250000e-01		6.428571e-01
2.500000e-01		0.000000e+00		6.428571e-01
2.500000e-01		1.250000e-01		6.428571e-01
2.500000e-01		2.500000e-01		6.428571e-01
2.500000e-01		3.750000e-01		6.428571e-01
2.500000e-01		5.000000e-01		6.428571e-01
3.750000e-01		-5.000000e-01		6.428571e-01
3.750000e-01		-2.500000e-01		6.428571e-01
3.750000e-01		0.000000e+00		6.428571e-01
3.750000e-01		2.500000e-01		6.428571e-01
3.750000e-01		5.000000e-01		6.428571e-01
5.000000e-01		-5.000000e-01		6.428571e-01
5.000000e-01		-3.750000e-01		6.428571e-01
5.000000e-01		-2.500000e-01		6.428571e-01
5.000000e-01		-1.250000e-01		6.428571e-01
5.000000e-01		0.000000e+00		6.428571e-01
5.000000e-01		1.250000e-01		6.428571e-01
5.000000e-01		2.500000e-01		6.428571e-01
5.000000e-01		3.750000e-01		6.428571e-01
5.000000e-01		5.000000e-01		6.428571e-01
-5.000000e-01		-5.000000e-01		7.500000e-01
-5.000000e-01		-2.500000e-01		7.500000e-01
-5.000000e-01		0.000000e+00		7.500000e-01
-5.000000e-01		2.500000e-01		7.500000e-01
-5.000000e-01		5.000000e-01		7.500000e-01
-2.500000e-01		-5.000000e-01		7.500000e-01
-2.500000e-01		-2.500000e-01		7.500000e-01
-2.500000e-01		0.000000e+00		7.500000e-01
-2.500000e-01		2.500000e-01		7.500000e-01
-2.500000e-01		5.000000e-01		7.500000e-01
0.000000e+00		-5.000000e-01		7.500000e-01
0.000000e+00		-2.500000e-01		7.500000e-01
0.000000e+00		0.000000e+00		7.500000e-01
0.000000e+00		2.500000e-01		7.500000e-01
0.000000e+00		5.000000e-01		7.500000e-01
2.500000e-01		-5.000000e-01		7.500000e-01
2.500000e-01		-2.500000e-01		7.500000e-01
2.500000e-01		0.000000e+00		7.500000e-01
2.500000e-01		2.500000e-01		7.500000e-01
2.500000e-01		5.000000e-01		7.500000e-01
5.000000e-01		-5.000000e-01		7.500000e-01
5.000000e-01		-2.500000e-01		7.500000e-01
5.000000e-01		0.000000e+00		7.500000e-01
5.000000e-01		2.500000e-01		7.500000e-01
5.000000e-01		5.000000e-01		7.500000e-01
-5.000000e-01		-5.000000e-01		8.571429e-01
-5.000000e-01		-3.750000e-01		8.571429e-01
-5.000000e-01		-2.500000e-01		8.571429e-01
-5.000000e-01		-1.250000e-01		8.571429e-01
-5.000000e-01		0.000000e+00		8.571429e-01
-5.000000e-01		1.250000e-01		8.571429e-01
-5.000000e-01		2.500000e-01		8.571429e-01
-5.000000e-01		3.750000e-01		8.571429e-01
-5.000000e-01		5.000000e-01		8.571429e-01
-3.750000e-01		-5.000000e-01		8.571429e-01
-3.750000e-01		-2.500000e-01		8.571429e-01
-3.750000e-01		0.000000e+00		8.571429e-01
-3.750000e-01		2.500000e-01		8.571429e-01
-3.750000e-01		5.000000e-01		8.571429e-01
-2.500000e-01		-5.000000e-01		8.571429e-01
-2.500000e-01		-3.750000e-01		8.571429e-01
-2.500000e-01		-2.500000e-01		8.571429e-01
-2.500000e-01		-1.250000e-01		8.571429e-01
-2.500000e-01		0.000000e+00		8.571429e-01
-2.500000e-01		1.250000e-01		8.571429e-01
-2.500000e-01		2.500000e-01		8.571429e-01
-2.500000e-01		3.750000e-01		8.571429e-01
-2.500000e-01		5.000000e-01		8.571429e-01
-1.250000e-01		-5.000000e-01		8.571429e-01
-1.250000e-01		-2.500000e-01		8.571429e-01
-1.250000e-01		0.000000e+00		8.571429e-01
-1.250000e-01		2.500000e-01		8.571429e-01
-1.250000e-01		5.000000e-01		8.571429e-01
0.000000e+00		-5.000000e-01		8.571429e-01
0.000000e+00		-3.750000e-01		8.571429e-01
0.000000e+00		-2.500000e-01		8.571429e-01
0.000000e+00		-1.250000e-01		8.571429e-01
0.000000e+00		0.000000e+00		8.571429e-01
0.000000e+00		1.250000e-01		8.571429e-01
0.000000e+00		2.500000e-01		8.571429e-01
0.000000e+00		3.750000e-01		8.571429e-01
0.000000e+00		5.000000e-01		8.571429e-01
1.250000e-01		-5.000000e-01		8.571429e-01
1.250000e-01		-2.500000e-01		8.571429e-01
1.250000e-01		0.000000e+00		8.571429e-01
1.250000e-01		2.500000e-01		8.571429e-01
1.250000e-01		5.000000e-01		8.571429e-01
2.500000e-01		-5.000000e-01		8.571429e-01
2.500000e-01		-3.750000e-01		8.571429e-01
2.500000e-01		-2.500000e-01		8.571429e-01
2.500000e-01		-1.250000e-01		8.571429e-01
2.500000e-01		0.000000e+00		8.571429e-01
2.500000e-01		1.250000e-01		8.571429e-01
2.500000e-01		2.500000e-01		8.571429e-01
2.500000e-01		3.750000e-01		8.571429e-01
2.500000e-01		5.000000e-01		8.571429e-01
3.750000e-01		-5.000000e-01		8.571429e-01
3.750000e-01		-2.500000e-01		8.571429e-01
3.750000e-01		0.000000e+00		8.571429e-01
3.750000e-01		2.500000e-01		8.571429e-01
3.750000e-01		5.000000e-01		8.571429e-01
5.000000e-01		-5.000000e-01		8.571429e-01
5.000000e-01		-3.750000e-01		8.571429e-01
5.000000e-01		-2.500000e-01		8.571429e-01
5.000000e-01		-1.250000e-01		8.571429e-01
5.000000e-01		0.000000e+00		8.571429e-01
5.000000e-01		1.250000e-01		8.571429e-01
5.000000e-01		2.500000e-01		8.571429e-01
5.000000e-01		3.750000e-01		8.571429e-01
5.000000e-01		5.000000e-01		8.571429e-01
-5.000000e-01		-5.000000e-01		9.642857e-01
-5.000000e-01		-2.500000e-01		9.642857e-01
-5.000000e-01		0.000000e+00		9.642857e-01
-5.000000e-01		2.500000e-01		9.642857e-01
-5.000000e-01		5.000000e-01		9.642857e-01
-2.500000e-01		-5.000000e-01		9.642857e-01
-2.500000e-01		-2.500000e-01		9.642857e-01
-2.500000e-01		0.000000e+00		9.642857e-01
-2.500000e-01		2.500000e-01		9.642857e-01
-2.500000e-01		5.000000e-01		9.642857e-01
0.000000e+00		-5.000000e-01		9.642857e-01
0.000000e+00		-2.500000e-01		9.642857e-01
0.000000e+00		0.000000e+00		9.642857e-01
0.000000e+00		2.500000e-01		9.642857e-01
0.000000e+00		5.000000e-01		9.642857e-01
2.500000e-01		-5.000000e-01		9.642857e-01
2.500000e-01		-2.500000e-01		9.642857e-01
2.500000e-01		0.000000e+00		9.642857e-01
2.500000e-01		2.500000e-01		9.642857e-01
2.500000e-01		5.000000e-01		9.642857e-01
5.000000e-01		-5.000000e-01		9.642857e-01
5.000000e-01		-2.500000e-01		9.642857e-01
5.000000e-01		0.000000e+00		9.642857e-01
5.000000e-01		2.500000e-01		9.642857e-01
5.000000e-01		5.000000e-01		9.642857e-01
-5.000000e-01		-5.000000e-01		1.071429e+00
-5.000000e-01		-3.750000e-01		1.071429e+00
-5.000000e-01		-2.500000e-01		1.071429e+00
-5.000000e-01		-1.250000e-01		1.071429e+00
-5.000000e-01		0.000000e+00		1.071429e+00
-5.000000e-01		1.250000e-01		1.071429e+00
-5.000000e-01		2.500000e-01		1.071429e+00
-5.000000e-01		3.750000e-01		1.071429e+00
-5.000000e-01		5.000000e-01		1.071429e+00
-3.750000e-01		-5.000000e-01		1.071429e+00
-3.750000e-01		-2.500000e-01		1.071429e+00
-3.750000e-01		0.000000e+00		1.071429e+00
-3.750000e-01		2.500000e-01		1.071429e+00
-3.750000e-01		5.000000e-01		1.071429e+00
-2.500000e-01		-5.000000e-01		1.071429e+00
-2.500000e-01		-3.750000e-01		1.071429e+00
-2.500000e-01		-2.500000e-01		1.071429e+00
-2.500000e-01		-1.250000e-01		1.071429e+00
-2.500000e-01		0.000000e+00		1.071429e+00
-2.500000e-01		1.250000e-01		1.071429e+00
-2.500000e-01		2.500000e-01		1.071429e+00
-2.500000e-01		3.750000e-01		1.071429e+00
-2.500000e-01		5.000000e-01		1.071429e+00
-1.250000e-01		-5.000000e-01		1.071429e+00
-1.250000e-01		-2.500000e-01		1.071429e+00
-1.250000e-01		0.000000e+00		1.071429e+00
-1.250000e-01		2.500000e-01		1.071429e+00
-1.250000e-01		5.000000e-01		1.071429e+00
0.000000e+00		-5.000000e-01		1.071429e+00
0.000000e+00		-3.750000e-01		1.071429e+00
0.000000e+00		-2.500000e-01		1.071429e+00
0.000000e+00		-1.250000e-01		1.071429e+00
0.000000e+00		0.000000e+00		1.071429e+00
0.000000e+00		1.250000e-01		1.071429e+00
0.000000e+00		2.500000e-01		1.071429e+00
0.000000e+00		3.750000e-01		1.071429e+00
0.000000e+00		5.000000e-01		1.071429e+00
1.250000e-01		-5.000000e-01		1.071429e+00
1.250000e-01		-2.500000e-01		1.071429e+00
1.250000e-01		0.000000e+00		1.071429e+00
1.250000e-01		2.500000e-01		1.071429e+00
1.250000e-01		5.000000e-01		1.071429e+00
2.500000e-01		-5.000000e-01		1.071429e+00
2.500000e-01		-3.750000e-01		1.071429e+00
2.500000e-01		-2.500000e-01		1.071429e+00
2.500000e-01		-1.250000e-01		1.071429e+00
2.500000e-01		0.000000e+00		1.071429e+00
2.500000e-01		1.250000e-01		1.071429e+00
2.500000e-01		2.500000e-01		1.071429e+00
2.500000e-01		3.750000e-01		1.071429e+00
2.500000e-01		5.000000e-01		1.071429e+00
3.750000e-01		-5.000000e-01		1.071429e+00
3.750000e-01		-2.500000e-01		1.071429e+00
3.750000e-01		0.000000e+00		1.071429e+00
3.750000e-01		2.500000e-01		1.071429e+00
3.750000e-01		5.000000e-01		1.071429e+00
5.000000e-01		-5.000000e-01		1.071429e+00
5.000000e-01		-3.750000e-01		1.071429e+00
5.000000e-01		-2.500000e-01		1.071429e+00
5.000000e-01		-1.250000e-01		1.071429e+00
5.000000e-01		0.000000e+00		1.071429e+00
5.000000e-01		1.250000e-01		1.071429e+00
5.000000e-01		2.500000e-01		1.071429e+00
5.000000e-01		3.750000e-01		1.071429e+00
5.000000e-01		5.000000e-01		1.071429e+00
-5.000000e-01		-5.000000e-01		1.178571e+00
-5.000000e-01		-2.500000e-01		1.178571e+00
-5.000000e-01		0.000000e+00		1.178571e+00
-5.000000e-01		2.500000e-01		1.178571e+00
-5.000000e-01		5.000000e-01		1.178571e+00
-2.500000e-01		-5.000000e-01		1.178571e+00
-2.500000e-01		-2.500000e-01		1.178571e+00
-2.500000e-01		0.000000e+00		1.178571e+00
-2.500000e-01		2.500000e-01		1.178571e+00
-2.500000e-01		5.000000e-01		1.178571e+00
0.000000e+00		-5.000000e-01		1.178571e+00
0.000000e+00		-2.500000e-01		1.178571e+00
0.000000e+00		0.000000e+00		1.178571e+00
0.000000e+00		2.500000e-01		1.178571e+00
0.000000e+00		5.000000e-01		1.178571e+00
2.500000e-01		-5.000000e-01		1.178571e+00
2.500000e-01		-2.500000e-01		1.178571e+00
2.500000e-01		0.000000e+00		1.178571e+00
2.500000e-01		2.500000e-01		1.178571e+00
2.500000e-01		5.000000e-01		1.178571e+00
5.000000e-01		-5.000000e-01		1.178571e+00
5.000000e-01		-2.500000e-01		1.178571e+00
5.000000e-01		0.000000e+00		1.178571e+00
5.000000e-01		2.500000e-01		1.178571e+00
5.000000e-01		5.000000e-01		1.178571e+00
-5.000000e-01		-5.000000e-01		1.285714e+00
-5.000000e-01		-3.750000e-01		1.285714e+00
-5.000000e-01		-2.500000e-01		1.285714e+00
-5.000000e-01		-1.250000e-01		1.285714e+00
-5.000000e-01		0.000000e+00		1.285714e+00
-5.000000e-01		1.250000e-01		1.285714e+00
-5.000000e-01		2.500000e-01		1.285714e+00
-5.000000e-01		3.750000e-01		1.285714e+00
-5.000000e-01		5.000000e-01		1.285714e+00
-3.750000e-01		-5.000000e-01		1.285714e+00
-3.750000e-01		-2.500000e-01		1.285714e+00
-3.750000e-01		0.000000e+00		1.285714e+00
-3.750000e-01		2.500000e-01		1.285714e+00
-3.750000e-01		5.000000e-01		1.285714e+00
-2.500000e-01		-5.000000e-01		1.285714e+00
-2.500000e-01		-3.750000e-01		1.285714e+00
-2.500000e-01		-2.500000e-01		1.285714e+00
-2.500000e-01		-1.250000e-01		1.285714e+00
-2.500000e-01		0.000000e+00		1.285714e+00
-2.500000e-01		1.250000e-01		1.285714e+00
-2.500000e-01		2.500000e-01		1.285714e+00
-2.500000e-01		3.750000e-01		1.285714e+00
-2.500000e-01		5.000000e-01		1.285714e+00
-1.250000e-01		-5.000000e-01		1.285714e+00
-1.250000e-01		-2.500000e-01		1.285714e+00
-1.250000e-01		0.000000e+00		1.285714e+00
-1.250000e-01		2.500000e-01		1.285714e+00
-1.250000e-01		5.000000e-01		1.285714e+00
0.000000e+00		-5.000000e-01		1.285714e+00
0.000000e+00		-3.750000e-01		1.285714e+00
0.000000e+00		-2.500000e-01		1.285714e+00
0.000000e+00		-1.250000e-01		1.285714e+00
0.000000e+00		0.000000e+00		1.285714e+00
0.000000e+00		1.250000e-01		1.285714e+00
0.000000e+00		2.500000e-01		1.285714e+00
0.000000e+00		3.750000e-01		1.285714e+00
0.000000e+00		5.000000e-01		1.285714e+00
1.250000e-01		-5.000000e-01		1.285714e+00
1.250000e-01		-2.500000e-01		1.285714e+00
1.250000e-01		0.000000e+00		1.285714e+00
1.250000e-01		2.500000e-01		1.285714e+00
1.250000e-01		5.000000e-01		1.285714e+00
2.500000e-01		-5.000000e-01		1.285714e+00
2.500000e-01		-3.750000e-01		1.285714e+00
2.500000e-01		-2.500000e-01		1.285714e+00
2.500000e-01		-1.250000e-01		1.285714e+00
2.500000e-01		0.000000e+00		1.285714e+00
2.500000e-01		1.250000e-01		1.285714e+00
2.500000e-01		2.500000e-01		1.285714e+00
2.500000e-01		3.750000e-01		1.285714e+00
2.500000e-01		5.000000e-01		1.285714e+00
3.750000e-01		-5.000000e-01		1.285714e+00
3.750000e-01		-2.500000e-01		1.285714e+00
3.750000e-01		0.000000e+00		1.285714e+00
3.750000e-01		2.500000e-01		1.285714e+00
3.750000e-01		5.000000e-01		1.285714e+00
5.000000e-01		-5.000000e-01		1.285714e+00
5.000000e-01		-3.750000e-01		1.285714e+00
5.000000e-01		-2.500000e-01		1.285714e+00
5.000000e-01		-1.250000e-01		1.285714e+00
5.000000e-01		0.000000e+00		1.285714e+00
5.000000e-01		1.250000e-01		1.285714e+00
5.000000e-01		2.500000e-01		1.285714e+00
5.000000e-01		3.750000e-01		1.285714e+00
5.000000e-01		5.000000e-01		1.285714e+00
-5.000000e-01		-5.000000e-01		1.392857e+00
-5.000000e-01		-2.500000e-01		1.392857e+00
-5.000000e-01		0.000000e+00		1.392857e+00
-5.000000e-01		2.500000e-01		1.392857e+00
-5.000000e-01		5.000000e-01		1.392857e+00
-2.500000e-01		-5.000000e-01		1.392857e+00
-2.500000e-01		-2.500000e-01		1.392857e+00
-2.500000e-01		0.000000e+00		1.392857e+00
-2.500000e-01		2.500000e-01		1.392857e+00
-2.500000e-01		5.000000e-01		1.392857e+00
0.000000e+00		-5.000000e-01		1.392857e+00
0.000000e+00		-2.500000e-01		1.392857e+00
0.000000e+00		0.000000e+00		1.392857e+00
0.000000e+00		2.500000e-01		1.392857e+00
0.000000e+00		5.000000e-01		1.392857e+00
2.500000e-01		-5.000000e-01		1.392857e+00
2.500000e-01		-2.500000e-01		1.392857e+00
2.500000e-01		0.000000e+00		1.392857e+00
2.500000e-01		2.500000e-01		1.392857e+00
2.500000e-01		5.000000e-01		1.392857e+00
5.000000e-01		-5.000000e-01		1.392857e+00
5.000000e-01		-2.500000e-01		1.392857e+00
5.000000e-01		0.000000e+00		1.392857e+00
5.000000e-01		2.500000e-01		1.392857e+00
5.000000e-01		5.000000e-01		1.392857e+00
-5.000000e-01		-5.000000e-01		1.500000e+00
-5.000000e-01		-3.750000e-01		1.500000e+00
-5.000000e-01		-2.500000e-01		1.500000e+00
-5.000000e-01		-1.250000e-01		1.500000e+00
-5.000000e-01		0.000000e+00		1.500000e+00
-5.000000e-01		1.250000e-01		1.500000e+00
-5.000000e-01		2.500000e-01		1.500000e+00
-5.000000e-01		3.750000e-01		1.500000e+00
-5.000000e-01		5.000000e-01		1.500000e+00
-3.750000e-01		-5.000000e-01		1.500000e+00
-3.750000e-01		-2.500000e-01		1.500000e+00
-3.750000e-01		0.000000e+00		1.500000e+00
-3.750000e-01		2.500000e-01		1.500000e+00
-3.750000e-01		5.000000e-01		1.500000e+00
-2.500000e-01		-5.000000e-01		1.500000e+00
-2.500000e-01		-3.750000e-01		1.500000e+00
-2.500000e-01		-2.500000e-01		1.500000e+00
-2.500000e-01		-1.250000e-01		1.500000e+00
-2.500000e-01		0.000000e+00		1.500000e+00
-2.500000e-01		1.250000e-01		1.500000e+00
-2.500000e-01		2.500000e-01		1.500000e+00
-2.500000e-01		3.750000e-01		1.500000e+00
-2.500000e-01		5.000000e-01		1.500000e+00
-1.250000e-01		-5.000000e-01		1.500000e+00
-1.250000e-01		-2.500000e-01		1.500000e+00
-1.250000e-01		0.000000e+00		1.500000e+00
-1.250000e-01		2.500000e-01		1.500000e+00
-1.250000e-01		5.000000e-01		1.500000e+00
0.000000e+00		-5.000000e-01		1.500000e+00
0.000000e+00		-3.750000e-01		1.500000e+00
0.000000e+00		-2.500000e-01		1.500000e+00
0.000000e+00		-1.250000e-01		1.500000e+00
0.000000e+00		0.000000e+00		1.500000e+00
0.000000e+00		1.250000e-01		1.500000e+00
0.000000e+00		2.500000e-01		1.500000e+00
0.000000e+00		3.750000e-01		1.500000e+00
0.000000e+00		5.000000e-01		1.500000e+00
1.250000e-01		-5.000000e-01		1.500000e+00
1.250000e-01		-2.500000e-01		1.500000e+00
1.250000e-01		0.000000e+00		1.500000e+00
1.250000e-01		2.500000e-01		1.500000e+00
1.250000e-01		5.000000e-01		1.500000e+00
2.500000e-01		-5.000000e-01		1.500000e+00
2.500000e-01		-3.750000e-01		1.500000e+00
2.500000e-01		-2.500000e-01		1.500000e+00
2.500000e-01		-1.250000e-01		1.500000e+00
2.500000e-01		0.000000e+00		1.500000e+00
2.500000e-01		1.250000e-01		1.500000e+00
2.500000e-01		2.500000e-01		1.500000e+00
2.500000e-01		3.750000e-01		1.500000e+00
2.500000e-01		5.000000e-01		1.500000e+00
3.750000e-01		-5.000000e-01		1.500000e+00
3.750000e-01		-2.500000e-01		1.500000e+00
3.750000e-01		0.000000e+00		1.500000e+00
3.750000e-01		2.500000e-01		1.500000e+00
3.750000e-01		5.000000e-01		1.500000e+00
5.000000e-01		-5.000000e-01		1.500000e+00
5.000000e-01		-3.750000e-01		1.500000e+00
5.000000e-01		-2.500000e-01		1.500000e+00
5.000000e-01		-1.250000e-01		1.500000e+00
5.000000e-01		0.000000e+00		1.500000e+00
5.000000e-01		1.250000e-01		1.500000e+00
5.000000e-01		2.500000e-01		1.500000e+00
5.000000e-01		3.750000e-01		1.500000e+00
5.000000e-01		5.000000e-01		1.500000e+00
CELLS 224 4704
20		0		14		16		2		90		104		106		92		9		15		10		1		99		105		100		91		65		70		71		66		
20		2		16		18		4		92		106		108		94		10		17		11		3		100		107		101		93		66		71		72		67		
20		4		18		20		6		94		108		110		96		11		19		12		5		101		109		102		95		67		72		73		68		
20		6		20		22		8		96		110		112		98		12		21		13		7		102		111		103		97		68		73		74		69		
20		14		28		30		16		104		118		120		106		23		29		24		15		113		119		114		105		70		75		76		71		
20		16		30		32		18		106		120		122		108		24		31		25		17		114		121		115		107		71		76		77		72		
20		18		32		34		20		108		122		124		110		25		33		26		19		115		123		116		109		72		77		78		73		
20		20		34		36		22		110		124		126		112		26		35		27		21		116		125		117		111		73		78		79		74		
20		28		42		44		30		118		132		134		120		37		43		38		29		127		133		128		119		75		80		81		76		
20		30		44		46		32		120		134		136		122		38		45		39		31		128		135		129		121		76		81		82		77		
20		32		46		48		34		122		136		138		124		39		47		40		33		129		137		130		123		77		82		83		78		
20		34		48		50		36		124		138		140		126		40		49		41		35		130		139		131		125		78		83		84		79		
20		42		56		58		44		132		146		148		134		51		57		52		43		141		147		142		133		80		85		86		81		
20		44		58		60		46		134		148		150		136		52		59		53		45		142		149		143		135		81		86		87		82		
20		46		60		62		48		136		150		152		138		53		61		54		47		143		151		144		137		82		87		88		83		
20		48		62		64		50		138		152		154		140		54		63		55		49		144		153		145		139		83		88		89		84		
20		90		104		106		92		180		194		196		182		99		105		100		91		189		195		190		181		155		160		161		156		
20		92		106		108		94		182		196		198		184		100		107		101		93		190		197		191		183		156		161		162		157		
20		94		108		110		96		184		198		200		186		101		109		102		95		191		199		192		185		157		162		163		158		
20		96		110		112		98		186		200		202		188		102		111		103		97		192		201		193		187		158		163		164		159		
20		104		118		120		106		194		208		210		196		113		119		114		105		203		209		204		195		160		165		166		161		
20		106		120		122		108		196		210		212		198		114		121		115		107		204		211		205		197		161		166		167		162		
20		108		122		124		110		198		212		214		200		115		123		116		109		205		213		206		199		162		167		168		163		
20		110		124		126		112		200		214		216		202		116		125		117		111		206		215		207		201		163		168		169		164		
20		118		132		134		120		208		222		224		210		127		133		128		119		217		223		218		209		165		170		171		166		
20		120		134		136		122		210		224		226		212		128		135		129		121		218		225		219		211		166		171		172		167		
20		122		136		138		124		212		226		228		214		129		137		130		123		219		227		220		213		167		172		173		168		
20		124		138		140		126		214		228		230		216		130		139		131		125		220		229		221		215		168		173		174		169		
20		132		146		148		134		222		236		238		224		141		147		142		133		231		237		232		223		170		175		176		171		
20		134		148		150		136		224		238		240		226		142		149		143		135		232		239		233		225		171		176		177		172		
20		136		150		152		138		226		240		242		228		143		151		144		137		233		241		234		227		172		177		178		173		
20		138		152		154		140		228		242		244		230		144		153		145		139		234		243		235		229		173		178		179		174		
20		180		194		196		182		270		284		286		272		189		195		190		181		279		285		280		271		245		250		251		246		
20		182		196		198		184		272		286		288		274		190		197		191		183		280		287		281		273		246		251		252		247		
20		184		198		200		186		274		288		290		276		191		199		192		185		281		289		282		275		247		252		253		248		
20		186		200		202		188		276		290		292		278		192		201		193		187		282		291		283		277		248		253		254		249		
20		194		208		210		196		284		298		300		286		203		209		204		195		293		299		294		285		250		255		256		251		
20		196		210		212		198		286		300		302		288		204		211		205		197		294		301		295		287		251		256		257		252		
20		198		212		214		200		288		302		304		290		205		213		206		199		295		303		296		289		252		257		258		253		
20		200		214		216		202		290		304		306		292		206		215		207		201		296		305		297		291		253		258		259		254		
20		208		222		224		210		298		312		314		300		217		223		218		209		307		313		308		299		255		260		261		256		
20		210		224		226		212		300		314		316		302		218		225		219		211		308		315		309		301		256		261		262		257		
20		212		226		228		214		302		316		318		304		219		227		220		213		309		317		310		303		257		262		263		258		
20		214		228		230		216		304		318		320		306		220		229		221		215		310		319		311		305		258		263		264		259		
20		222		236		238		224		312		326		328		314		231		237		232		223		321		327		322		313		260		265		266		261		
20		224		238		240		226		314		328		330		316		232		239		233		225		322		329		323		315		261		266		267		262		
20		226		240		242		228		316		330		332		318		233		241		234		227		323		331		324		317		262		267		268		263		
20		228		242		244		230		318		332		334		320		234		243		235		229		324		333		325		319		263		268		269		264		
20		270		284		286		272		360		374		376		362		279		285		280		271		369		375		370		361		335		340		341		336		
20		272		286		288		274		362		376		378		364		280		287		281		273		370		377		371		363		336		341		342		337		
20		274		288		290		276		364		378		380		366		281		289		282		275		371		379		372		365		337		342		343		338		
20		276		290		292		278		366		380		382		368		282		291		283		277		372		381		373		367		338		343		344		339		
20		284		298		300		286		374		388		390		376		293		299		294		285		383		389		384		375		340		345		346		341		
20		286		300		302		288		376		390		392		378		294		301		295		287		384		391		385		377		341		346		347		342		
20		288		302		304		290		378		392		394		380		295		303		296		289		385		393		386		379		342		347		348		343		
20		290		304		306		292		380		394		396		382		296		305		297		291		386		395		387		381		343		348		349		344		
20		298		312		314		300		388		402		404		390		307		313		308		299		397		403		398		389		345		350		351		346		
20		300		314		316		302		390		404		406		392		308		315		309		301		398		405		399		391		346		351		352		347		
20		302		316		318		304		392		406		408		394		309		317		310		303		399		407		400		393		347		352		353		348		
20		304		318		320		306		394		408		410		396		310		319		311		305		400		409		401		395		348		353		354		349		
20		312		326		328		314		402		416		418		404		321		327		322		313		411		417		412		403		350		355		356		351		
20		314		328		330		316		404		418		420		406		322		329		323		315		412		419		413		405		351		356		357		352		
20		316		330		332		318		406		420		422		408		323		331		324		317		413		421		414		407		352		357		358		353		
20		318		332		334		320		408		422		424		410		324		333		325		319		414		423		415		409		353		358		359		354		
20		360		374		376		362		450		464		466		452		369		375		370		361		459		465		460		451		425		430		431		426		
20		362		376		378		364		452		466		468		454		370		377		371		363		460		467		461		453		426		431		432		427		
20		364		378		380		366		454		468		470		456		371		379		372		365		461		469		462		455		427		432		433		428		
20		366		380		382		368		456		470		472		458		372		381		373		367		462		471		463		457		428		433		434		429		
20		374		388		390		376		464		478		480		466		383		389		384		375		473		479		474		465		430		435		436		431		
20		376		390		392		378		466		480		482		468		384		391		385		377		474		481		475		467		431		436		437		432		
20		378		392		394		380		468		482		484		470		385		393		386		379		475		483		476		469		432		437		438		433		
20		380		394		396		382		470		484		486		472		386		395		387		381		476		485		477		471		433		438		439		434		
20		388		402		404		390		478		492		494		480		397		403		398		389		487		493		488		479		435		440		441		436		
20		390		404		406		392		480		494		496		482		398		405		399		391		488		495		489		481		436		441		442		437		
20		392		406		408		394		482		496		498		484		399		407		400		393		489		497		490		483		437		442		443		438		
20		394		408		410		396		484		498		500		486		400		409		401		395		490		499		491		485		438		443		444		439		
20		402		416		418		404		492		506		508		494		411		417		412		403		501		507		502		493		440		445		446		441		
20		404		418		420		406		494		508		510		496		412		419		413		405		502		509		503		495		441		446		447		442		
20		406		420		422		408		496		510		512		498		413		421		414		407		503		511		504		497		442		447		448		443		
20		408		422		424		410		498		512		514		500		414		423		415		409		504		513		505		499		443		448		449		444		
20		450		464		466		452		540		554		556		542		459		465		460		451		549		555		550		541		515		520		521		516		
20		452		466		468		454		542		556		558		544		460		467		461		453		550		557		551		543		516		521		522		517		
20		454		468		470		456		544		558		560		546		461		469		462		455		551		559		552		545		517		522		523		518		
20		456		470		472		458		546		560		562		548		462		471		463		457		552		561		553		547		518		523		524		519		
20		464		478		480		466		554		568		570		556		473		479		474		465		563		569		564		555		520		525		526		521		
20		466		480		482		468		556		570		572		558		474		481		475		467		564		571		565		557		521		526		527		522		
20		468		482		484		470		558		572		574		560		475		483		476		469		565		573		566		559		522		527		528		523		
20		470		484		486		472		560		574		576		562		476		485		477		471		566		575		567		561		523		528		529		524		
20		478		492		494		480		568		582		584		570		487		493		488		479		577		583		578		569		525		530		531		526		
20		480		494		496		482		570		584		586		572		488		495		489		481		578		585		579		571		526		531		532		527		
20		482		496		498		484		572		586		588		574		489		497		490		483		579		587		580		573		527		532		533		528		
20		484		498		500		486		574		588		590		576		490		499		491		485		580		589		581		575		528		533		534		529		
20		492		506		508		494		582		596		598		584		501		507		502		493		591		597		592		583		530		535		536		531		
20		494		508		510		496		584		598		600		586		502		509		503		495		592		599		593		585		531		536		537		532		
20		496		510		512		498		586		600		602		588		503		511		504		497		593		601		594		587		532		537		538		533		
20		498		512		514		500		588		602		604		590		504		513		505		499		594		603		595		589		533		538		539		534		
20		540		554		556		542		630		644		646		632		549		555		550		541		639		645		640		631		605		610		611		606		
20		542		556		558		544		632		646		648		634		550		557		551		543		640		647		641		633		606		611		612		607		
20		544		558		560		546		634		648		650		636		551		559		552		545		641		649		642		635		607		612		613		608		
20		546		560		562		548		636		650		652		638		552		561		553		547		642		651		643		637		608		613		614		609		
20		554		568		570		556		644		658		660		646		563		569		564		555		653		659		654		645		610		615		616		611		
20		556		570		572		558		646		660		662		648		564		571		565		557		654		661		655		647		611		616		617		612		
20		558		572		574		560		648		662		664		650		565		573		566		559		655		663		656		649		612		617		618		613		
20		560		574		576		562		650		664		666		652		566		575		567		561		656		665		657		651		613		618		619		614		
20		568		582		584		570		658		672		674		660		577		583		578		569		667		673		668		659		615		620		621		616		
20		570		584		586		572		660		674		676		662		578		585		579		571		668		675		669		661		616		621		622		617		
20		572		586		588		574		662		676		678		664		579		587		580		573		669		677		670		663		617		622		623		618		
20		574		588		590		576		664		678		680		666		580		589		581		575		670		679		671		665		618		623		624		619		
20		582		596		598		584		672		686		688		674		591		597		592		583		681		687		682		673		620		625		626		621		
20		584		598		600		586		674		688		690		676		592		599		593		585		682		689		683		675		621		626		627		622		
20		586		600		602		588		676		690		692		678		593		601		594		587		683		691		684		677		622		627		628		623		
20		588		602		604		590		678		692		694		680		594		603		595		589		684		693		685		679		623		628		629		624		
20		630		644		646		632		720		734		736		722		639		645		640		631		729		735		730		721		695		700		701		696		
20		632		646		648		634		722		736		738		724		640		647		641		633		730		737		731		723		696		701		702		697		
20		634		648		650		636		724		738		740		726		641		649		642		635		731		739		732		725		697		702		703		698		
20		636		650		652		638		726		740		742		728		642		651		643		637		732		741		733		727		698		703		704		699		
20		644		658		660		646		734		748		750		736		653		659		654		645		743		749		744		735		700		705		706		701		
20		646		660		662		648		736		750		752		738		654		661		655		647		744		751		745		737		701		706		707		702		
20		648		662		664		650		738		752		754		740		655		663		656		649		745		753		746		739		702		707		708		703		
20		650		664		666		652		740		754		756		742		656		665		657		651		746		755		747		741		703		708		709		704		
20		658		672		674		660		748		762		764		750		667		673		668		659		757		763		758		749		705		710		711		706		
20		660		674		676		662		750		764		766		752		668		675		669		661		758		765		759		751		706		711		712		707		
20		662		676		678		664		752		766		768		754		669		677		670		663		759		767		760		753		707		712		713		708		
20		664		678		680		666		754		768		770		756		670		679		671		665		760		769		761		755		708		713		714		709		
20		672		686		688		674		762		776		778		764		681		687		682		673		771		777		772		763		710		715		716		711		
20		674		688		690		676		764		778		780		766		682		689		683		675		772		779		773		765		711		716		717		712		
20		676		690		692		678		766		780		782		768		683		691		684		677		773		781		774		767		712		717		718		713		
20		678		692		694		680		768		782		784		770		684		693		685		679		774		783		775		769		713		718		719		714		
20		720		734		736		722		810		824		826		812		729		735		730		721		819		825		820		811		785		790		791		786		
20		722		736		738		724		812		826		828		814		730		737		731		723		820		827		821		813		786		791		792		787		
20		724		738		740		726		814		828		830		816		731		739		732		725		821		829		822		815		787		792		793		788		
20		726		740		742		728		816		830		832		818		732		741		733		727		822		831		823		817		788		793		794		789		
20		734		748		750		736		824		838		840		826		743		749		744		735		833		839		834		825		790		795		796		791		
20		736		750		752		738		826		840		842		828		744		751		745		737		834		841		835		827		791		796		797		792		
20		738		752		754		740		828		842		844		830		745		753		746		739		835		843		836		829		792		797		798		793		
20		740		754		756		742		830		844		846		832		746		755		747		741		836		845		837		831		793		798		799		794		
20		748		762		764		750		838		852		854		840		757		763		758		749		847		853		848		839		795		800		801		796		
20		750		764		766		752		840		854		856		842		758		765		759		751		848		855		849		841		796		801		802		797		
20		752		766		768		754		842		856		858		844		759		767		760		753		849		857		850		843		797		802		803		798		
20		754		768		770		756		844		858		860		846		760		769		761		755		850		859		851		845		798		803		804		799		
20		762		776		778		764		852		866		868		854		771		777		772		763		861		867		862		853		800		805		806		801		
20		764		778		780		766		854		868		870		856		772		779		773		765		862		869		863		855		801		806		807		802		
20		766		780		782		768		856		870		872		858		773		781		774		767		863		871		864		857		802		807		808		803		
20		768		782		784		770		858		872		874		860		774		783		775		769		864		873		865		859		803		808		809		804		
20		810		824		826		812		900		914		916		902		819		825		820		811		909		915		910		901		875		880		881		876		
20		812		826		828		814		902		916		918		904		820		827		821		813		910		917		911		903		876		881		882		877		
20		814		828		830		816		904		918		920		906		821		829		822		815		911		919		912		905		877		882		883		878		
20		816		830		832		818		906		920		922		908		822		831		823		817		912		921		913		907		878		883		884		879		
20		824		838		840		826		914		928		930		916		833		839		834		825		923		929		924		915		880		885		886		881		
20		826		840		842		828		916		930		932		918		834		841		835		827		924		931		925		917		881		886		887		882		
20		828		842		844		830		918		932		934		920		835		843		836		829		925		933		926		919		882		887		888		883		
20		830		844		846		832		920		934		936		922		836		845		837		831		926		935		927		921		883		888		889		884		
20		838		852		854		840		928		942		944		930		847		853		848		839		937		943		938		929		885		890		891		886		
20		840		854		856		842		930		944		946		932		848		855		849		841		938		945		939		931		886		891		892		887		
20		842		856		858		844		932		946		948		934		849		857		850		843		939		947		940		933		887		892		893		888		
20		844		858		860		846		934		948		950		936		850		859		851		845		940		949		941		935		888		893		894		889		
20		852		866		868		854		942		956		958		944		861		867		862		853		951		957		952		943		890		895		896		891		
20		854		868		870		856		944		958		960		946		862		869		863		855		952		959		953		945		891		896		897		892		
20		856		870		872		858		946		960		962		948		863		871		864		857		953		961		954		947		892		897		898		893		
20		858		872		874		860		948		962		964		950		864		873		865		859		954		963		955		949		893		898		899		894		
20		900		914		916		902		990		1004		1006		992		909		915		910		901		999		1005		1000		991		965		970		971		966		
20		902		916		918		904		992		1006		1008		994		910		917		911		903		1000		1007		1001		993		966		971		972		967		
20		904		918		920		906		994		1008		1010		996		911		919		912		905		1001		1009		1002		995		967		972		973		968		
20		906		920		922		908		996		1010		1012		998		912		921		913		907		1002		1011		1003		997		968		973		974		969		
20		914		928		930		916		1004		1018		1020		1006		923		929		924		915		1013		1019		1014		1005		970		975		976		971		
20		916		930		932		918		1006		1020		1022		1008		924		931		925		917		1014		1021		1015		1007		971		976		977		972		
20		918		932		934		920		1008		1022		1024		1010		925		933		926		919		1015		1023		1016		1009		972		977		978		973		
20		920		934		936		922		1010		1024		1026		1012		926		935		927		921		1016		1025		1017		1011		973		978		979		974		
20		928		942		944		930		1018		1032		1034		1020		937		943		938		929		1027		1033		1028		1019		975		980		981		976		
20		930		944		946		932		1020		1034		1036		1022		938		945		939		931		1028		1035		1029		1021		976		981		982		977		
20		932		946		948		934		1022		1036		1038		1024		939		947		940		933		1029		1037		1030		1023		977		982		983		978		
20		934		948		950		936		1024		1038		1040		1026		940		949		941		935		1030		1039		1031		1025		978		983		984		979		
20		942		956		958		944		1032		1046		1048		1034		951		957		952		943		1041		1047		1042		1033		980		985		986		981		
20		944		958		960		946		1034		1048		1050		1036		952		959		953		945		1042		1049		1043		1035		981		986		987		982		
20		946		960		962		948		1036		1050		1052		1038		953		961		954		947		1043		1051		1044		1037		982		987		988		983		
20		948		962		964		950		1038		1052		1054		1040		954		963		955		949		1044		1053		1045		1039		983		988		989		984		
20		990		1004		1006		992		1080		1094		1096		1082		999		1005		1000		991		1089		1095		1090		1081		1055		1060		1061		1056		
20		992		1006		1008		994		1082		1096		1098		1084		1000		1007		1001		993		1090		1097		1091		1083		1056		1061		1062		1057		
20		994		1008		1010		996		1084		1098		1100		1086		1001		1009		1002		995		1091		1099		1092		1085		1057		1062		1063		1058		
20		996		1010		1012		998		1086		1100		1102		1088		1002		1011		1003		997		1092		1101		1093		1087		1058		1063		1064		1059		
20		1004		1018		1020		1006		1094		1108		1110		1096		1013		1019		1014		1005		1103		1109		1104		1095		1060		1065		1066		1061		
20		1006		1020		1022		1008		1096		1110		1112		1098		1014		1021		1015		1007		1104		1111		1105		1097		1061		1066		1067		1062		
20		1008		1022		1024		1010		1098		1112		1114		1100		1015		1023		1016		1009		1105		1113		1106		1099		1062		1067		1068		1063		
20		1010		1024		1026		1012		1100		1114		1116		1102		1016		1025		1017		1011		1106		1115		1107		1101		1063		1068		1069		1064		
20		1018		1032		1034		1020		1108		1122		1124		1110		1027		1033		1028		1019		1117		1123		1118		1109		1065		1070		1071		1066		
20		1020		1034		1036		1022		1110		1124		1126		1112		1028		1035		1029		1021		1118		1125		1119		1111		1066		1071		1072		1067		
20		1022		1036		1038		1024		1112		1126		1128		1114		1029		1037		1030		1023		1119		1127		1120		1113		1067		1072		1073		1068		
20		1024		1038		1040		1026		1114		1128		1130		1116		1030		1039		1031		1025		1120		1129		1121		1115		1068		1073		1074		1069		
20		1032		1046		1048		1034		1122		1136		1138		1124		1041		1047		1042		1033		1131		1137		1132		1123		1070		1075		1076		1071		
20		1034		1048		1050		1036		1124		1138		1140		1126		1042		1049		1043		1035		1132		1139		1133		1125		1071		1076		1077		1072		
20		1036		1050		1052		1038		1126		1140		1142		1128		1043		1051		1044		1037		1133		1141		1134		1127		1072		1077		1078		1073		
20		1038		1052		1054		1040		1128		1142		1144		1130		1044		1053		1045		1039		1134		1143		1135		1129		1073		1078		1079		1074		
20		1080		1094		1096		1082		1170		1184		1186		1172		1089		1095		1090		1081		1179		1185		1180		1171		1145		1150		1151		1146		
20		1082		1096		1098		1084		1172		1186		1188		1174		1090		1097		1091		1083		1180		1187		1181		1173		1146		1151		1152		1147		
20		1084		1098		1100		1086		1174		1188		1190		1176		1091		1099		1092		1085		1181		1189		1182		1175		1147		1152		1153		1148		
20		1086		1100		1102		1088		1176		1190		1192		1178		1092		1101		1093		1087		1182		1191		1183		1177		1148		1153		1154		1149		
20		1094		1108		1110		1096		1184		1198		1200		1186		1103		1109		1104		1095		1193		1199		1194		1185		1150		1155		1156		1151		
20		1096		1110		1112		1098		1186		1200		1202		1188		1104		1111		1105		1097		1194		1201		1195		1187		1151		1156		1157		1152		
20		1098		1112		1114		1100		1188		1202		1204		1190		1105		1113		1106		1099		1195		1203		1196		1189		1152		1157		1158		1153		
20		1100		1114		1116		1102		1190		1204		1206		1192		1106		1115		1107		1101		1196		1205		1197		1191		1153		1158		1159		1154		
20		1108		1122		1124		1110		1198		1212		1214		1200		1117		1123		1118		1109		1207		1213		1208		1199		1155		1160		1161		1156		
20		1110		1124		1126		1112		1200		1214		1216		1202		1118		1125		1119		1111		1208		1215		1209		1201		1156		1161		1162		1157		
20		1112		1126		1128		1114		1202		1216		1218		1204		1119		1127		1120		1113		1209		1217		1210		1203		1157		1162		1163		1158		
20		1114		1128		1130		1116		1204		1218		1220		1206		1120		1129		1121		1115		1210		1219		1211		1205		1158		1163		1164		1159		
20		1122		1136		1138		1124		1212		1226		1228		1214		1131		1137		1132		1123		1221		1227		1222		1213		1160		1165		1166		1161		
20		1124		1138		1140		1126		1214		1228		1230		1216		1132		1139		1133		1125		1222		1229		1223		1215		1161		1166		1167		1162		
20		1126		1140		1142		1128		1216		1230		1232		1218		1133		1141		1134		1127		1223		1231		1224		1217		1162		1167		1168		1163		
20		1128		1142		1144		1130		1218		1232		1234		1220		1134		1143		1135		1129		1224		1233		1225		1219		1163		1168		1169		1164		
20		1170		1184		1186		1172		1260		1274		1276		1262		1179		1185		1180		1171		1269		1275		1270		1261		1235		1240		1241		1236		
20		1172		1186		1188		1174		1262		1276		1278		1264		1180		1187		1181		1173		1270		1277		1271		1263		1236		1241		1242		1237		
20		1174		1188		1190		1176		1264		1278		1280		1266		1181		1189		1182		1175		1271		1279		1272		1265		1237		1242		1243		1238		
20		1176		1190		1192		1178		1266		1280		1282		1268		1182		1191		1183		1177		1272		1281		1273		1267		1238		1243		1244		1239		
20		1184		1198		1200		1186		1274		1288		1290		1276		1193		1199		1194		1185		1283		1289		1284		1275		1240		1245		1246		1241		
20		1186		1200		1202		1188		1276		1290		1292		1278		1194		1201		1195		1187		1284		1291		1285		1277		1241		1246		1247		1242		
20		1188		1202		1204		1190		1278		1292		1294		1280		1195		1203		1196		1189		1285		1293		1286		1279		1242		1247		1248		1243		
20		1190		1204		1206		1192		1280		1294		1296		1282		1196		1205		1197		1191		1286		1295		1287		1281		1243		1248		1249		1244		
20		1198		1212		1214		1200		1288		1302		1304		1290		1207		1213		1208		1199		1297		1303		1298		1289		1245		1250		1251		1246		
20		1200		1214		1216		1202		1290		1304		1306		1292		1208		1215		1209		1201		1298		1305		1299		1291		1246		1251		1252		1247		
20		1202		1216		1218		1204		1292		1306		1308		1294		1209		1217		1210		1203		1299		1307		1300		1293		1247		1252		1253		1248		
20		1204		1218		1220		1206		1294		1308		1310		1296		1210		1219		1211		1205		1300		1309		1301		1295		1248		1253		1254		1249		
20		1212		1226		1228		1214		1302		1316		1318		1304		1221		1227		1222		1213		1311		1317		1312		1303		1250		1255		1256		1251		
20		1214		1228		1230		1216		1304		1318		1320		1306		1222		1229		1223		1215		1312		1319		1313		1305		1251		1256		1257		1252		
20		1216		1230		1232		1218		1306		1320		1322		1308		1223		1231		1224		1217		1313		1321		1314		1307		1252		1257		1258		1253		
20		1218		1232		1234		1220		1308		1322		1324		1310		1224		1233		1225		1219		1314		1323		1315		1309		1253		1258		1259		1254		
CELL_TYPES 224
25
25
25
25
25
25
25
25
25
25
25
25
25
25
25
25
25
25
25
25
25
25
25
25
25
25
25
25
25
25
25
25
25
25
25
25
25
25
25
25
25
25
25
25
25
25
25
25
25
25
25
25
25
25
25
25
25
25
25
25
25
25
25
25
25
25
25
25
25
25
25
25
25
25
25
25
25
25
25
25
25
25
25
25
25
25
25
25
25
25
25
25
25
25
25
25
25
25
25
25
25
25
25
25
25
25
25
25
25
25
25
25
25
25
25
25
25
25
25
25
25
25
25
25
25
25
25
25
25
25
25
25
25
25
25
25
25
25
25
25
25
25
25
25
25
25
25
25
25
25
25
25
25
25
25
25
25
25
25
25
25
25
25
25
25
25
25
25
25
25
25
25
25
25
25
25
25
25
25
25
25
25
25
25
25
25
25
25
25
25
25
25
25
25
25
25
25
25
25
25
25
25
25
25
25
25
25
25
25
25
25
25
25
25
25
25
25
25
25
25
25
25
25
25
POINT_DATA 1325
SCALARS node_id double 1
LOOKUP_TABLE default
0.000000
1.000000
2.000000
3.000000
4.000000
5.000000
6.000000
7.000000
8.000000
9.000000
10.000000
11.000000
12.000000
13.000000
14.000000
15.000000
16.000000
17.000000
18.000000
19.000000
20.000000
21.000000
22.000000
23.000000
24.000000
25.000000
26.000000
27.000000
28.000000
29.000000
30.000000
31.000000
32.000000
33.000000
34.000000
35.000000
36.000000
37.000000
38.000000
39.000000
40.000000
41.000000
42.000000
43.000000
44.000000
45.000000
46.000000
47.000000
48.000000
49.000000
50.000000
51.000000
52.000000
53.000000
54.000000
55.000000
56.000000
57.000000
58.000000
59.000000
60.000000
61.000000
62.000000
63.000000
64.000000
65.000000
66.000000
67.000000
68.000000
69.000000
70.000000
71.000000
72.000000
73.000000
74.000000
75.000000
76.000000
77.000000
78.000000
79.000000
80.000000
81.000000
82.000000
83.000000
84.000000
85.000000
86.000000
87.000000
88.000000
89.000000
90.000000
91.000000
92.000000
93.000000
94.000000
95.000000
96.000000
97.000000
98.000000
99.000000
100.000000
101.000000
102.000000
103.000000
104.000000
105.000000
106.000000
107.000000
108.000000
109.000000
110.000000
111.000000
112.000000
113.000000
114.000000
115.000000
116.000000
117.000000
118.000000
119.000000
120.000000
121.000000
122.000000
123.000000
124.000000
125.000000
126.000000
127.000000
128.000000
129.000000
130.000000
131.000000
132.000000
133.000000
134.000000
135.000000
136.000000
137.000000
138.000000
139.000000
140.000000
141.000000
142.000000
143.000000
144.000000
145.000000
146.000000
147.000000
148.000000
149.000000
150.000000
151.000000
152.000000
153.000000
154.000000
155.000000
156.000000
157.000000
158.000000
159.000000
160.000000
161.000000
162.000000
163.000000
164.000000
165.000000
166.000000
167.000000
168.000000
169.000000
170.000000
171.000000
172.000000
173.000000
174.000000
175.000000
176.000000
177.000000
178.000000
179.000000
180.000000
181.000000
182.000000
183.000000
184.000000
185.000000
186.000000
187.000000
188.000000
189.000000
190.000000
191.000000
192.000000
193.000000
194.000000
195.000000
196.000000
197.000000
198.000000
199.000000
200.000000
201.000000
202.000000
203.000000
204.000000
205.000000
206.000000
207.000000
208.000000
209.000000
210.000000
211.000000
212.000000
213.000000
214.000000
215.000000
216.000000
217.000000
218.000000
219.000000
220.000000
221.000000
222.000000
223.000000
224.000000
225.000000
226.000000
227.000000
228.000000
229.000000
230.000000
231.000000
232.000000
233.000000
234.000000
235.000000
236.000000
237.000000
238.000000
239.000000
240.000000
241.000000
242.000000
243.000000
244.000000
245.000000
246.000000
247.000000
248.000000
249.000000
250.000000
251.000000
252.000000
253.000000
254.000000
255.000000
256.000000
257.000000
258.000000
259.000000
260.000000
261.000000
262.000000
263.000000
264.000000
265.000000
266.000000
267.000000
268.000000
269.000000
270.000000
271.000000
272.000000
273.000000
274.000000
275.000000
276.000000
277.000000
278.000000
279.000000
280.000000
281.000000
282.000000
283.000000
284.000000
285.000000
286.000000
287.000000
288.000000
289.000000
290.000000
291.000000
292.000000
293.000000
294.000000
295.000000
296.000000
297.000000
298.000000
299.000000
300.000000
301.000000
302.000000
303.000000
304.000000
305.000000
306.000000
307.000000
308.000000
309.000000
310.000000
311.000000
312.000000
313.000000
314.000000
315.000000
316.000000
317.000000
318.000000
319.000000
320.000000
321.000000
322.000000
323.000000
324.000000
325.000000
326.000000
327.000000
328.000000
329.000000
330.000000
331.000000
332.000000
333.000000
334.000000
335.000000
336.000000
337.000000
338.000000
339.000000
340.000000
341.000000
342.000000
343.000000
344.000000
345.000000
346.000000
347.000000
348.000000
349.000000
350.000000
351.000000
352.000000
353.000000
354.000000
355.000000
356.000000
357.000000
358.000000
359.000000
360.000000
361.000000
362.000000
363.000000
364.000000
365.000000
366.000000
367.000000
368.000000
369.000000
370.000000
371.000000
372.000000
373.000000
374.000000
375.000000
376.000000
377.000000
378.000000
379.000000
380.000000
381.000000
382.000000
383.000000
384.000000
385.000000
386.000000
387.000000
388.000000
389.000000
390.000000
391.000000
392.000000
393.000000
394.000000
395.000000
396.000000
397.000000
398.000000
399.000000
400.000000
401.000000
402.000000
403.000000
404.000000
405.000000
406.000000
407.000000
408.000000
409.000000
410.000000
411.000000
412.000000
413.000000
414.000000
415.000000
416.000000
417.000000
418.000000
419.000000
420.000000
421.000000
422.000000
423.000000
424.000000
425.000000
426.000000
427.000000
428.000000
429.000000
430.000000
431.000000
432.000000
433.000000
434.000000
435.000000
436.000000
437.000000
438.000000
439.000000
440.000000
441.000000
442.000000
443.000000
444.000000
445.000000
446.000000
447.000000
448.000000
449.000000
450.000000
451.000000
452.000000
453.000000
454.000000
455.000000
456.000000
457.000000
458.000000
459.000000
460.000000
461.000000
462.000000
463.000000
464.000000
465.000000
466.000000
467.000000
468.000000
469.000000
470.000000
471.000000
472.000000
473.000000
474.000000
475.000000
476.000000
477.000000
478.000000
479.000000
480.000000
481.000000
482.000000
483.000000
484.000000
485.000000
486.000000
487.000000
488.000000
489.000000
490.000000
491.000000
492.000000
493.000000
494.000000
495.000000
496.000000
497.000000
498.000000
499.000000
500.000000
501.000000
502.000000
503.000000
504.000000
505.000000
506.000000
507.000000
508.000000
509.000000
510.000000
511.000000
512.000000
513.000000
514.000000
515.000000
516.000000
517.000000
518.000000
519.000000
520.000000
521.000000
522.000000
523.000000
524.000000
525.000000
526.000000
527.000000
528.000000
529.000000
530.000000
531.000000
532.000000
533.000000
534.000000
535.000000
536.000000
537.000000
538.000000
539.000000
540.000000
541.000000
542.000000
543.000000
544.000000
545.000000
546.000000
547.000000
548.000000
549.000000
550.000000
551.000000
552.000000
553.000000
554.000000
555.000000
556.000000
557.000000
558.000000
559.000000
560.000000
561.000000
562.000000
563.000000
564.000000
565.000000
566.000000
567.000000
568.000000
569.000000
570.000000
571.000000
572.000000
573.000000
574.000000
575.000000
576.000000
577.000000
578.000000
579.000000
580.000000
581.000000
582.000000
583.000000
584.000000
585.000000
586.000000
587.000000
588.000000
589.000000
590.000000
591.000000
592.000000
593.000000
594.000000
595.000000
596.000000
597.000000
598.000000
599.000000
600.000000
601.000000
602.000000
603.000000
604.000000
605.000000
606.000000
607.000000
608.000000
609.000000
610.000000
611.000000
612.000000
613.000000
614.000000
615.000000
616.000000
617.000000
618.000000
619.000000
620.000000
621.000000
622.000000
623.000000
624.000000
625.000000
626.000000
627.000000
628.000000
629.000000
630.000000
631.000000
632.000000
633.000000
634.000000
635.000000
636.000000
637.000000
638.000000
639.000000
640.000000
641.000000
642.000000
643.000000
644.000000
645.000000
646.000000
647.000000
648.000000
649.000000
650.000000
651.000000
652.000000
653.000000
654.000000
655.000000
656.000000
657.000000
658.000000
659.000000
660.000000
661.000000
662.000000
663.000000
664.000000
665.000000
666.000000
667.000000
668.000000
669.000000
670.000000
671.000000
672.000000
673.000000
674.000000
675.000000
676.000000
677.000000
678.000000
679.000000
680.000000
681.000000
682.000000
683.000000
684.000000
685.000000
686.000000
687.000000
688.000000
689.000000
690.000000
691.000000
692.000000
693.000000
694.000000
695.000000
696.000000
697.000000
698.000000
699.000000
700.000000
701.000000
702.000000
703.000000
704.000000
705.000000
706.000000
707.000000
708.000000
709.000000
710.000000
711.000000
712.000000
713.000000
714.000000
715.000000
716.000000
717.000000
718.000000
719.000000
720.000000
721.000000
722.000000
723.000000
724.000000
725.000000
726.000000
727.000000
728.000000
729.000000
730.000000
731.000000
732.000000
733.000000
734.000000
735.000000
736.000000
737.000000
738.000000
739.000000
740.000000
741.000000
742.000000
743.000000
744.000000
745.000000
746.000000
747.000000
748.000000
749.000000
750.000000
751.000000
752.000000
753.000000
754.000000
755.000000
756.000000
757.000000
758.000000
759.000000
760.000000
761.000000
762.000000
763.000000
764.000000
765.000000
766.000000
767.000000
768.000000
769.000000
770.000000
771.000000
772.000000
773.000000
774.000000
775.000000
776.000000
777.000000
778.000000
779.000000
780.000000
781.000000
782.000000
783.000000
784.000000
785.000000
786.000000
787.000000
788.000000
789.000000
790.000000
791.000000
792.000000
793.000000
794.000000
795.000000
796.000000
797.000000
798.000000
799.000000
800.000000
801.000000
802.000000
803.000000
804.000000
805.000000
806.000000
807.000000
808.000000
809.000000
810.000000
811.000000
812.000000
813.000000
814.000000
815.000000
816.000000
817.000000
818.000000
819.000000
820.000000
821.000000
822.000000
823.000000
824.000000
825.000000
826.000000
827.000000
828.000000
829.000000
830.000000
831.000000
832.000000
833.000000
834.000000
835.000000
836.000000
837.000000
838.000000
839.000000
840.000000
841.000000
842.000000
843.000000
844.000000
845.000000
846.000000
847.000000
848.000000
849.000000
850.000000
851.000000
852.000000
853.000000
854.000000
855.000000
856.000000
857.000000
858.000000
859.000000
860.000000
861.000000
862.000000
863.000000
864.000000
865.000000
866.000000
867.000000
868.000000
869.000000
870.000000
871.000000
872.000000
873.000000
874.000000
875.000000
876.000000
877.000000
878.000000
879.000000
880.000000
881.000000
882.000000
883.000000
884.000000
885.000000
886.000000
887.000000
888.000000
889.000000
890.000000
891.000000
892.000000
893.000000
894.000000
895.000000
896.000000
897.000000
898.000000
899.000000
900.000000
901.000000
902.000000
903.000000
904.000000
905.000000
906.000000
907.000000
908.000000
909.000000
910.000000
911.000000
912.000000
913.000000
914.000000
915.000000
916.000000
917.000000
918.000000
919.000000
920.000000
921.000000
922.000000
923.000000
924.000000
925.000000
926.000000
927.000000
928.000000
929.000000
930.000000
931.000000
932.000000
933.000000
934.000000
935.000000
936.000000
937.000000
938.000000
939.000000
940.000000
941.000000
942.000000
943.000000
944.000000
945.000000
946.000000
947.000000
948.000000
949.000000
950.000000
951.000000
952.000000
953.000000
954.000000
955.000000
956.000000
957.000000
958.000000
959.000000
960.000000
961.000000
962.000000
963.000000
964.000000
965.000000
966.000000
967.000000
968.000000
969.000000
970.000000
971.000000
972.000000
973.000000
974.000000
975.000000
976.000000
977.000000
978.000000
979.000000
980.000000
981.000000
982.000000
983.000000
984.000000
985.000000
986.000000
987.000000
988.000000
989.000000
990.000000
991.000000
992.000000
993.000000
994.000000
995.000000
996.000000
997.000000
998.000000
999.000000
1000.000000
1001.000000
1002.000000
1003.000000
1004.000000
1005.000000
1006.000000
1007.000000
1008.000000
1009.000000
1010.000000
1011.000000
1012.000000
1013.000000
1014.000000
1015.000000
1016.000000
1017.000000
1018.000000
1019.000000
1020.000000
1021.000000
1022.000000
1023.000000
1024.000000
1025.000000
1026.000000
1027.000000
1028.000000
1029.000000
1030.000000
1031.000000
1032.000000
1033.000000
1034.000000
1035.000000
1036.000000
1037.000000
1038.000000
1039.000000
1040.000000
1041.000000
1042.000000
1043.000000
1044.000000
1045.000000
1046.000000
1047.000000
1048.000000
1049.000000
1050.000000
1051.000000
1052.000000
1053.000000
1054.000000
1055.000000
1056.000000
1057.000000
1058.000000
1059.000000
1060.000000
1061.000000
1062.000000
1063.000000
1064.000000
1065.000000
1066.000000
1067.000000
1068.000000
1069.000000
1070.000000
1071.000000
1072.000000
1073.000000
1074.000000
1075.000000
1076.000000
1077.000000
1078.000000
1079.000000
1080.000000
1081.000000
1082.000000
1083.000000
1084.000000
1085.000000
1086.000000
1087.000000
1088.000000
1089.000000
1090.000000
1091.000000
1092.000000
1093.000000
1094.000000
1095.000000
1096.000000
1097.000000
1098.000000
1099.000000
1100.000000
1101.000000
1102.000000
1103.000000
1104.000000
1105.000000
1106.000000
1107.000000
1108.000000
1109.000000
1110.000000
1111.000000
1112.000000
1113.000000
1114.000000
1115.000000
1116.000000
1117.000000
1118.000000
1119.000000
1120.000000
1121.000000
1122.000000
1123.000000
1124.000000
1125.000000
1126.000000
1127.000000
1128.000000
1129.000000
1130.000000
1131.000000
1132.000000
1133.000000
1134.000000
1135.000000
1136.000000
1137.000000
1138.000000
1139.000000
1140.000000
1141.000000
1142.000000
1143.000000
1144.000000
1145.000000
1146.000000
1147.000000
1148.000000
1149.000000
1150.000000
1151.000000
1152.000000
1153.000000
1154.000000
1155.000000
1156.000000
1157.000000
1158.000000
1159.000000
1160.000000
1161.000000
1162.000000
1163.000000
1164.000000
1165.000000
1166.000000
1167.000000
1168.000000
1169.000000
1170.000000
1171.000000
1172.000000
1173.000000
1174.000000
1175.000000
1176.000000
1177.000000
1178.000000
1179.000000
1180.000000
1181.000000
1182.000000
1183.000000
1184.000000
1185.000000
1186.000000
1187.000000
1188.000000
1189.000000
1190.000000
1191.000000
1192.000000
1193.000000
1194.000000
1195.000000
1196.000000
1197.000000
1198.000000
1199.000000
1200.000000
1201.000000
1202.000000
1203.000000
1204.000000
1205.000000
1206.000000
1207.000000
1208.000000
1209.000000
1210.000000
1211.000000
1212.000000
1213.000000
1214.000000
1215.000000
1216.000000
1217.000000
1218.000000
1219.000000
1220.000000
1221.000000
1222.000000
1223.000000
1224.000000
1225.000000
1226.000000
1227.000000
1228.000000
1229.000000
1230.000000
1231.000000
1232.000000
1233.000000
1234.000000
1235.000000
1236.000000
1237.000000
1238.000000
1239.000000
1240.000000
1241.000000
1242.000000
1243.000000
1244.000000
1245.000000
1246.000000
1247.000000
1248.000000
1249.000000
1250.000000
1251.000000
1252.000000
1253.000000
1254.000000
1255.000000
1256.000000
1257.000000
1258.000000
1259.000000
1260.000000
1261.000000
1262.000000
1263.000000
1264.000000
1265.000000
1266.000000
1267.000000
1268.000000
1269.000000
1270.000000
1271.000000
1272.000000
1273.000000
1274.000000
1275.000000
1276.000000
1277.000000
1278.000000
1279.000000
1280.000000
1281.000000
1282.000000
1283.000000
1284.000000
1285.000000
1286.000000
1287.000000
1288.000000
1289.000000
1290.000000
1291.000000
1292.000000
1293.000000
1294.000000
1295.000000
1296.000000
1297.000000
1298.000000
1299.000000
1300.000000
1301.000000
1302.000000
1303.000000
1304.000000
1305.000000
1306.000000
1307.000000
1308.000000
1309.000000
1310.000000
1311.000000
1312.000000
1313.000000
1314.000000
1315.000000
1316.000000
1317.000000
1318.000000
1319.000000
1320.000000
1321.000000
1322.000000
1323.000000
1324.000000
VECTORS displacement double
0.000000e+00		0.000000e+00		0.000000e+00
0.000000e+00		0.000000e+00		0.000000e+00
0.000000e+00		0.000000e+00		0.000000e+00
0.000000e+00		0.000000e+00		0.000000e+00
0.000000e+00		0.000000e+00		0.000000e+00
0.000000e+00		0.000000e+00		0.000000e+00
0.000000e+00		0.000000e+00		0.000000e+00
0.000000e+00		0.000000e+00		0.000000e+00
0.000000e+00		0.000000e+00		0.000000e+00
0.000000e+00		0.000000e+00		0.000000e+00
0.000000e+00		0.000000e+00		0.000000e+00
0.000000e+00		0.000000e+00		0.000000e+00
0.000000e+00		0.000000e+00		0.000000e+00
0.000000e+00		0.000000e+00		0.000000e+00
0.000000e+00		0.000000e+00		0.000000e+00
0.000000e+00		0.000000e+00		0.000000e+00
0.000000e+00		0.000000e+00		0.000000e+00
0.000000e+00		0.000000e+00		0.000000e+00
0.000000e+00		0.000000e+00		0.000000e+00
0.000000e+00		0.000000e+00		0.000000e+00
0.000000e+00		0.000000e+00		0.000000e+00
0.000000e+00		0.000000e+00		0.000000e+00
0.000000e+00		0.000000e+00		0.000000e+00
0.000000e+00		0.000000e+00		0.000000e+00
0.000000e+00		0.000000e+00		0.000000e+00
0.000000e+00		0.000000e+00		0.000000e+00
0.000000e+00		0.000000e+00		0.000000e+00
0.000000e+00		0.000000e+00		0.000000e+00
0.000000e+00		0.000000e+00		0.000000e+00
0.000000e+00		0.000000e+00		0.000000e+00
0.000000e+00		0.000000e+00		0.000000e+00
0.000000e+00		0.000000e+00		0.000000e+00
0.000000e+00		0.000000e+00		0.000000e+00
0.000000e+00		0.000000e+00		0.000000e+00
0.000000e+00		0.000000e+00		0.000000e+00
0.000000e+00		0.000000e+00		0.000000e+00
0.000000e+00		0.000000e+00		0.000000e+00
0.000000e+00		0.000000e+00		0.000000e+00
0.000000e+00		0.000000e+00		0.000000e+00
0.000000e+00		0.000000e+00		0.000000e+00
0.000000e+00		0.000000e+00		0.000000e+00
0.000000e+00		0.000000e+00		0.000000e+00
0.000000e+00		0.000000e+00		0.000000e+00
0.000000e+00		0.000000e+00		0.000000e+00
0.000000e+00		0.000000e+00		0.000000e+00
0.000000e+00		0.000000e+00		0.000000e+00
0.000000e+00		0.000000e+00		0.000000e+00
0.000000e+00		0.000000e+00		0.000000e+00
0.000000e+00		0.000000e+00		0.000000e+00
0.000000e+00		0.000000e+00		0.000000e+00
0.000000e+00		0.000000e+00		0.000000e+00
0.000000e+00		0.000000e+00		0.000000e+00
0.000000e+00		0.000000e+00		0.000000e+00
0.000000e+00		0.000000e+00		0.000000e+00
0.000000e+00		0.000000e+00		0.000000e+00
0.000000e+00		0.000000e+00		0.000000e+00
0.000000e+00		0.000000e+00		0.000000e+00
0.000000e+00		0.000000e+00		0.000000e+00
0.000000e+00		0.000000e+00		0.000000e+00
0.000000e+00		0.000000e+00		0.000000e+00
0.000000e+00		0.000000e+00		0.000000e+00
0.000000e+00		0.000000e+00		0.000000e+00
0.000000e+00		0.000000e+00		0.000000e+00
0.000000e+00		0.000000e+00		0.000000e+00
0.000000e+00		0.000000e+00		0.000000e+00
6.788702e-03		7.941817e-03		1.613756e-02
8.863038e-03		2.119759e-03		1.403871e-02
9.364479e-03		1.030553e-16		1.453489e-02
8.863038e-03		-2.119759e-03		1.403871e-02
6.788702e-03		-7.941817e-03		1.613756e-02
1.307387e-03		4.035971e-03		6.630638e-03
3.242682e-03		1.071257e-03		4.903464e-03
3.482666e-03		7.279942e-17		4.980789e-03
3.242682e-03		-1.071257e-03		4.903464e-03
1.307387e-03		-4.035971e-03		6.630638e-03
7.399807e-04		1.525962e-16		2.387941e-16
2.698665e-03		5.669302e-17		1.142886e-16
2.944235e-03		3.713583e-17		6.399905e-17
2.698665e-03		2.528273e-17		2.459779e-17
7.399807e-04		3.163448e-17		-3.272666e-17
1.307387e-03		-4.035971e-03		-6.630638e-03
3.242682e-03		-1.071257e-03		-4.903464e-03
3.482666e-03		-2.475969e-18		-4.980789e-03
3.242682e-03		1.071257e-03		-4.903464e-03
1.307387e-03		4.035971e-03		-6.630638e-03
6.788702e-03		-7.941817e-03		-1.613756e-02
8.863038e-03		-2.119759e-03		-1.403871e-02
9.364479e-03		-5.444290e-17		-1.453489e-02
8.863038e-03		2.119759e-03		-1.403871e-02
6.788702e-03		7.941817e-03		-1.613756e-02
1.381005e-02		1.176176e-02		3.043504e-02
1.638118e-02		7.306919e-03		2.843941e-02
1.797949e-02		4.432541e-03		2.846257e-02
1.873057e-02		1.925000e-03		2.825904e-02
1.896354e-02		2.234426e-16		2.826950e-02
1.873057e-02		-1.925000e-03		2.825904e-02
1.797949e-02		-4.432541e-03		2.846257e-02
1.638118e-02		-7.306919e-03		2.843941e-02
1.381005e-02		-1.176176e-02		3.043504e-02
9.553518e-03		9.005271e-03		2.109239e-02
1.287356e-02		3.342467e-03		1.856472e-02
1.368123e-02		2.121498e-16		1.811611e-02
1.287356e-02		-3.342467e-03		1.856472e-02
9.553518e-03		-9.005271e-03		2.109239e-02
7.462096e-03		6.313274e-03		1.341626e-02
9.593190e-03		3.886514e-03		1.201501e-02
1.053092e-02		2.299480e-03		1.167507e-02
1.106651e-02		9.737628e-04		1.137150e-02
1.123497e-02		1.767417e-16		1.131832e-02
1.106651e-02		-9.737628e-04		1.137150e-02
1.053092e-02		-2.299480e-03		1.167507e-02
9.593190e-03		-3.886514e-03		1.201501e-02
7.462096e-03		-6.313274e-03		1.341626e-02
5.962103e-03		3.225746e-03		6.368744e-03
9.029366e-03		1.173291e-03		5.456279e-03
9.625715e-03		1.432126e-16		5.258059e-03
9.029366e-03		-1.173291e-03		5.456279e-03
5.962103e-03		-3.225746e-03		6.368744e-03
5.443483e-03		2.854282e-16		4.409753e-16
7.716866e-03		2.048473e-16		3.138588e-16
8.556189e-03		1.603728e-16		2.506925e-16
9.007958e-03		1.229841e-16		1.834511e-16
9.134724e-03		1.050170e-16		1.431601e-16
9.007958e-03		9.093406e-17		9.134632e-17
8.556189e-03		8.059607e-17		4.896927e-17
7.716866e-03		7.443725e-17		1.046638e-18
5.443483e-03		8.522398e-17		-5.725733e-17
5.962103e-03		-3.225746e-03		-6.368744e-03
9.029366e-03		-1.173291e-03		-5.456279e-03
9.625715e-03		6.973406e-17		-5.258059e-03
9.029366e-03		1.173291e-03		-5.456279e-03
5.962103e-03		3.225746e-03		-6.368744e-03
7.462096e-03		-6.313274e-03		-1.341626e-02
9.593190e-03		-3.886514e-03		-1.201501e-02
1.053092e-02		-2.299480e-03		-1.167507e-02
1.106651e-02		-9.737628e-04		-1.137150e-02
1.123497e-02		2.980305e-17		-1.131832e-02
1.106651e-02		9.737628e-04		-1.137150e-02
1.053092e-02		2.299480e-03		-1.167507e-02
9.593190e-03		3.886514e-03		-1.201501e-02
7.462096e-03		6.313274e-03		-1.341626e-02
9.553518e-03		-9.005271e-03		-2.109239e-02
1.287356e-02		-3.342467e-03		-1.856472e-02
1.368123e-02		-1.509393e-17		-1.811611e-02
1.287356e-02		3.342467e-03		-1.856472e-02
9.553518e-03		9.005271e-03		-2.109239e-02
1.381005e-02		-1.176176e-02		-3.043504e-02
1.638118e-02		-7.306919e-03		-2.843941e-02
1.797949e-02		-4.432541e-03		-2.846257e-02
1.873057e-02		-1.925000e-03		-2.825904e-02
1.896354e-02		-6.096085e-17		-2.826950e-02
1.873057e-02		1.925000e-03		-2.825904e-02
1.797949e-02		4.432541e-03		-2.846257e-02
1.638118e-02		7.306919e-03		-2.843941e-02
1.381005e-02		1.176176e-02		-3.043504e-02
2.301097e-02		1.340673e-02		4.214988e-02
2.791687e-02		5.564202e-03		4.074766e-02
2.928782e-02		4.089140e-16		4.054067e-02
2.791687e-02		-5.564202e-03		4.074766e-02
2.301097e-02		-1.340673e-02		4.214988e-02
1.654674e-02		7.058226e-03		1.907918e-02
2.033764e-02		2.901301e-03		1.794947e-02
2.122561e-02		3.201899e-16		1.760972e-02
2.033764e-02		-2.901301e-03		1.794947e-02
1.654674e-02		-7.058226e-03		1.907918e-02
1.428370e-02		3.965566e-16		6.059934e-16
1.813072e-02		2.700399e-16		3.798525e-16
1.886970e-02		2.053752e-16		2.271550e-16
1.813072e-02		1.596422e-16		8.560127e-17
1.428370e-02		1.509377e-16		-6.378877e-17
1.654674e-02		-7.058226e-03		-1.907918e-02
2.033764e-02		-2.901301e-03		-1.794947e-02
2.122561e-02		7.753148e-17		-1.760972e-02
2.033764e-02		2.901301e-03		-1.794947e-02
1.654674e-02		7.058226e-03		-1.907918e-02
2.301097e-02		-1.340673e-02		-4.214988e-02
2.791687e-02		-5.564202e-03		-4.074766e-02
2.928782e-02		-5.279439e-17		-4.054067e-02
2.791687e-02		5.564202e-03		-4.074766e-02
2.301097e-02		1.340673e-02		-4.214988e-02
3.456962e-02		1.356567e-02		5.249696e-02
3.751275e-02		9.888116e-03		5.244180e-02
3.952066e-02		6.093691e-03		5.202683e-02
4.066786e-02		2.947387e-03		5.190226e-02
4.102652e-02		6.124201e-16		5.182539e-02
4.066786e-02		-2.947387e-03		5.190226e-02
3.952066e-02		-6.093691e-03		5.202683e-02
3.751275e-02		-9.888116e-03		5.244180e-02
3.456962e-02		-1.356567e-02		5.249696e-02
3.129473e-02		1.026418e-02		3.792485e-02
3.576938e-02		4.625748e-03		3.756391e-02
3.704053e-02		5.379017e-16		3.731745e-02
3.576938e-02		-4.625748e-03		3.756391e-02
3.129473e-02		-1.026418e-02		3.792485e-02
2.857693e-02		6.957186e-03		2.433786e-02
3.120687e-02		5.133796e-03		2.436265e-02
3.277292e-02		3.163262e-03		2.403130e-02
3.357889e-02		1.520458e-03		2.388826e-02
3.381986e-02		4.790798e-16		2.382501e-02
3.357889e-02		-1.520458e-03		2.388826e-02
3.277292e-02		-3.163262e-03		2.403130e-02
3.120687e-02		-5.133796e-03		2.436265e-02
2.857693e-02		-6.957186e-03		2.433786e-02
2.691866e-02		3.561912e-03		1.195000e-02
3.109963e-02		1.616640e-03		1.178547e-02
3.202095e-02		3.988829e-16		1.166162e-02
3.109963e-02		-1.616640e-03		1.178547e-02
2.691866e-02		-3.561912e-03		1.195000e-02
2.633022e-02		4.987071e-16		7.567997e-16
2.909263e-02		4.469274e-16		6.147169e-16
3.055214e-02		3.949551e-16		4.912424e-16
3.125341e-02		3.671900e-16		3.886588e-16
3.146087e-02		3.311009e-16		3.143515e-16
3.125341e-02		2.876289e-16		2.282721e-16
3.055214e-02		2.630912e-16		1.468458e-16
2.909263e-02		2.552041e-16		5.184072e-17
2.633022e-02		2.387396e-16		-5.574076e-17
2.691866e-02		-3.561912e-03		-1.195000e-02
3.109963e-02		-1.616640e-03		-1.178547e-02
3.202095e-02		2.432162e-16		-1.166162e-02
3.109963e-02		1.616640e-03		-1.178547e-02
2.691866e-02		3.561912e-03		-1.195000e-02
2.857693e-02		-6.957186e-03		-2.433786e-02
3.120687e-02		-5.133796e-03		-2.436265e-02
3.277292e-02		-3.163262e-03		-2.403130e-02
3.357889e-02		-1.520458e-03		-2.388826e-02
3.381986e-02		1.529796e-16		-2.382501e-02
3.357889e-02		1.520458e-03		-2.388826e-02
3.277292e-02		3.163262e-03		-2.403130e-02
3.120687e-02		5.133796e-03		-2.436265e-02
2.857693e-02		6.957186e-03		-2.433786e-02
3.129473e-02		-1.026418e-02		-3.792485e-02
3.576938e-02		-4.625748e-03		-3.756391e-02
3.704053e-02		6.052564e-17		-3.731745e-02
3.576938e-02		4.625748e-03		-3.756391e-02
3.129473e-02		1.026418e-02		-3.792485e-02
3.456962e-02		-1.356567e-02		-5.249696e-02
3.751275e-02		-9.888116e-03		-5.244180e-02
3.952066e-02		-6.093691e-03		-5.202683e-02
4.066786e-02		-2.947387e-03		-5.190226e-02
4.102652e-02		-3.115905e-17		-5.182539e-02
4.066786e-02		2.947387e-03		-5.190226e-02
3.952066e-02		6.093691e-03		-5.202683e-02
3.751275e-02		9.888116e-03		-5.244180e-02
3.456962e-02		1.356567e-02		-5.249696e-02
4.879868e-02		1.316013e-02		6.250830e-02
5.358125e-02		6.218987e-03		6.282701e-02
5.508666e-02		8.155303e-16		6.261440e-02
5.358125e-02		-6.218987e-03		6.282701e-02
4.879868e-02		-1.316013e-02		6.250830e-02
4.331518e-02		6.647615e-03		2.952454e-02
4.762374e-02		3.218800e-03		2.979702e-02
4.877501e-02		6.542889e-16		2.967856e-02
4.762374e-02		-3.218800e-03		2.979702e-02
4.331518e-02		-6.647615e-03		2.952454e-02
4.123040e-02		6.321519e-16		8.964060e-16
4.551719e-02		5.380409e-16		5.962352e-16
4.655143e-02		4.709686e-16		4.169920e-16
4.551719e-02		3.924659e-16		2.041043e-16
4.123040e-02		3.522335e-16		-3.486826e-17
4.331518e-02		-6.647615e-03		-2.952454e-02
4.762374e-02		-3.218800e-03		-2.979702e-02
4.877501e-02		2.588360e-16		-2.967856e-02
4.762374e-02		3.218800e-03		-2.979702e-02
4.331518e-02		6.647615e-03		-2.952454e-02
4.879868e-02		-1.316013e-02		-6.250830e-02
5.358125e-02		-6.218987e-03		-6.282701e-02
5.508666e-02		3.106093e-17		-6.261440e-02
5.358125e-02		6.218987e-03		-6.282701e-02
4.879868e-02		1.316013e-02		-6.250830e-02
6.531328e-02		1.229128e-02		7.178798e-02
6.796952e-02		9.066762e-03		7.249577e-02
6.979431e-02		5.935035e-03		7.261116e-02
7.085957e-02		2.924133e-03		7.255448e-02
7.121572e-02		1.023354e-15		7.252270e-02
7.085957e-02		-2.924133e-03		7.255448e-02
6.979431e-02		-5.935035e-03		7.261116e-02
6.796952e-02		-9.066762e-03		7.249577e-02
6.531328e-02		-1.229128e-02		7.178798e-02
6.245776e-02		9.226520e-03		5.230982e-02
6.673378e-02		4.511068e-03		5.318536e-02
6.801731e-02		9.458916e-16		5.318244e-02
6.673378e-02		-4.511068e-03		5.318536e-02
6.245776e-02		-9.226520e-03		5.230982e-02
6.039692e-02		6.176641e-03		3.419119e-02
6.293293e-02		4.620182e-03		3.465252e-02
6.455372e-02		3.052531e-03		3.482424e-02
6.545420e-02		1.506222e-03		3.484421e-02
6.573122e-02		8.562738e-16		3.483977e-02
6.545420e-02		-1.506222e-03		3.484421e-02
6.455372e-02		-3.052531e-03		3.482424e-02
6.293293e-02		-4.620182e-03		3.465252e-02
6.039692e-02		-6.176641e-03		3.419119e-02
5.906369e-02		3.107510e-03		1.686724e-02
6.318900e-02		1.546153e-03		1.720004e-02
6.429577e-02		7.443790e-16		1.720752e-02
6.318900e-02		-1.546153e-03		1.720004e-02
5.906369e-02		-3.107510e-03		1.686724e-02
5.860765e-02		7.774029e-16		1.021433e-15
6.116581e-02		7.320143e-16		8.532495e-16
6.274288e-02		6.963561e-16		7.089422e-16
6.358075e-02		6.703078e-16		5.968140e-16
6.383189e-02		6.211858e-16		4.989313e-16
6.358075e-02		5.817663e-16		3.848251e-16
6.274288e-02		5.442281e-16		2.482099e-16
6.116581e-02		5.079830e-16		1.326649e-16
5.860765e-02		4.824897e-16		4.526173e-18
5.906369e-02		-3.107510e-03		-1.686724e-02
6.318900e-02		-1.546153e-03		-1.720004e-02
6.429577e-02		5.062517e-16		-1.720752e-02
6.318900e-02		1.546153e-03		-1.720004e-02
5.906369e-02		3.107510e-03		-1.686724e-02
6.039692e-02		-6.176641e-03		-3.419119e-02
6.293293e-02		-4.620182e-03		-3.465252e-02
6.455372e-02		-3.052531e-03		-3.482424e-02
6.545420e-02		-1.506222e-03		-3.484421e-02
6.573122e-02		3.604253e-16		-3.483977e-02
6.545420e-02		1.506222e-03		-3.484421e-02
6.455372e-02		3.052531e-03		-3.482424e-02
6.293293e-02		4.620182e-03		-3.465252e-02
6.039692e-02		6.176641e-03		-3.419119e-02
6.245776e-02		-9.226520e-03		-5.230982e-02
6.673378e-02		-4.511068e-03		-5.318536e-02
6.801731e-02		2.329608e-16		-5.318244e-02
6.673378e-02		4.511068e-03		-5.318536e-02
6.245776e-02		9.226520e-03		-5.230982e-02
6.531328e-02		-1.229128e-02		-7.178798e-02
6.796952e-02		-9.066762e-03		-7.249577e-02
6.979431e-02		-5.935035e-03		-7.261116e-02
7.085957e-02		-2.924133e-03		-7.255448e-02
7.121572e-02		8.950635e-17		-7.252270e-02
7.085957e-02		2.924133e-03		-7.255448e-02
6.979431e-02		5.935035e-03		-7.261116e-02
6.796952e-02		9.066762e-03		-7.249577e-02
6.531328e-02		1.229128e-02		-7.178798e-02
8.386945e-02		1.106697e-02		8.015807e-02
8.792978e-02		5.411616e-03		8.127185e-02
8.921792e-02		1.299736e-15		8.129506e-02
8.792978e-02		-5.411616e-03		8.127185e-02
8.386945e-02		-1.106697e-02		8.015807e-02
7.956811e-02		5.549454e-03		3.830833e-02
8.341466e-02		2.768004e-03		3.917300e-02
8.455366e-02		1.056499e-15		3.929739e-02
8.341466e-02		-2.768004e-03		3.917300e-02
7.956811e-02		-5.549454e-03		3.830833e-02
7.804975e-02		9.082064e-16		1.112310e-15
8.188167e-02		8.675458e-16		8.143558e-16
8.296612e-02		7.902464e-16		5.918023e-16
8.188167e-02		6.962673e-16		3.211126e-16
7.804975e-02		6.224885e-16		2.243527e-17
7.956811e-02		-5.549454e-03		-3.830833e-02
8.341466e-02		-2.768004e-03		-3.917300e-02
8.455366e-02		4.957675e-16		-3.929739e-02
8.341466e-02		2.768004e-03		-3.917300e-02
7.956811e-02		5.549454e-03		-3.830833e-02
8.386945e-02		-1.106697e-02		-8.015807e-02
8.792978e-02		-5.411616e-03		-8.127185e-02
8.921792e-02		1.599505e-16		-8.129506e-02
8.792978e-02		5.411616e-03		-8.127185e-02
8.386945e-02		1.106697e-02		-8.015807e-02
1.042679e-01		9.658421e-03		8.750500e-02
1.063655e-01		7.199986e-03		8.850941e-02
1.078208e-01		4.748416e-03		8.880675e-02
1.086745e-01		2.363904e-03		8.891085e-02
1.089550e-01		1.568175e-15		8.889667e-02
1.086745e-01		-2.363904e-03		8.891085e-02
1.078208e-01		-4.748416e-03		8.880675e-02
1.063655e-01		-7.199986e-03		8.850941e-02
1.042679e-01		-9.658421e-03		8.750500e-02
1.021158e-01		7.250596e-03		6.393586e-02
1.055845e-01		3.597015e-03		6.532488e-02
1.066664e-01		1.421884e-15		6.552616e-02
1.055845e-01		-3.597015e-03		6.532488e-02
1.021158e-01		-7.250596e-03		6.393586e-02
1.005690e-01		4.841473e-03		4.190699e-02
1.026126e-01		3.640426e-03		4.256761e-02
1.039901e-01		2.419709e-03		4.291718e-02
1.047779e-01		1.209695e-03		4.307974e-02
1.050304e-01		1.270910e-15		4.310551e-02
1.047779e-01		-1.209695e-03		4.307974e-02
1.039901e-01		-2.419709e-03		4.291718e-02
1.026126e-01		-3.640426e-03		4.256761e-02
1.005690e-01		-4.841473e-03		4.190699e-02
9.962728e-02		2.428114e-03		2.074329e-02
1.030370e-01		1.218263e-03		2.127553e-02
1.040522e-01		1.110074e-15		2.138813e-02
1.030370e-01		-1.218263e-03		2.127553e-02
9.962728e-02		-2.428114e-03		2.074329e-02
9.929767e-02		1.042871e-15		1.181596e-15
1.013483e-01		1.059140e-15		1.022787e-15
1.027076e-01		1.041376e-15		8.903658e-16
1.034735e-01		9.992910e-16		8.005345e-16
1.037153e-01		9.617005e-16		7.352444e-16
1.034735e-01		9.178884e-16		5.733231e-16
1.027076e-01		8.498251e-16		4.170720e-16
1.013483e-01		8.182732e-16		2.355313e-16
9.929767e-02		8.090650e-16		3.812447e-17
9.962728e-02		-2.428114e-03		-2.074329e-02
1.030370e-01		-1.218263e-03		-2.127553e-02
1.040522e-01		8.112597e-16		-2.138813e-02
1.030370e-01		1.218263e-03		-2.127553e-02
9.962728e-02		2.428114e-03		-2.074329e-02
1.005690e-01		-4.841473e-03		-4.190699e-02
1.026126e-01		-3.640426e-03		-4.256761e-02
1.039901e-01		-2.419709e-03		-4.291718e-02
1.047779e-01		-1.209695e-03		-4.307974e-02
1.050304e-01		6.311154e-16		-4.310551e-02
1.047779e-01		1.209695e-03		-4.307974e-02
1.039901e-01		2.419709e-03		-4.291718e-02
1.026126e-01		3.640426e-03		-4.256761e-02
1.005690e-01		4.841473e-03		-4.190699e-02
1.021158e-01		-7.250596e-03		-6.393586e-02
1.055845e-01		-3.597015e-03		-6.532488e-02
1.066664e-01		4.366275e-16		-6.552616e-02
1.055845e-01		3.597015e-03		-6.532488e-02
1.021158e-01		7.250596e-03		-6.393586e-02
1.042679e-01		-9.658421e-03		-8.750500e-02
1.063655e-01		-7.199986e-03		-8.850941e-02
1.078208e-01		-4.748416e-03		-8.880675e-02
1.086745e-01		-2.363904e-03		-8.891085e-02
1.089550e-01		2.289670e-16		-8.889667e-02
1.086745e-01		2.363904e-03		-8.891085e-02
1.078208e-01		4.748416e-03		-8.880675e-02
1.063655e-01		7.199986e-03		-8.850941e-02
1.042679e-01		9.658421e-03		-8.750500e-02
1.262257e-01		8.147375e-03		9.374964e-02
1.292293e-01		4.022931e-03		9.518244e-02
1.301962e-01		1.906832e-15		9.531835e-02
1.292293e-01		-4.022931e-03		9.518244e-02
1.262257e-01		-8.147375e-03		9.374964e-02
1.231284e-01		4.083874e-03		4.498743e-02
1.260568e-01		2.042960e-03		4.609568e-02
1.269678e-01		1.495351e-15		4.633128e-02
1.260568e-01		-2.042960e-03		4.609568e-02
1.231284e-01		-4.083874e-03		4.498743e-02
1.220857e-01		1.205703e-15		1.228393e-15
1.250086e-01		1.192154e-15		9.879476e-16
1.259025e-01		1.133109e-15		8.414411e-16
1.250086e-01		1.040324e-15		4.931222e-16
1.220857e-01		9.894717e-16		1.292438e-16
1.231284e-01		-4.083874e-03		-4.498743e-02
1.260568e-01		-2.042960e-03		-4.609568e-02
1.269678e-01		7.467029e-16		-4.633128e-02
1.260568e-01		2.042960e-03		-4.609568e-02
1.231284e-01		4.083874e-03		-4.498743e-02
1.262257e-01		-8.147375e-03		-9.374964e-02
1.292293e-01		-4.022931e-03		-9.518244e-02
1.301962e-01		3.134059e-16		-9.531835e-02
1.292293e-01		4.022931e-03		-9.518244e-02
1.262257e-01		8.147375e-03		-9.374964e-02
1.494643e-01		6.566448e-03		9.890262e-02
1.508884e-01		4.905532e-03		1.000298e-01
1.518885e-01		3.250815e-03		1.004092e-01
1.524784e-01		1.619935e-03		1.005592e-01
1.526736e-01		2.197974e-15		1.005697e-01
1.524784e-01		-1.619935e-03		1.005592e-01
1.518885e-01		-3.250815e-03		1.004092e-01
1.508884e-01		-4.905532e-03		1.000298e-01
1.494643e-01		-6.566448e-03		9.890262e-02
1.480129e-01		4.931035e-03		7.241121e-02
1.504095e-01		2.455423e-03		7.400837e-02
1.511751e-01		1.921311e-15		7.429462e-02
1.504095e-01		-2.455423e-03		7.400837e-02
1.480129e-01		-4.931035e-03		7.241121e-02
1.469785e-01		3.293252e-03		4.752716e-02
1.483881e-01		2.472990e-03		4.826876e-02
1.493604e-01		1.647045e-03		4.869261e-02
1.499282e-01		8.228503e-04		4.890356e-02
1.501121e-01		1.696342e-15		4.895275e-02
1.499282e-01		-8.228503e-04		4.890356e-02
1.493604e-01		-1.647045e-03		4.869261e-02
1.483881e-01		-2.472990e-03		4.826876e-02
1.469785e-01		-3.293252e-03		4.752716e-02
1.463550e-01		1.649535e-03		2.354048e-02
1.487342e-01		8.272486e-04		2.415515e-02
1.494778e-01		1.493077e-15		2.430770e-02
1.487342e-01		-8.272486e-04		2.415515e-02
1.463550e-01		-1.649535e-03		2.354048e-02
1.461473e-01		1.336862e-15		1.267272e-15
1.475611e-01		1.313827e-15		1.146516e-15
1.485279e-01		1.303730e-15		1.058444e-15
1.490886e-01		1.317307e-15		9.725622e-16
1.492696e-01		1.292736e-15		8.793020e-16
1.490886e-01		1.240483e-15		7.469231e-16
1.485279e-01		1.199355e-15		5.717948e-16
1.475611e-01		1.181948e-15		3.912064e-16
1.461473e-01		1.136574e-15		2.368510e-16
1.463550e-01		-1.649535e-03		-2.354048e-02
1.487342e-01		-8.272486e-04		-2.415515e-02
1.494778e-01		1.079823e-15		-2.430770e-02
1.487342e-01		8.272486e-04		-2.415515e-02
1.463550e-01		1.649535e-03		-2.354048e-02
1.469785e-01		-3.293252e-03		-4.752716e-02
1.483881e-01		-2.472990e-03		-4.826876e-02
1.493604e-01		-1.647045e-03		-4.869261e-02
1.499282e-01		-8.228503e-04		-4.890356e-02
1.501121e-01		8.405400e-16		-4.895275e-02
1.499282e-01		8.228503e-04		-4.890356e-02
1.493604e-01		1.647045e-03		-4.869261e-02
1.483881e-01		2.472990e-03		-4.826876e-02
1.469785e-01		3.293252e-03		-4.752716e-02
1.480129e-01		-4.931035e-03		-7.241121e-02
1.504095e-01		-2.455423e-03		-7.400837e-02
1.511751e-01		6.478455e-16		-7.429462e-02
1.504095e-01		2.455423e-03		-7.400837e-02
1.480129e-01		4.931035e-03		-7.241121e-02
1.494643e-01		-6.566448e-03		-9.890262e-02
1.508884e-01		-4.905532e-03		-1.000298e-01
1.518885e-01		-3.250815e-03		-1.004092e-01
1.524784e-01		-1.619935e-03		-1.005592e-01
1.526736e-01		3.784304e-16		-1.005697e-01
1.524784e-01		1.619935e-03		-1.005592e-01
1.518885e-01		3.250815e-03		-1.004092e-01
1.508884e-01		4.905532e-03		-1.000298e-01
1.494643e-01		6.566448e-03		-9.890262e-02
1.737157e-01		4.946280e-03		1.029125e-01
1.755460e-01		2.453835e-03		1.044600e-01
1.761421e-01		2.488819e-15		1.046340e-01
1.755460e-01		-2.453835e-03		1.044600e-01
1.737157e-01		-4.946280e-03		1.029125e-01
1.718463e-01		2.480779e-03		4.951639e-02
1.736540e-01		1.240705e-03		5.071541e-02
1.742313e-01		1.897313e-15		5.099054e-02
1.736540e-01		-1.240705e-03		5.071541e-02
1.718463e-01		-2.480779e-03		4.951639e-02
1.712224e-01		1.381180e-15		1.223297e-15
1.730307e-01		1.423378e-15		1.082670e-15
1.736027e-01		1.428132e-15		9.162283e-16
1.730307e-01		1.373985e-15		6.790093e-16
1.712224e-01		1.310466e-15		3.520411e-16
1.718463e-01		-2.480779e-03		-4.951639e-02
1.736540e-01		-1.240705e-03		-5.071541e-02
1.742313e-01		9.572220e-16		-5.099054e-02
1.736540e-01		1.240705e-03		-5.071541e-02
1.718463e-01		2.480779e-03		-4.951639e-02
1.737157e-01		-4.946280e-03		-1.029125e-01
1.755460e-01		-2.453835e-03		-1.044600e-01
1.761421e-01		4.675697e-16		-1.046340e-01
1.755460e-01		2.453835e-03		-1.044600e-01
1.737157e-01		4.946280e-03		-1.029125e-01
1.987253e-01		3.305732e-03		1.057942e-01
1.994428e-01		2.473016e-03		1.069578e-01
1.999495e-01		1.641828e-03		1.073622e-01
2.002501e-01		8.189362e-04		1.075283e-01
2.003494e-01		2.707840e-15		1.075418e-01
2.002501e-01		-8.189362e-04		1.075283e-01
1.999495e-01		-1.641828e-03		1.073622e-01
1.994428e-01		-2.473016e-03		1.069578e-01
1.987253e-01		-3.305732e-03		1.057942e-01
1.979970e-01		2.482943e-03		7.755338e-02
1.992135e-01		1.237861e-03		7.921726e-02
1.996074e-01		2.350402e-15		7.952985e-02
1.992135e-01		-1.237861e-03		7.921726e-02
1.979970e-01		-2.482943e-03		7.755338e-02
1.974768e-01		1.658270e-03		5.094211e-02
1.981909e-01		1.244680e-03		5.171001e-02
1.986897e-01		8.291942e-04		5.215849e-02
1.989832e-01		4.143978e-04		5.238659e-02
1.990793e-01		2.080255e-15		5.244080e-02
1.989832e-01		-4.143978e-04		5.238659e-02
1.986897e-01		-8.291942e-04		5.215849e-02
1.981909e-01		-1.244680e-03		5.171001e-02
1.974768e-01		-1.658270e-03		5.094211e-02
1.971646e-01		8.306635e-04		2.524326e-02
1.983778e-01		4.159871e-04		2.588491e-02
1.987651e-01		1.809106e-15		2.605016e-02
1.983778e-01		-4.159871e-04		2.588491e-02
1.971646e-01		-8.306635e-04		2.524326e-02
1.970599e-01		1.434757e-15		1.129689e-15
1.977766e-01		1.458545e-15		1.122934e-15
1.982739e-01		1.499046e-15		1.043974e-15
1.985655e-01		1.524139e-15		9.994229e-16
1.986606e-01		1.530170e-15		9.349211e-16
1.985655e-01		1.502199e-15		8.659849e-16
1.982739e-01		1.512701e-15		7.869467e-16
1.977766e-01		1.535412e-15		6.978716e-16
1.970599e-01		1.502509e-15		5.228765e-16
1.971646e-01		-8.306635e-04		-2.524326e-02
1.983778e-01		-4.159871e-04		-2.588491e-02
1.987651e-01		1.254698e-15		-2.605016e-02
1.983778e-01		4.159871e-04		-2.588491e-02
1.971646e-01		8.306635e-04		-2.524326e-02
1.974768e-01		-1.658270e-03		-5.094211e-02
1.981909e-01		-1.244680e-03		-5.171001e-02
1.986897e-01		-8.291942e-04		-5.215849e-02
1.989832e-01		-4.143978e-04		-5.238659e-02
1.990793e-01		1.052924e-15		-5.244080e-02
1.989832e-01		4.143978e-04		-5.238659e-02
1.986897e-01		8.291942e-04		-5.215849e-02
1.981909e-01		1.244680e-03		-5.171001e-02
1.974768e-01		1.658270e-03		-5.094211e-02
1.979970e-01		-2.482943e-03		-7.755338e-02
1.992135e-01		-1.237861e-03		-7.921726e-02
1.996074e-01		7.909264e-16		-7.952985e-02
1.992135e-01		1.237861e-03		-7.921726e-02
1.979970e-01		2.482943e-03		-7.755338e-02
1.987253e-01		-3.305732e-03		-1.057942e-01
1.994428e-01		-2.473016e-03		-1.069578e-01
1.999495e-01		-1.641828e-03		-1.073622e-01
2.002501e-01		-8.189362e-04		-1.075283e-01
2.003494e-01		5.123971e-16		-1.075418e-01
2.002501e-01		8.189362e-04		-1.075283e-01
1.999495e-01		1.641828e-03		-1.073622e-01
1.994428e-01		2.473016e-03		-1.069578e-01
1.987253e-01		3.305732e-03		-1.057942e-01
2.242371e-01		1.655190e-03		1.075139e-01
2.248508e-01		8.225946e-04		1.090930e-01
2.250518e-01		2.901557e-15		1.092761e-01
2.248508e-01		-8.225946e-04		1.090930e-01
2.242371e-01		-1.655190e-03		1.075139e-01
2.236121e-01		8.302229e-04		5.180150e-02
2.242212e-01		4.150904e-04		5.302709e-02
2.244177e-01		2.219520e-15		5.331382e-02
2.242212e-01		-4.150904e-04		5.302709e-02
2.236121e-01		-8.302229e-04		5.180150e-02
2.234033e-01		1.416677e-15		1.048955e-15
2.240130e-01		1.548228e-15		1.029594e-15
2.242085e-01		1.620476e-15		9.598184e-16
2.240130e-01		1.624589e-15		8.711036e-16
2.234033e-01		1.650778e-15		7.358405e-16
2.236121e-01		-8.302229e-04		-5.180150e-02
2.242212e-01		-4.150904e-04		-5.302709e-02
2.244177e-01		1.053784e-15		-5.331382e-02
2.242212e-01		4.150904e-04		-5.302709e-02
2.236121e-01		8.302229e-04		-5.180150e-02
2.242371e-01		-1.655190e-03		-1.075139e-01
2.248508e-01		-8.225946e-04		-1.090930e-01
2.250518e-01		4.853063e-16		-1.092761e-01
2.248508e-01		8.225946e-04		-1.090930e-01
2.242371e-01		1.655190e-03		-1.075139e-01
2.500000e-01		2.571080e-15		1.080963e-01
2.500000e-01		2.742646e-15		1.092681e-01
2.500000e-01		2.924177e-15		1.096782e-01
2.500000e-01		2.981621e-15		1.098470e-01
2.500000e-01		2.960485e-15		1.098617e-01
2.500000e-01		3.165321e-15		1.098470e-01
2.500000e-01		3.392217e-15		1.096782e-01
2.500000e-01		3.725791e-15		1.092681e-01
2.500000e-01		4.002228e-15		1.080963e-01
2.500000e-01		2.141222e-15		7.927460e-02
2.500000e-01		2.419351e-15		8.095362e-02
2.500000e-01		2.585698e-15		8.127236e-02
2.500000e-01		2.903476e-15		8.095362e-02
2.500000e-01		3.146207e-15		7.927460e-02
2.500000e-01		1.785565e-15		5.208669e-02
2.500000e-01		1.959696e-15		5.286044e-02
2.500000e-01		2.127128e-15		5.331463e-02
2.500000e-01		2.173050e-15		5.354646e-02
2.500000e-01		2.266886e-15		5.360224e-02
2.500000e-01		2.413545e-15		5.354646e-02
2.500000e-01		2.499500e-15		5.331463e-02
2.500000e-01		2.542641e-15		5.286044e-02
2.500000e-01		2.597194e-15		5.208669e-02
2.500000e-01		1.552507e-15		2.581477e-02
2.500000e-01		1.801712e-15		2.646269e-02
2.500000e-01		1.937496e-15		2.663089e-02
2.500000e-01		2.058102e-15		2.646269e-02
2.500000e-01		2.171698e-15		2.581477e-02
2.500000e-01		1.341517e-15		9.246136e-16
2.500000e-01		1.447111e-15		9.649589e-16
2.500000e-01		1.528496e-15		1.009777e-15
2.500000e-01		1.616429e-15		9.676406e-16
2.500000e-01		1.677222e-15		9.405499e-16
2.500000e-01		1.667281e-15		9.582745e-16
2.500000e-01		1.671755e-15		9.987900e-16
2.500000e-01		1.717099e-15		9.471201e-16
2.500000e-01		1.736988e-15		9.251347e-16
2.500000e-01		1.279532e-15		-2.581477e-02
2.500000e-01		1.272871e-15		-2.646269e-02
2.500000e-01		1.315747e-15		-2.663089e-02
2.500000e-01		1.325996e-15		-2.646269e-02
2.500000e-01		1.314138e-15		-2.581477e-02
2.500000e-01		1.062778e-15		-5.208669e-02
2.500000e-01		1.111187e-15		-5.286044e-02
2.500000e-01		1.053229e-15		-5.331463e-02
2.500000e-01		1.032339e-15		-5.354646e-02
2.500000e-01		1.026543e-15		-5.360224e-02
2.500000e-01		1.103746e-15		-5.354646e-02
2.500000e-01		1.009792e-15		-5.331463e-02
2.500000e-01		9.904580e-16		-5.286044e-02
2.500000e-01		1.046622e-15		-5.208669e-02
2.500000e-01		8.485553e-16		-7.927460e-02
2.500000e-01		7.295459e-16		-8.095362e-02
2.500000e-01		7.542701e-16		-8.127236e-02
2.500000e-01		7.390812e-16		-8.095362e-02
2.500000e-01		5.479607e-16		-7.927460e-02
2.500000e-01		6.367127e-16		-1.080963e-01
2.500000e-01		4.449177e-16		-1.092681e-01
2.500000e-01		4.430580e-16		-1.096782e-01
2.500000e-01		4.935158e-16		-1.098470e-01
2.500000e-01		4.648524e-16		-1.098617e-01
2.500000e-01		4.383232e-16		-1.098470e-01
2.500000e-01		4.902486e-16		-1.096782e-01
2.500000e-01		5.084849e-16		-1.092681e-01
2.500000e-01		4.098596e-16		-1.080963e-01
2.757629e-01		-1.655190e-03		1.075139e-01
2.751492e-01		-8.225946e-04		1.090930e-01
2.749482e-01		3.042963e-15		1.092761e-01
2.751492e-01		8.225946e-04		1.090930e-01
2.757629e-01		1.655190e-03		1.075139e-01
2.763879e-01		-8.302229e-04		5.180150e-02
2.757788e-01		-4.150904e-04		5.302709e-02
2.755823e-01		2.321940e-15		5.331382e-02
2.757788e-01		4.150904e-04		5.302709e-02
2.763879e-01		8.302229e-04		5.180150e-02
2.765967e-01		1.356331e-15		8.937398e-16
2.759870e-01		1.502523e-15		9.501420e-16
2.757915e-01		1.635357e-15		1.020403e-15
2.759870e-01		1.708385e-15		1.070031e-15
2.765967e-01		1.797930e-15		1.094254e-15
2.763879e-01		8.302229e-04		-5.180150e-02
2.757788e-01		4.150904e-04		-5.302709e-02
2.755823e-01		1.010101e-15		-5.331382e-02
2.757788e-01		-4.150904e-04		-5.302709e-02
2.763879e-01		-8.302229e-04		-5.180150e-02
2.757629e-01		1.655190e-03		-1.075139e-01
2.751492e-01		8.225946e-04		-1.090930e-01
2.749482e-01		4.767404e-16		-1.092761e-01
2.751492e-01		-8.225946e-04		-1.090930e-01
2.757629e-01		-1.655190e-03		-1.075139e-01
3.012747e-01		-3.305732e-03		1.057942e-01
3.005572e-01		-2.473016e-03		1.069578e-01
3.000505e-01		-1.641828e-03		1.073622e-01
2.997499e-01		-8.189362e-04		1.075283e-01
2.996506e-01		3.018794e-15		1.075418e-01
2.997499e-01		8.189362e-04		1.075283e-01
3.000505e-01		1.641828e-03		1.073622e-01
3.005572e-01		2.473016e-03		1.069578e-01
3.012747e-01		3.305732e-03		1.057942e-01
3.020030e-01		-2.482943e-03		7.755338e-02
3.007865e-01		-1.237861e-03		7.921726e-02
3.003926e-01		2.628100e-15		7.952985e-02
3.007865e-01		1.237861e-03		7.921726e-02
3.020030e-01		2.482943e-03		7.755338e-02
3.025232e-01		-1.658270e-03		5.094211e-02
3.018091e-01		-1.244680e-03		5.171001e-02
3.013103e-01		-8.291942e-04		5.215849e-02
3.010168e-01		-4.143978e-04		5.238659e-02
3.009207e-01		2.263738e-15		5.244080e-02
3.010168e-01		4.143978e-04		5.238659e-02
3.013103e-01		8.291942e-04		5.215849e-02
3.018091e-01		1.244680e-03		5.171001e-02
3.025232e-01		1.658270e-03		5.094211e-02
3.028354e-01		-8.306635e-04		2.524326e-02
3.016222e-01		-4.159871e-04		2.588491e-02
3.012349e-01		1.902783e-15		2.605016e-02
3.016222e-01		4.159871e-04		2.588491e-02
3.028354e-01		8.306635e-04		2.524326e-02
3.029401e-01		1.316149e-15		7.842660e-16
3.022234e-01		1.405895e-15		8.116510e-16
3.017261e-01		1.464367e-15		9.026184e-16
3.014345e-01		1.518060e-15		9.200758e-16
3.013394e-01		1.565025e-15		1.055802e-15
3.014345e-01		1.628382e-15		1.065943e-15
3.017261e-01		1.678573e-15		1.104019e-15
3.022234e-01		1.744643e-15		1.195301e-15
3.029401e-01		1.825565e-15		1.282845e-15
3.028354e-01		8.306635e-04		-2.524326e-02
3.016222e-01		4.159871e-04		-2.588491e-02
3.012349e-01		1.328151e-15		-2.605016e-02
3.016222e-01		-4.159871e-04		-2.588491e-02
3.028354e-01		-8.306635e-04		-2.524326e-02
3.025232e-01		1.658270e-03		-5.094211e-02
3.018091e-01		1.244680e-03		-5.171001e-02
3.013103e-01		8.291942e-04		-5.215849e-02
3.010168e-01		4.143978e-04		-5.238659e-02
3.009207e-01		9.720368e-16		-5.244080e-02
3.010168e-01		-4.143978e-04		-5.238659e-02
3.013103e-01		-8.291942e-04		-5.215849e-02
3.018091e-01		-1.244680e-03		-5.171001e-02
3.025232e-01		-1.658270e-03		-5.094211e-02
3.020030e-01		2.482943e-03		-7.755338e-02
3.007865e-01		1.237861e-03		-7.921726e-02
3.003926e-01		6.877936e-16		-7.952985e-02
3.007865e-01		-1.237861e-03		-7.921726e-02
3.020030e-01		-2.482943e-03		-7.755338e-02
3.012747e-01		3.305732e-03		-1.057942e-01
3.005572e-01		2.473016e-03		-1.069578e-01
3.000505e-01		1.641828e-03		-1.073622e-01
2.997499e-01		8.189362e-04		-1.075283e-01
2.996506e-01		4.697351e-16		-1.075418e-01
2.997499e-01		-8.189362e-04		-1.075283e-01
3.000505e-01		-1.641828e-03		-1.073622e-01
3.005572e-01		-2.473016e-03		-1.069578e-01
3.012747e-01		-3.305732e-03		-1.057942e-01
3.262843e-01		-4.946280e-03		1.029125e-01
3.244540e-01		-2.453835e-03		1.044600e-01
3.238579e-01		2.925443e-15		1.046340e-01
3.244540e-01		2.453835e-03		1.044600e-01
3.262843e-01		4.946280e-03		1.029125e-01
3.281537e-01		-2.480779e-03		4.951639e-02
3.263460e-01		-1.240705e-03		5.071541e-02
3.257687e-01		2.199640e-15		5.099054e-02
3.263460e-01		1.240705e-03		5.071541e-02
3.281537e-01		2.480779e-03		4.951639e-02
3.287776e-01		1.283657e-15		6.470768e-16
3.269693e-01		1.443934e-15		8.636313e-16
3.263973e-01		1.537430e-15		1.004354e-15
3.269693e-01		1.609163e-15		1.192771e-15
3.287776e-01		1.739856e-15		1.529809e-15
3.281537e-01		2.480779e-03		-4.951639e-02
3.263460e-01		1.240705e-03		-5.071541e-02
3.257687e-01		9.375068e-16		-5.099054e-02
3.263460e-01		-1.240705e-03		-5.071541e-02
3.281537e-01		-2.480779e-03		-4.951639e-02
3.262843e-01		4.946280e-03		-1.029125e-01
3.244540e-01		2.453835e-03		-1.044600e-01
3.238579e-01		4.069365e-16		-1.046340e-01
3.244540e-01		-2.453835e-03		-1.044600e-01
3.262843e-01		-4.946280e-03		-1.029125e-01
3.505357e-01		-6.566448e-03		9.890262e-02
3.491116e-01		-4.905532e-03		1.000298e-01
3.481115e-01		-3.250815e-03		1.004092e-01
3.475216e-01		-1.619935e-03		1.005592e-01
3.473264e-01		2.736044e-15		1.005697e-01
3.475216e-01		1.619935e-03		1.005592e-01
3.481115e-01		3.250815e-03		1.004092e-01
3.491116e-01		4.905532e-03		1.000298e-01
3.505357e-01		6.566448e-03		9.890262e-02
3.519871e-01		-4.931035e-03		7.241121e-02
3.495905e-01		-2.455423e-03		7.400837e-02
3.488249e-01		2.315027e-15		7.429462e-02
3.495905e-01		2.455423e-03		7.400837e-02
3.519871e-01		4.931035e-03		7.241121e-02
3.530215e-01		-3.293252e-03		4.752716e-02
3.516119e-01		-2.472990e-03		4.826876e-02
3.506396e-01		-1.647045e-03		4.869261e-02
3.500718e-01		-8.228503e-04		4.890356e-02
3.498879e-01		2.062618e-15		4.895275e-02
3.500718e-01		8.228503e-04		4.890356e-02
3.506396e-01		1.647045e-03		4.869261e-02
3.516119e-01		2.472990e-03		4.826876e-02
3.530215e-01		3.293252e-03		4.752716e-02
3.536450e-01		-1.649535e-03		2.354048e-02
3.512658e-01		-8.272486e-04		2.415515e-02
3.505222e-01		1.698482e-15		2.430770e-02
3.512658e-01		8.272486e-04		2.415515e-02
3.536450e-01		1.649535e-03		2.354048e-02
3.538527e-01		1.256450e-15		4.427408e-16
3.524389e-01		1.227893e-15		6.988455e-16
3.514721e-01		1.349727e-15		8.813854e-16
3.509114e-01		1.456485e-15		1.002086e-15
3.507304e-01		1.475393e-15		1.013412e-15
3.509114e-01		1.498962e-15		1.148695e-15
3.514721e-01		1.503175e-15		1.278388e-15
3.524389e-01		1.551884e-15		1.459592e-15
3.538527e-01		1.597907e-15		1.701454e-15
3.536450e-01		1.649535e-03		-2.354048e-02
3.512658e-01		8.272486e-04		-2.415515e-02
3.505222e-01		1.180016e-15		-2.430770e-02
3.512658e-01		-8.272486e-04		-2.415515e-02
3.536450e-01		-1.649535e-03		-2.354048e-02
3.530215e-01		3.293252e-03		-4.752716e-02
3.516119e-01		2.472990e-03		-4.826876e-02
3.506396e-01		1.647045e-03		-4.869261e-02
3.500718e-01		8.228503e-04		-4.890356e-02
3.498879e-01		8.909804e-16		-4.895275e-02
3.500718e-01		-8.228503e-04		-4.890356e-02
3.506396e-01		-1.647045e-03		-4.869261e-02
3.516119e-01		-2.472990e-03		-4.826876e-02
3.530215e-01		-3.293252e-03		-4.752716e-02
3.519871e-01		4.931035e-03		-7.241121e-02
3.495905e-01		2.455423e-03		-7.400837e-02
3.488249e-01		5.754944e-16		-7.429462e-02
3.495905e-01		-2.455423e-03		-7.400837e-02
3.519871e-01		-4.931035e-03		-7.241121e-02
3.505357e-01		6.566448e-03		-9.890262e-02
3.491116e-01		4.905532e-03		-1.000298e-01
3.481115e-01		3.250815e-03		-1.004092e-01
3.475216e-01		1.619935e-03		-1.005592e-01
3.473264e-01		3.749513e-16		-1.005697e-01
3.475216e-01		-1.619935e-03		-1.005592e-01
3.481115e-01		-3.250815e-03		-1.004092e-01
3.491116e-01		-4.905532e-03		-1.000298e-01
3.505357e-01		-6.566448e-03		-9.890262e-02
3.737743e-01		-8.147375e-03		9.374964e-02
3.707707e-01		-4.022931e-03		9.518244e-02
3.698038e-01		2.497211e-15		9.531835e-02
3.707707e-01		4.022931e-03		9.518244e-02
3.737743e-01		8.147375e-03		9.374964e-02
3.768716e-01		-4.083874e-03		4.498743e-02
3.739432e-01		-2.042960e-03		4.609568e-02
3.730322e-01		1.853061e-15		4.633128e-02
3.739432e-01		2.042960e-03		4.609568e-02
3.768716e-01		4.083874e-03		4.498743e-02
3.779143e-01		1.064999e-15		4.875213e-16
3.749914e-01		1.210039e-15		8.064998e-16
3.740975e-01		1.287134e-15		1.104675e-15
3.749914e-01		1.373350e-15		1.389189e-15
3.779143e-01		1.432744e-15		1.706657e-15
3.768716e-01		4.083874e-03		-4.498743e-02
3.739432e-01		2.042960e-03		-4.609568e-02
3.730322e-01		7.454314e-16		-4.633128e-02
3.739432e-01		-2.042960e-03		-4.609568e-02
3.768716e-01		-4.083874e-03		-4.498743e-02
3.737743e-01		8.147375e-03		-9.374964e-02
3.707707e-01		4.022931e-03		-9.518244e-02
3.698038e-01		2.379917e-16		-9.531835e-02
3.707707e-01		-4.022931e-03		-9.518244e-02
3.737743e-01		-8.147375e-03		-9.374964e-02
3.957321e-01		-9.658421e-03		8.750500e-02
3.936345e-01		-7.199986e-03		8.850941e-02
3.921792e-01		-4.748416e-03		8.880675e-02
3.913255e-01		-2.363904e-03		8.891085e-02
3.910450e-01		2.144505e-15		8.889667e-02
3.913255e-01		2.363904e-03		8.891085e-02
3.921792e-01		4.748416e-03		8.880675e-02
3.936345e-01		7.199986e-03		8.850941e-02
3.957321e-01		9.658421e-03		8.750500e-02
3.978842e-01		-7.250596e-03		6.393586e-02
3.944155e-01		-3.597015e-03		6.532488e-02
3.933336e-01		1.794883e-15		6.552616e-02
3.944155e-01		3.597015e-03		6.532488e-02
3.978842e-01		7.250596e-03		6.393586e-02
3.994310e-01		-4.841473e-03		4.190699e-02
3.973874e-01		-3.640426e-03		4.256761e-02
3.960099e-01		-2.419709e-03		4.291718e-02
3.952221e-01		-1.209695e-03		4.307974e-02
3.949696e-01		1.547864e-15		4.310551e-02
3.952221e-01		1.209695e-03		4.307974e-02
3.960099e-01		2.419709e-03		4.291718e-02
3.973874e-01		3.640426e-03		4.256761e-02
3.994310e-01		4.841473e-03		4.190699e-02
4.003727e-01		-2.428114e-03		2.074329e-02
3.969630e-01		-1.218263e-03		2.127553e-02
3.959478e-01		1.361901e-15		2.138813e-02
3.969630e-01		1.218263e-03		2.127553e-02
4.003727e-01		2.428114e-03		2.074329e-02
4.007023e-01		9.473776e-16		4.608835e-16
3.986517e-01		9.719771e-16		5.506300e-16
3.972924e-01		1.034014e-15		7.455089e-16
3.965265e-01		1.065915e-15		8.842505e-16
3.962847e-01		1.077554e-15		1.100558e-15
3.965265e-01		1.160362e-15		1.213084e-15
3.972924e-01		1.181998e-15		1.427161e-15
3.986517e-01		1.182649e-15		1.475449e-15
4.007023e-01		1.210304e-15		1.645793e-15
4.003727e-01		2.428114e-03		-2.074329e-02
3.969630e-01		1.218263e-03		-2.127553e-02
3.959478e-01		8.309694e-16		-2.138813e-02
3.969630e-01		-1.218263e-03		-2.127553e-02
4.003727e-01		-2.428114e-03		-2.074329e-02
3.994310e-01		4.841473e-03		-4.190699e-02
3.973874e-01		3.640426e-03		-4.256761e-02
3.960099e-01		2.419709e-03		-4.291718e-02
3.952221e-01		1.209695e-03		-4.307974e-02
3.949696e-01		5.900217e-16		-4.310551e-02
3.952221e-01		-1.209695e-03		-4.307974e-02
3.960099e-01		-2.419709e-03		-4.291718e-02
3.973874e-01		-3.640426e-03		-4.256761e-02
3.994310e-01		-4.841473e-03		-4.190699e-02
3.978842e-01		7.250596e-03		-6.393586e-02
3.944155e-01		3.597015e-03		-6.532488e-02
3.933336e-01		3.581516e-16		-6.552616e-02
3.944155e-01		-3.597015e-03		-6.532488e-02
3.978842e-01		-7.250596e-03		-6.393586e-02
3.957321e-01		9.658421e-03		-8.750500e-02
3.936345e-01		7.199986e-03		-8.850941e-02
3.921792e-01		4.748416e-03		-8.880675e-02
3.913255e-01		2.363904e-03		-8.891085e-02
3.910450e-01		2.801989e-17		-8.889667e-02
3.913255e-01		-2.363904e-03		-8.891085e-02
3.921792e-01		-4.748416e-03		-8.880675e-02
3.936345e-01		-7.199986e-03		-8.850941e-02
3.957321e-01		-9.658421e-03		-8.750500e-02
4.161305e-01		-1.106697e-02		8.015807e-02
4.120702e-01		-5.411616e-03		8.127185e-02
4.107821e-01		1.838539e-15		8.129506e-02
4.120702e-01		5.411616e-03		8.127185e-02
4.161305e-01		1.106697e-02		8.015807e-02
4.204319e-01		-5.549454e-03		3.830833e-02
4.165853e-01		-2.768004e-03		3.917300e-02
4.154463e-01		1.395522e-15		3.929739e-02
4.165853e-01		2.768004e-03		3.917300e-02
4.204319e-01		5.549454e-03		3.830833e-02
4.219502e-01		9.030053e-16		3.352428e-16
4.181183e-01		8.820728e-16		5.728167e-16
4.170339e-01		9.831586e-16		9.443916e-16
4.181183e-01		9.908316e-16		1.291819e-15
4.219502e-01		9.422307e-16		1.684055e-15
4.204319e-01		5.549454e-03		-3.830833e-02
4.165853e-01		2.768004e-03		-3.917300e-02
4.154463e-01		5.187546e-16		-3.929739e-02
4.165853e-01		-2.768004e-03		-3.917300e-02
4.204319e-01		-5.549454e-03		-3.830833e-02
4.161305e-01		1.106697e-02		-8.015807e-02
4.120702e-01		5.411616e-03		-8.127185e-02
4.107821e-01		3.123013e-17		-8.129506e-02
4.120702e-01		-5.411616e-03		-8.127185e-02
4.161305e-01		-1.106697e-02		-8.015807e-02
4.346867e-01		-1.229128e-02		7.178798e-02
4.320305e-01		-9.066762e-03		7.249577e-02
4.302057e-01		-5.935035e-03		7.261116e-02
4.291404e-01		-2.924133e-03		7.255448e-02
4.287843e-01		1.477054e-15		7.252270e-02
4.291404e-01		2.924133e-03		7.255448e-02
4.302057e-01		5.935035e-03		7.261116e-02
4.320305e-01		9.066762e-03		7.249577e-02
4.346867e-01		1.229128e-02		7.178798e-02
4.375422e-01		-9.226520e-03		5.230982e-02
4.332662e-01		-4.511068e-03		5.318536e-02
4.319827e-01		1.375742e-15		5.318244e-02
4.332662e-01		4.511068e-03		5.318536e-02
4.375422e-01		9.226520e-03		5.230982e-02
4.396031e-01		-6.176641e-03		3.419119e-02
4.370671e-01		-4.620182e-03		3.465252e-02
4.354463e-01		-3.052531e-03		3.482424e-02
4.345458e-01		-1.506222e-03		3.484421e-02
4.342688e-01		1.224308e-15		3.483977e-02
4.345458e-01		1.506222e-03		3.484421e-02
4.354463e-01		3.052531e-03		3.482424e-02
4.370671e-01		4.620182e-03		3.465252e-02
4.396031e-01		6.176641e-03		3.419119e-02
4.409363e-01		-3.107510e-03		1.686724e-02
4.368110e-01		-1.546153e-03		1.720004e-02
4.357042e-01		1.026067e-15		1.720752e-02
4.368110e-01		1.546153e-03		1.720004e-02
4.409363e-01		3.107510e-03		1.686724e-02
4.413923e-01		7.602349e-16		1.211063e-16
4.388342e-01		7.343389e-16		2.617165e-16
4.372571e-01		7.561979e-16		3.649097e-16
4.364193e-01		8.085783e-16		5.772310e-16
4.361681e-01		8.598735e-16		6.858301e-16
4.364193e-01		8.159430e-16		9.037287e-16
4.372571e-01		7.965189e-16		1.102230e-15
4.388342e-01		6.903050e-16		1.354523e-15
4.413923e-01		6.943730e-16		1.705090e-15
4.409363e-01		3.107510e-03		-1.686724e-02
4.368110e-01		1.546153e-03		-1.720004e-02
4.357042e-01		6.201649e-16		-1.720752e-02
4.368110e-01		-1.546153e-03		-1.720004e-02
4.409363e-01		-3.107510e-03		-1.686724e-02
4.396031e-01		6.176641e-03		-3.419119e-02
4.370671e-01		4.620182e-03		-3.465252e-02
4.354463e-01		3.052531e-03		-3.482424e-02
4.345458e-01		1.506222e-03		-3.484421e-02
4.342688e-01		3.845059e-16		-3.483977e-02
4.345458e-01		-1.506222e-03		-3.484421e-02
4.354463e-01		-3.052531e-03		-3.482424e-02
4.370671e-01		-4.620182e-03		-3.465252e-02
4.396031e-01		-6.176641e-03		-3.419119e-02
4.375422e-01		9.226520e-03		-5.230982e-02
4.332662e-01		4.511068e-03		-5.318536e-02
4.319827e-01		2.373121e-16		-5.318244e-02
4.332662e-01		-4.511068e-03		-5.318536e-02
4.375422e-01		-9.226520e-03		-5.230982e-02
4.346867e-01		1.229128e-02		-7.178798e-02
4.320305e-01		9.066762e-03		-7.249577e-02
4.302057e-01		5.935035e-03		-7.261116e-02
4.291404e-01		2.924133e-03		-7.255448e-02
4.287843e-01		-8.090526e-18		-7.252270e-02
4.291404e-01		-2.924133e-03		-7.255448e-02
4.302057e-01		-5.935035e-03		-7.261116e-02
4.320305e-01		-9.066762e-03		-7.249577e-02
4.346867e-01		-1.229128e-02		-7.178798e-02
4.512013e-01		-1.316013e-02		6.250830e-02
4.464187e-01		-6.218987e-03		6.282701e-02
4.449133e-01		1.275062e-15		6.261440e-02
4.464187e-01		6.218987e-03		6.282701e-02
4.512013e-01		1.316013e-02		6.250830e-02
4.566848e-01		-6.647615e-03		2.952454e-02
4.523763e-01		-3.218800e-03		2.979702e-02
4.512250e-01		1.018937e-15		2.967856e-02
4.523763e-01		3.218800e-03		2.979702e-02
4.566848e-01		6.647615e-03		2.952454e-02
4.587696e-01		5.580823e-16		6.232674e-17
4.544828e-01		5.963833e-16		2.067915e-16
4.534486e-01		6.976685e-16		6.218246e-16
4.544828e-01		6.371983e-16		1.030663e-15
4.587696e-01		5.982344e-16		1.438260e-15
4.566848e-01		6.647615e-03		-2.952454e-02
4.523763e-01		3.218800e-03		-2.979702e-02
4.512250e-01		2.318738e-16		-2.967856e-02
4.523763e-01		-3.218800e-03		-2.979702e-02
4.566848e-01		-6.647615e-03		-2.952454e-02
4.512013e-01		1.316013e-02		-6.250830e-02
4.464187e-01		6.218987e-03		-6.282701e-02
4.449133e-01		-1.908895e-16		-6.261440e-02
4.464187e-01		-6.218987e-03		-6.282701e-02
4.512013e-01		-1.316013e-02		-6.250830e-02
4.654304e-01		-1.356567e-02		5.249696e-02
4.624872e-01		-9.888116e-03		5.244180e-02
4.604793e-01		-6.093691e-03		5.202683e-02
4.593321e-01		-2.947387e-03		5.190226e-02
4.589735e-01		1.015840e-15		5.182539e-02
4.593321e-01		2.947387e-03		5.190226e-02
4.604793e-01		6.093691e-03		5.202683e-02
4.624872e-01		9.888116e-03		5.244180e-02
4.654304e-01		1.356567e-02		5.249696e-02
4.687053e-01		-1.026418e-02		3.792485e-02
4.642306e-01		-4.625748e-03		3.756391e-02
4.629595e-01		9.470065e-16		3.731745e-02
4.642306e-01		4.625748e-03		3.756391e-02
4.687053e-01		1.026418e-02		3.792485e-02
4.714231e-01		-6.957186e-03		2.433786e-02
4.687931e-01		-5.133796e-03		2.436265e-02
4.672271e-01		-3.163262e-03		2.403130e-02
4.664211e-01		-1.520458e-03		2.388826e-02
4.661801e-01		8.371960e-16		2.382501e-02
4.664211e-01		1.520458e-03		2.388826e-02
4.672271e-01		3.163262e-03		2.403130e-02
4.687931e-01		5.133796e-03		2.436265e-02
4.714231e-01		6.957186e-03		2.433786e-02
4.730813e-01		-3.561912e-03		1.195000e-02
4.689004e-01		-1.616640e-03		1.178547e-02
4.679790e-01		6.712028e-16		1.166162e-02
4.689004e-01		1.616640e-03		1.178547e-02
4.730813e-01		3.561912e-03		1.195000e-02
4.736698e-01		3.696645e-16		-1.786666e-17
4.709074e-01		4.547451e-16		1.539984e-16
4.694479e-01		5.023286e-16		2.134084e-16
4.687466e-01		4.906876e-16		3.670264e-16
4.685391e-01		5.158087e-16		5.230451e-16
4.687466e-01		5.201907e-16		7.064075e-16
4.694479e-01		5.121376e-16		9.483805e-16
4.709074e-01		5.705807e-16		1.102913e-15
4.736698e-01		6.306551e-16		1.160144e-15
4.730813e-01		3.561912e-03		-1.195000e-02
4.689004e-01		1.616640e-03		-1.178547e-02
4.679790e-01		3.059234e-16		-1.166162e-02
4.689004e-01		-1.616640e-03		-1.178547e-02
4.730813e-01		-3.561912e-03		-1.195000e-02
4.714231e-01		6.957186e-03		-2.433786e-02
4.687931e-01		5.133796e-03		-2.436265e-02
4.672271e-01		3.163262e-03		-2.403130e-02
4.664211e-01		1.520458e-03		-2.388826e-02
4.661801e-01		8.213455e-17		-2.382501e-02
4.664211e-01		-1.520458e-03		-2.388826e-02
4.672271e-01		-3.163262e-03		-2.403130e-02
4.687931e-01		-5.133796e-03		-2.436265e-02
4.714231e-01		-6.957186e-03		-2.433786e-02
4.687053e-01		1.026418e-02		-3.792485e-02
4.642306e-01		4.625748e-03		-3.756391e-02
4.629595e-01		-5.186433e-17		-3.731745e-02
4.642306e-01		-4.625748e-03		-3.756391e-02
4.687053e-01		-1.026418e-02		-3.792485e-02
4.654304e-01		1.356567e-02		-5.249696e-02
4.624872e-01		9.888116e-03		-5.244180e-02
4.604793e-01		6.093691e-03		-5.202683e-02
4.593321e-01		2.947387e-03		-5.190226e-02
4.589735e-01		-2.315667e-16		-5.182539e-02
4.593321e-01		-2.947387e-03		-5.190226e-02
4.604793e-01		-6.093691e-03		-5.202683e-02
4.624872e-01		-9.888116e-03		-5.244180e-02
4.654304e-01		-1.356567e-02		-5.249696e-02
4.769890e-01		-1.340673e-02		4.214988e-02
4.720831e-01		-5.564202e-03		4.074766e-02
4.707122e-01		8.898669e-16		4.054067e-02
4.720831e-01		5.564202e-03		4.074766e-02
4.769890e-01		1.340673e-02		4.214988e-02
4.834533e-01		-7.058226e-03		1.907918e-02
4.796624e-01		-2.901301e-03		1.794947e-02
4.787744e-01		6.143176e-16		1.760972e-02
4.796624e-01		2.901301e-03		1.794947e-02
4.834533e-01		7.058226e-03		1.907918e-02
4.857163e-01		1.652604e-16		-1.104514e-17
4.818693e-01		3.120467e-16		2.389801e-16
4.811303e-01		3.191077e-16		3.476949e-16
4.818693e-01		4.106744e-16		8.183981e-16
4.857163e-01		6.612122e-16		9.696990e-16
4.834533e-01		7.058226e-03		-1.907918e-02
4.796624e-01		2.901301e-03		-1.794947e-02
4.787744e-01		8.847354e-18		-1.760972e-02
4.796624e-01		-2.901301e-03		-1.794947e-02
4.834533e-01		-7.058226e-03		-1.907918e-02
4.769890e-01		1.340673e-02		-4.214988e-02
4.720831e-01		5.564202e-03		-4.074766e-02
4.707122e-01		-3.201350e-16		-4.054067e-02
4.720831e-01		-5.564202e-03		-4.074766e-02
4.769890e-01		-1.340673e-02		-4.214988e-02
4.861900e-01		-1.176176e-02		3.043504e-02
4.836188e-01		-7.306919e-03		2.843941e-02
4.820205e-01		-4.432541e-03		2.846257e-02
4.812694e-01		-1.925000e-03		2.825904e-02
4.810365e-01		7.254344e-16		2.826950e-02
4.812694e-01		1.925000e-03		2.825904e-02
4.820205e-01		4.432541e-03		2.846257e-02
4.836188e-01		7.306919e-03		2.843941e-02
4.861900e-01		1.176176e-02		3.043504e-02
4.904465e-01		-9.005271e-03		2.109239e-02
4.871264e-01		-3.342467e-03		1.856472e-02
4.863188e-01		5.245552e-16		1.811611e-02
4.871264e-01		3.342467e-03		1.856472e-02
4.904465e-01		9.005271e-03		2.109239e-02
4.925379e-01		-6.313274e-03		1.341626e-02
4.904068e-01		-3.886514e-03		1.201501e-02
4.894691e-01		-2.299480e-03		1.167507e-02
4.889335e-01		-9.737628e-04		1.137150e-02
4.887650e-01		3.503878e-16		1.131832e-02
4.889335e-01		9.737628e-04		1.137150e-02
4.894691e-01		2.299480e-03		1.167507e-02
4.904068e-01		3.886514e-03		1.201501e-02
4.925379e-01		6.313274e-03		1.341626e-02
4.940379e-01		-3.225746e-03		6.368744e-03
4.909706e-01		-1.173291e-03		5.456279e-03
4.903743e-01		2.361640e-16		5.258059e-03
4.909706e-01		1.173291e-03		5.456279e-03
4.940379e-01		3.225746e-03		6.368744e-03
4.945565e-01		1.203438e-16		5.318555e-17
4.922831e-01		1.950914e-16		5.438875e-17
4.914438e-01		2.202963e-16		7.977588e-17
4.909920e-01		2.058095e-16		1.496696e-16
4.908653e-01		1.944593e-16		2.826556e-16
4.909920e-01		2.025788e-16		3.468202e-16
4.914438e-01		2.285754e-16		5.620661e-16
4.922831e-01		3.554843e-16		5.848591e-16
4.945565e-01		6.014369e-16		8.247216e-16
4.940379e-01		3.225746e-03		-6.368744e-03
4.909706e-01		1.173291e-03		-5.456279e-03
4.903743e-01		1.292655e-16		-5.258059e-03
4.909706e-01		-1.173291e-03		-5.456279e-03
4.940379e-01		-3.225746e-03		-6.368744e-03
4.925379e-01		6.313274e-03		-1.341626e-02
4.904068e-01		3.886514e-03		-1.201501e-02
4.894691e-01		2.299480e-03		-1.167507e-02
4.889335e-01		9.737628e-04		-1.137150e-02
4.887650e-01		-1.235581e-16		-1.131832e-02
4.889335e-01		-9.737628e-04		-1.137150e-02
4.894691e-01		-2.299480e-03		-1.167507e-02
4.904068e-01		-3.886514e-03		-1.201501e-02
4.925379e-01		-6.313274e-03		-1.341626e-02
4.904465e-01		9.005271e-03		-2.109239e-02
4.871264e-01		3.342467e-03		-1.856472e-02
4.863188e-01		-9.956121e-17		-1.811611e-02
4.871264e-01		-3.342467e-03		-1.856472e-02
4.904465e-01		-9.005271e-03		-2.109239e-02
4.861900e-01		1.176176e-02		-3.043504e-02
4.836188e-01		7.306919e-03		-2.843941e-02
4.820205e-01		4.432541e-03		-2.846257e-02
4.812694e-01		1.925000e-03		-2.825904e-02
4.810365e-01		-2.946617e-16		-2.826950e-02
4.812694e-01		-1.925000e-03		-2.825904e-02
4.820205e-01		-4.432541e-03		-2.846257e-02
4.836188e-01		-7.306919e-03		-2.843941e-02
4.861900e-01		-1.176176e-02		-3.043504e-02
4.932113e-01		-7.941817e-03		1.613756e-02
4.911370e-01		-2.119759e-03		1.403871e-02
4.906355e-01		3.909749e-16		1.453489e-02
4.911370e-01		2.119759e-03		1.403871e-02
4.932113e-01		7.941817e-03		1.613756e-02
4.986926e-01		-4.035971e-03		6.630638e-03
4.967573e-01		-1.071257e-03		4.903464e-03
4.965173e-01		1.588350e-16		4.980789e-03
4.967573e-01		1.071257e-03		4.903464e-03
4.986926e-01		4.035971e-03		6.630638e-03
4.992600e-01		4.200558e-17		3.583223e-18
4.973013e-01		6.230481e-17		1.271547e-17
4.970558e-01		6.540819e-18		1.824554e-16
4.973013e-01		9.649191e-17		2.351697e-16
4.992600e-01		3.498121e-16		4.492012e-16
4.986926e-01		4.035971e-03		-6.630638e-03
4.967573e-01		1.071257e-03		-4.903464e-03
4.965173e-01		-6.643100e-17		-4.980789e-03
4.967573e-01		-1.071257e-03		-4.903464e-03
4.986926e-01		-4.035971e-03		-6.630638e-03
4.932113e-01		7.941817e-03		-1.613756e-02
4.911370e-01		2.119759e-03		-1.403871e-02
4.906355e-01		-2.228865e-16		-1.453489e-02
4.911370e-01		-2.119759e-03		-1.403871e-02
4.932113e-01		-7.941817e-03		-1.613756e-02
5.000000e-01		0.000000e+00		0.000000e+00
5.000000e-01		0.000000e+00		0.000000e+00
5.000000e-01		0.000000e+00		0.000000e+00
5.000000e-01		0.000000e+00		0.000000e+00
5.000000e-01		0.000000e+00		0.000000e+00
5.000000e-01		0.000000e+00		0.000000e+00
5.000000e-01		0.000000e+00		0.000000e+00
5.000000e-01		0.000000e+00		0.000000e+00
5.000000e-01		0.000000e+00		0.000000e+00
5.000000e-01		0.000000e+00		0.000000e+00
5.000000e-01		0.000000e+00		0.000000e+00
5.000000e-01		0.000000e+00		0.000000e+00
5.000000e-01		0.000000e+00		0.000000e+00
5.000000e-01		0.000000e+00		0.000000e+00
5.000000e-01		0.000000e+00		0.000000e+00
5.000000e-01		0.000000e+00		0.000000e+00
5.000000e-01		0.000000e+00		0.000000e+00
5.000000e-01		0.000000e+00		0.000000e+00
5.000000e-01		0.000000e+00		0.000000e+00
5.000000e-01		0.000000e+00		0.000000e+00
5.000000e-01		0.000000e+00		0.000000e+00
5.000000e-01		0.000000e+00		0.000000e+00
5.000000e-01		0.000000e+00		0.000000e+00
5.000000e-01		0.000000e+00		0.000000e+00
5.000000e-01		0.000000e+00		0.000000e+00
5.000000e-01		0.000000e+00		0.000000e+00
5.000000e-01		0.000000e+00		0.000000e+00
5.000000e-01		0.000000e+00		0.000000e+00
5.000000e-01		0.000000e+00		0.000000e+00
5.000000e-01		0.000000e+00		0.000000e+00
5.000000e-01		0.000000e+00		0.000000e+00
5.000000e-01		0.000000e+00		0.000000e+00
5.000000e-01		0.000000e+00		0.000000e+00
5.000000e-01		0.000000e+00		0.000000e+00
5.000000e-01		0.000000e+00		0.000000e+00
5.000000e-01		0.000000e+00		0.000000e+00
5.000000e-01		0.000000e+00		0.000000e+00
5.000000e-01		0.000000e+00		0.000000e+00
5.000000e-01		0.000000e+00		0.000000e+00
5.000000e-01		0.000000e+00		0.000000e+00
5.000000e-01		0.000000e+00		0.000000e+00
5.000000e-01		0.000000e+00		0.000000e+00
5.000000e-01		0.000000e+00		0.000000e+00
5.000000e-01		0.000000e+00		0.000000e+00
5.000000e-01		0.000000e+00		0.000000e+00
5.000000e-01		0.000000e+00		0.000000e+00
5.000000e-01		0.000000e+00		0.000000e+00
5.000000e-01		0.000000e+00		0.000000e+00
5.000000e-01		0.000000e+00		0.000000e+00
5.000000e-01		0.000000e+00		0.000000e+00
5.000000e-01		0.000000e+00		0.000000e+00
5.000000e-01		0.000000e+00		0.000000e+00
5.000000e-01		0.000000e+00		0.000000e+00
5.000000e-01		0.000000e+00		0.000000e+00
5.000000e-01		0.000000e+00		0.000000e+00
5.000000e-01		0.000000e+00		0.000000e+00
5.000000e-01		0.000000e+00		0.000000e+00
5.000000e-01		0.000000e+00		0.000000e+00
5.000000e-01		0.000000e+00		0.000000e+00
5.000000e-01		0.000000e+00		0.000000e+00
5.000000e-01		0.000000e+00		0.000000e+00
5.000000e-01		0.000000e+00		0.000000e+00
5.000000e-01		0.000000e+00		0.000000e+00
5.000000e-01		0.000000e+00		0.000000e+00
5.000000e-01		0.000000e+00		0.000000e+00
VECTORS force double
-3.778611e+07		-3.308515e+07		1.211239e+07
-1.799739e+08		-6.387590e+07		-5.247175e+08
-6.737997e+07		1.095432e+07		8.202554e+07
-2.017050e+08		-3.266005e+07		-5.697097e+08
-6.747586e+07		9.723008e-07		8.431886e+07
-2.017050e+08		3.266005e+07		-5.697097e+08
-6.737997e+07		-1.095432e+07		8.202554e+07
-1.799739e+08		6.387590e+07		-5.247175e+08
-3.778611e+07		3.308515e+07		1.211239e+07
1.941202e+06		-1.810897e+08		-4.678578e+08
-5.773652e+07		-1.057093e+08		-7.267565e+08
-7.238231e+07		-4.470348e-06		-7.359466e+08
-5.773652e+07		1.057093e+08		-7.267565e+08
1.941202e+06		1.810897e+08		-4.678578e+08
1.000739e+07		-1.797908e+07		7.909712e+07
-5.116961e+07		-7.426742e+07		-4.706006e+08
1.078847e+07		2.277699e+07		2.382397e+08
-1.034122e+08		-3.747146e+07		-4.914257e+08
2.330846e+07		1.473624e-06		2.473873e+08
-1.034122e+08		3.747146e+07		-4.914257e+08
1.078847e+07		-2.277699e+07		2.382397e+08
-5.116961e+07		7.426742e+07		-4.706006e+08
1.000739e+07		1.797908e+07		7.909712e+07
7.613523e+06		-5.735728e+07		-1.580305e+08
-6.062965e+07		-3.327049e+07		-2.428118e+08
-8.579172e+07		-2.322537e-06		-2.441246e+08
-6.062965e+07		3.327049e+07		-2.428118e+08
7.613523e+06		5.735728e+07		-1.580305e+08
1.770182e+07		-8.121133e-07		1.929700e-06
-1.360173e+07		-2.082437e-06		-1.357123e-05
2.699385e+07		7.674098e-07		5.684793e-06
-7.368873e+07		-1.773238e-06		-8.676201e-06
4.591588e+07		6.742775e-07		3.047287e-06
-7.368873e+07		-8.940697e-07		-3.814697e-06
2.699385e+07		2.123415e-07		1.102686e-06
-1.360173e+07		-1.192093e-07		5.215406e-08
1.770182e+07		-1.097796e-07		4.023314e-07
7.613523e+06		5.735728e+07		1.580305e+08
-6.062965e+07		3.327049e+07		2.428118e+08
-8.579172e+07		-1.937151e-07		2.441246e+08
-6.062965e+07		-3.327049e+07		2.428118e+08
7.613523e+06		-5.735728e+07		1.580305e+08
1.000739e+07		1.797908e+07		-7.909712e+07
-5.116961e+07		7.426742e+07		4.706006e+08
1.078847e+07		-2.277699e+07		-2.382397e+08
-1.034122e+08		3.747146e+07		4.914257e+08
2.330846e+07		-3.725290e-07		-2.473873e+08
-1.034122e+08		-3.747146e+07		4.914257e+08
1.078847e+07		2.277699e+07		-2.382397e+08
-5.116961e+07		-7.426742e+07		4.706006e+08
1.000739e+07		-1.797908e+07		-7.909712e+07
1.941202e+06		1.810897e+08		4.678578e+08
-5.773652e+07		1.057093e+08		7.267565e+08
-7.238231e+07		2.384186e-06		7.359466e+08
-5.773652e+07		-1.057093e+08		7.267565e+08
1.941202e+06		-1.810897e+08		4.678578e+08
-3.778611e+07		3.308515e+07		-1.211239e+07
-1.799739e+08		6.387590e+07		5.247175e+08
-6.737997e+07		-1.095432e+07		-8.202554e+07
-2.017050e+08		3.266005e+07		5.697097e+08
-6.747586e+07		-1.462176e-07		-8.431886e+07
-2.017050e+08		-3.266005e+07		5.697097e+08
-6.737997e+07		1.095432e+07		-8.202554e+07
-1.799739e+08		-6.387590e+07		5.247175e+08
-3.778611e+07		-3.308515e+07		-1.211239e+07
0.000000e+00		0.000000e+00		0.000000e+00
0.000000e+00		0.000000e+00		0.000000e+00
0.000000e+00		0.000000e+00		0.000000e+00
0.000000e+00		0.000000e+00		0.000000e+00
0.000000e+00		0.000000e+00		0.000000e+00
0.000000e+00		0.000000e+00		0.000000e+00
0.000000e+00		0.000000e+00		0.000000e+00
0.000000e+00		0.000000e+00		0.000000e+00
0.000000e+00		0.000000e+00		0.000000e+00
0.000000e+00		0.000000e+00		0.000000e+00
0.000000e+00		0.000000e+00		0.000000e+00
0.000000e+00		0.000000e+00		0.000000e+00
0.000000e+00		0.000000e+00		0.000000e+00
0.000000e+00		0.000000e+00		0.000000e+00
0.000000e+00		0.000000e+00		0.000000e+00
0.000000e+00		0.000000e+00		0.000000e+00
0.000000e+00		0.000000e+00		0.000000e+00
0.000000e+00		0.000000e+00		0.000000e+00
0.000000e+00		0.000000e+00		0.000000e+00
0.000000e+00		0.000000e+00		0.000000e+00
0.000000e+00		0.000000e+00		0.000000e+00
0.000000e+00		0.000000e+00		0.000000e+00
0.000000e+00		0.000000e+00		0.000000e+00
0.000000e+00		0.000000e+00		0.000000e+00
0.000000e+00		0.000000e+00		0.000000e+00
0.000000e+00		0.000000e+00		0.000000e+00
0.000000e+00		0.000000e+00		0.000000e+00
0.000000e+00		0.000000e+00		0.000000e+00
0.000000e+00		0.000000e+00		0.000000e+00
0.000000e+00		0.000000e+00		0.000000e+00
0.000000e+00		0.000000e+00		0.000000e+00
0.000000e+00		0.000000e+00		0.000000e+00
0.000000e+00		0.000000e+00		0.000000e+00
0.000000e+00		0.000000e+00		0.000000e+00
0.000000e+00		0.000000e+00		0.000000e+00
0.000000e+00		0.000000e+00		0.000000e+00
0.000000e+00		0.000000e+00		0.000000e+00
0.000000e+00		0.000000e+00		0.000000e+00
0.000000e+00		0.000000e+00		0.000000e+00
0.000000e+00		0.000000e+00		0.000000e+00
0.000000e+00		0.000000e+00		0.000000e+00
0.000000e+00		0.000000e+00		0.000000e+00
0.000000e+00		0.000000e+00		0.000000e+00
0.000000e+00		0.000000e+00		0.000000e+00
0.000000e+00		0.000000e+00		0.000000e+00
0.000000e+00		0.000000e+00		0.000000e+00
0.000000e+00		0.000000e+00		0.000000e+00
0.000000e+00		0.000000e+00		0.000000e+00
0.000000e+00		0.000000e+00		0.000000e+00
0.000000e+00		0.000000e+00		0.000000e+00
0.000000e+00		0.000000e+00		0.000000e+00
0.000000e+00		0.000000e+00		0.000000e+00
0.000000e+00		0.000000e+00		0.000000e+00
0.000000e+00		0.000000e+00		0.000000e+00
0.000000e+00		0.000000e+00		0.000000e+00
0.000000e+00		0.000000e+00		0.000000e+00
0.000000e+00		0.000000e+00		0.000000e+00
0.000000e+00		0.000000e+00		0.000000e+00
0.000000e+00		0.000000e+00		0.000000e+00
0.000000e+00		0.000000e+00		0.000000e+00
0.000000e+00		0.000000e+00		0.000000e+00
0.000000e+00		0.000000e+00		0.000000e+00
0.000000e+00		0.000000e+00		0.000000e+00
0.000000e+00		0.000000e+00		0.000000e+00
0.000000e+00		0.000000e+00		0.000000e+00
0.000000e+00		0.000000e+00		0.000000e+00
0.000000e+00		0.000000e+00		0.000000e+00
0.000000e+00		0.000000e+00		0.000000e+00
0.000000e+00		0.000000e+00		0.000000e+00
0.000000e+00		0.000000e+00		0.000000e+00
0.000000e+00		0.000000e+00		0.000000e+00
0.000000e+00		0.000000e+00		0.000000e+00
0.000000e+00		0.000000e+00		0.000000e+00
0.000000e+00		0.000000e+00		0.000000e+00
0.000000e+00		0.000000e+00		0.000000e+00
0.000000e+00		0.000000e+00		0.000000e+00
0.000000e+00		0.000000e+00		0.000000e+00
0.000000e+00		0.000000e+00		0.000000e+00
0.000000e+00		0.000000e+00		0.000000e+00
0.000000e+00		0.000000e+00		0.000000e+00
0.000000e+00		0.000000e+00		0.000000e+00
0.000000e+00		0.000000e+00		0.000000e+00
0.000000e+00		0.000000e+00		0.000000e+00
0.000000e+00		0.000000e+00		0.000000e+00
0.000000e+00		0.000000e+00		0.000000e+00
0.000000e+00		0.000000e+00		0.000000e+00
0.000000e+00		0.000000e+00		0.000000e+00
0.000000e+00		0.000000e+00		0.000000e+00
0.000000e+00		0.000000e+00		0.000000e+00
0.000000e+00		0.000000e+00		0.000000e+00
0.000000e+00		0.000000e+00		0.000000e+00
0.000000e+00		0.000000e+00		0.000000e+00
0.000000e+00		0.000000e+00		0.000000e+00
0.000000e+00		0.000000e+00		0.000000e+00
0.000000e+00		0.000000e+00		0.000000e+00
0.000000e+00		0.000000e+00		0.000000e+00
0.000000e+00		0.000000e+00		0.000000e+00
0.000000e+00		0.000000e+00		0.000000e+00
0.000000e+00		0.000000e+00		0.000000e+00
0.000000e+00		0.000000e+00		0.000000e+00
0.000000e+00		0.000000e+00		0.000000e+00
0.000000e+00		0.000000e+00		0.000000e+00
0.000000e+00		0.000000e+00		0.000000e+00
0.000000e+00		0.000000e+00		0.000000e+00
0.000000e+00		0.000000e+00		0.000000e+00
0.000000e+00		0.000000e+00		0.000000e+00
0.000000e+00		0.000000e+00		0.000000e+00
0.000000e+00		0.000000e+00		0.000000e+00
0.000000e+00		0.000000e+00		0.000000e+00
0.000000e+00		0.000000e+00		0.000000e+00
0.000000e+00		0.000000e+00		0.000000e+00
0.000000e+00		0.000000e+00		0.000000e+00
0.000000e+00		0.000000e+00		0.000000e+00
0.000000e+00		0.000000e+00		0.000000e+00
0.000000e+00		0.000000e+00		0.000000e+00
0.000000e+00		0.000000e+00		0.000000e+00
0.000000e+00		0.000000e+00		0.000000e+00
0.000000e+00		0.000000e+00		0.000000e+00
0.000000e+00		0.000000e+00		0.000000e+00
0.000000e+00		0.000000e+00		0.000000e+00
0.000000e+00		0.000000e+00		0.000000e+00
0.000000e+00		0.000000e+00		0.000000e+00
0.000000e+00		0.000000e+00		0.000000e+00
0.000000e+00		0.000000e+00		0.000000e+00
0.000000e+00		0.000000e+00		0.000000e+00
0.000000e+00		0.000000e+00		0.000000e+00
0.000000e+00		0.000000e+00		0.000000e+00
0.000000e+00		0.000000e+00		0.000000e+00
0.000000e+00		0.000000e+00		0.000000e+00
0.000000e+00		0.000000e+00		0.000000e+00
0.000000e+00		0.000000e+00		0.000000e+00
0.000000e+00		0.000000e+00		0.000000e+00
0.000000e+00		0.000000e+00		0.000000e+00
0.000000e+00		0.000000e+00		0.000000e+00
0.000000e+00		0.000000e+00		0.000000e+00
0.000000e+00		0.000000e+00		0.000000e+00
0.000000e+00		0.000000e+00		0.000000e+00
0.000000e+00		0.000000e+00		0.000000e+00
0.000000e+00		0.000000e+00		0.000000e+00
0.000000e+00		0.000000e+00		0.000000e+00
0.000000e+00		0.000000e+00		0.000000e+00
0.000000e+00		0.000000e+00		0.000000e+00
0.000000e+00		0.000000e+00		0.000000e+00
0.000000e+00		0.000000e+00		0.000000e+00
0.000000e+00		0.000000e+00		0.000000e+00
0.000000e+00		0.000000e+00		0.000000e+00
0.000000e+00		0.000000e+00		0.000000e+00
0.000000e+00		0.000000e+00		0.000000e+00
0.000000e+00		0.000000e+00		0.000000e+00
0.000000e+00		0.000000e+00		0.000000e+00
0.000000e+00		0.000000e+00		0.000000e+00
0.000000e+00		0.000000e+00		0.000000e+00
0.000000e+00		0.000000e+00		0.000000e+00
0.000000e+00		0.000000e+00		0.000000e+00
0.000000e+00		0.000000e+00		0.000000e+00
0.000000e+00		0.000000e+00		0.000000e+00
0.000000e+00		0.000000e+00		0.000000e+00
0.000000e+00		0.000000e+00		0.000000e+00
0.000000e+00		0.000000e+00		0.000000e+00
0.000000e+00		0.000000e+00		0.000000e+00
0.000000e+00		0.000000e+00		0.000000e+00
0.000000e+00		0.000000e+00		0.000000e+00
0.000000e+00		0.000000e+00		0.000000e+00
0.000000e+00		0.000000e+00		0.000000e+00
0.000000e+00		0.000000e+00		0.000000e+00
0.000000e+00		0.000000e+00		0.000000e+00
0.000000e+00		0.000000e+00		0.000000e+00
0.000000e+00		0.000000e+00		0.000000e+00
0.000000e+00		0.000000e+00		0.000000e+00
0.000000e+00		0.000000e+00		0.000000e+00
0.000000e+00		0.000000e+00		0.000000e+00
0.000000e+00		0.000000e+00		0.000000e+00
0.000000e+00		0.000000e+00		0.000000e+00
0.000000e+00		0.000000e+00		0.000000e+00
0.000000e+00		0.000000e+00		0.000000e+00
0.000000e+00		0.000000e+00		0.000000e+00
0.000000e+00		0.000000e+00		0.000000e+00
0.000000e+00		0.000000e+00		0.000000e+00
0.000000e+00		0.000000e+00		0.000000e+00
0.000000e+00		0.000000e+00		0.000000e+00
0.000000e+00		0.000000e+00		0.000000e+00
0.000000e+00		0.000000e+00		0.000000e+00
0.000000e+00		0.000000e+00		0.000000e+00
0.000000e+00		0.000000e+00		0.000000e+00
0.000000e+00		0.000000e+00		0.000000e+00
0.000000e+00		0.000000e+00		0.000000e+00
0.000000e+00		0.000000e+00		0.000000e+00
0.000000e+00		0.000000e+00		0.000000e+00
0.000000e+00		0.000000e+00		0.000000e+00
0.000000e+00		0.000000e+00		0.000000e+00
0.000000e+00		0.000000e+00		0.000000e+00
0.000000e+00		0.000000e+00		0.000000e+00
0.000000e+00		0.000000e+00		0.000000e+00
0.000000e+00		0.000000e+00		0.000000e+00
0.000000e+00		0.000000e+00		0.000000e+00
0.000000e+00		0.000000e+00		0.000000e+00
0.000000e+00		0.000000e+00		0.000000e+00
0.000000e+00		0.000000e+00		0.000000e+00
0.000000e+00		0.000000e+00		0.000000e+00
0.000000e+00		0.000000e+00		0.000000e+00
0.000000e+00		0.000000e+00		0.000000e+00
0.000000e+00		0.000000e+00		0.000000e+00
0.000000e+00		0.000000e+00		0.000000e+00
0.000000e+00		0.000000e+00		0.000000e+00
0.000000e+00		0.000000e+00		0.000000e+00
0.000000e+00		0.000000e+00		0.000000e+00
0.000000e+00		0.000000e+00		0.000000e+00
0.000000e+00		0.000000e+00		0.000000e+00
0.000000e+00		0.000000e+00		0.000000e+00
0.000000e+00		0.000000e+00		0.000000e+00
0.000000e+00		0.000000e+00		0.000000e+00
0.000000e+00		0.000000e+00		0.000000e+00
0.000000e+00		0.000000e+00		0.000000e+00
0.000000e+00		0.000000e+00		0.000000e+00
0.000000e+00		0.000000e+00		0.000000e+00
0.000000e+00		0.000000e+00		0.000000e+00
0.000000e+00		0.000000e+00		0.000000e+00
0.000000e+00		0.000000e+00		0.000000e+00
0.000000e+00		0.000000e+00		0.000000e+00
0.000000e+00		0.000000e+00		0.000000e+00
0.000000e+00		0.000000e+00		0.000000e+00
0.000000e+00		0.000000e+00		0.000000e+00
0.000000e+00		0.000000e+00		0.000000e+00
0.000000e+00		0.000000e+00		0.000000e+00
0.000000e+00		0.000000e+00		0.000000e+00
0.000000e+00		0.000000e+00		0.000000e+00
0.000000e+00		0.000000e+00		0.000000e+00
0.000000e+00		0.000000e+00		0.000000e+00
0.000000e+00		0.000000e+00		0.000000e+00
0.000000e+00		0.000000e+00		0.000000e+00
0.000000e+00		0.000000e+00		0.000000e+00
0.000000e+00		0.000000e+00		0.000000e+00
0.000000e+00		0.000000e+00		0.000000e+00
0.000000e+00		0.000000e+00		0.000000e+00
0.000000e+00		0.000000e+00		0.000000e+00
0.000000e+00		0.000000e+00		0.000000e+00
0.000000e+00		0.000000e+00		0.000000e+00
0.000000e+00		0.000000e+00		0.000000e+00
0.000000e+00		0.000000e+00		0.000000e+00
0.000000e+00		0.000000e+00		0.000000e+00
0.000000e+00		0.000000e+00		0.000000e+00
0.000000e+00		0.000000e+00		0.000000e+00
0.000000e+00		0.000000e+00		0.000000e+00
0.000000e+00		0.000000e+00		0.000000e+00
0.000000e+00		0.000000e+00		0.000000e+00
0.000000e+00		0.000000e+00		0.000000e+00
0.000000e+00		0.000000e+00		0.000000e+00
0.000000e+00		0.000000e+00		0.000000e+00
0.000000e+00		0.000000e+00		0.000000e+00
0.000000e+00		0.000000e+00		0.000000e+00
0.000000e+00		0.000000e+00		0.000000e+00
0.000000e+00		0.000000e+00		0.000000e+00
0.000000e+00		0.000000e+00		0.000000e+00
0.000000e+00		0.000000e+00		0.000000e+00
0.000000e+00		0.000000e+00		0.000000e+00
0.000000e+00		0.000000e+00		0.000000e+00
0.000000e+00		0.000000e+00		0.000000e+00
0.000000e+00		0.000000e+00		0.000000e+00
0.000000e+00		0.000000e+00		0.000000e+00
0.000000e+00		0.000000e+00		0.000000e+00
0.000000e+00		0.000000e+00		0.000000e+00
0.000000e+00		0.000000e+00		0.000000e+00
0.000000e+00		0.000000e+00		0.000000e+00
0.000000e+00		0.000000e+00		0.000000e+00
0.000000e+00		0.000000e+00		0.000000e+00
0.000000e+00		0.000000e+00		0.000000e+00
0.000000e+00		0.000000e+00		0.000000e+00
0.000000e+00		0.000000e+00		0.000000e+00
0.000000e+00		0.000000e+00		0.000000e+00
0.000000e+00		0.000000e+00		0.000000e+00
0.000000e+00		0.000000e+00		0.000000e+00
0.000000e+00		0.000000e+00		0.000000e+00
0.000000e+00		0.000000e+00		0.000000e+00
0.000000e+00		0.000000e+00		0.000000e+00
0.000000e+00		0.000000e+00		0.000000e+00
0.000000e+00		0.000000e+00		0.000000e+00
0.000000e+00		0.000000e+00		0.000000e+00
0.000000e+00		0.000000e+00		0.000000e+00
0.000000e+00		0.000000e+00		0.000000e+00
0.000000e+00		0.000000e+00		0.000000e+00
0.000000e+00		0.000000e+00		0.000000e+00
0.000000e+00		0.000000e+00		0.000000e+00
0.000000e+00		0.000000e+00		0.000000e+00
0.000000e+00		0.000000e+00		0.000000e+00
0.000000e+00		0.000000e+00		0.000000e+00
0.000000e+00		0.000000e+00		0.000000e+00
0.000000e+00		0.000000e+00		0.000000e+00
0.000000e+00		0.000000e+00		0.000000e+00
0.000000e+00		0.000000e+00		0.000000e+00
0.000000e+00		0.000000e+00		0.000000e+00
0.000000e+00		0.000000e+00		0.000000e+00
0.000000e+00		0.000000e+00		0.000000e+00
0.000000e+00		0.000000e+00		0.000000e+00
0.000000e+00		0.000000e+00		0.000000e+00
0.000000e+00		0.000000e+00		0.000000e+00
0.000000e+00		0.000000e+00		0.000000e+00
0.000000e+00		0.000000e+00		0.000000e+00
0.000000e+00		0.000000e+00		0.000000e+00
0.000000e+00		0.000000e+00		0.000000e+00
0.000000e+00		0.000000e+00		0.000000e+00
0.000000e+00		0.000000e+00		0.000000e+00
0.000000e+00		0.000000e+00		0.000000e+00
0.000000e+00		0.000000e+00		0.000000e+00
0.000000e+00		0.000000e+00		0.000000e+00
0.000000e+00		0.000000e+00		0.000000e+00
0.000000e+00		0.000000e+00		0.000000e+00
0.000000e+00		0.000000e+00		0.000000e+00
0.000000e+00		0.000000e+00		0.000000e+00
0.000000e+00		0.000000e+00		0.000000e+00
0.000000e+00		0.000000e+00		0.000000e+00
0.000000e+00		0.000000e+00		0.000000e+00
0.000000e+00		0.000000e+00		0.000000e+00
0.000000e+00		0.000000e+00		0.000000e+00
0.000000e+00		0.000000e+00		0.000000e+00
0.000000e+00		0.000000e+00		0.000000e+00
0.000000e+00		0.000000e+00		0.000000e+00
0.000000e+00		0.000000e+00		0.000000e+00
0.000000e+00		0.000000e+00		0.000000e+00
0.000000e+00		0.000000e+00		0.000000e+00
0.000000e+00		0.000000e+00		0.000000e+00
0.000000e+00		0.000000e+00		0.000000e+00
0.000000e+00		0.000000e+00		0.000000e+00
0.000000e+00		0.000000e+00		0.000000e+00
0.000000e+00		0.000000e+00		0.000000e+00
0.000000e+00		0.000000e+00		0.000000e+00
0.000000e+00		0.000000e+00		0.000000e+00
0.000000e+00		0.000000e+00		0.000000e+00
0.000000e+00		0.000000e+00		0.000000e+00
0.000000e+00		0.000000e+00		0.000000e+00
0.000000e+00		0.000000e+00		0.000000e+00
0.000000e+00		0.000000e+00		0.000000e+00
0.000000e+00		0.000000e+00		0.000000e+00
0.000000e+00		0.000000e+00		0.000000e+00
0.000000e+00		0.000000e+00		0.000000e+00
0.000000e+00		0.000000e+00		0.000000e+00
0.000000e+00		0.000000e+00		0.000000e+00
0.000000e+00		0.000000e+00		0.000000e+00
0.000000e+00		0.000000e+00		0.000000e+00
0.000000e+00		0.000000e+00		0.000000e+00
0.000000e+00		0.000000e+00		0.000000e+00
0.000000e+00		0.000000e+00		0.000000e+00
0.000000e+00		0.000000e+00		0.000000e+00
0.000000e+00		0.000000e+00		0.000000e+00
0.000000e+00		0.000000e+00		0.000000e+00
0.000000e+00		0.000000e+00		0.000000e+00
0.000000e+00		0.000000e+00		0.000000e+00
0.000000e+00		0.000000e+00		0.000000e+00
0.000000e+00		0.000000e+00		0.000000e+00
0.000000e+00		0.000000e+00		0.000000e+00
0.000000e+00		0.000000e+00		0.000000e+00
0.000000e+00		0.000000e+00		0.000000e+00
0.000000e+00		0.000000e+00		0.000000e+00
0.000000e+00		0.000000e+00		0.000000e+00
0.000000e+00		0.000000e+00		0.000000e+00
0.000000e+00		0.000000e+00		0.000000e+00
0.000000e+00		0.000000e+00		0.000000e+00
0.000000e+00		0.000000e+00		0.000000e+00
0.000000e+00		0.000000e+00		0.000000e+00
0.000000e+00		0.000000e+00		0.000000e+00
0.000000e+00		0.000000e+00		0.000000e+00
0.000000e+00		0.000000e+00		0.000000e+00
0.000000e+00		0.000000e+00		0.000000e+00
0.000000e+00		0.000000e+00		0.000000e+00
0.000000e+00		0.000000e+00		0.000000e+00
0.000000e+00		0.000000e+00		0.000000e+00
0.000000e+00		0.000000e+00		0.000000e+00
0.000000e+00		0.000000e+00		0.000000e+00
0.000000e+00		0.000000e+00		0.000000e+00
0.000000e+00		0.000000e+00		0.000000e+00
0.000000e+00		0.000000e+00		0.000000e+00
0.000000e+00		0.000000e+00		0.000000e+00
0.000000e+00		0.000000e+00		0.000000e+00
0.000000e+00		0.000000e+00		0.000000e+00
0.000000e+00		0.000000e+00		0.000000e+00
0.000000e+00		0.000000e+00		0.000000e+00
0.000000e+00		0.000000e+00		0.000000e+00
0.000000e+00		0.000000e+00		0.000000e+00
0.000000e+00		0.000000e+00		0.000000e+00
0.000000e+00		0.000000e+00		0.000000e+00
0.000000e+00		0.000000e+00		0.000000e+00
0.000000e+00		0.000000e+00		0.000000e+00
0.000000e+00		0.000000e+00		0.000000e+00
0.000000e+00		0.000000e+00		0.000000e+00
0.000000e+00		0.000000e+00		0.000000e+00
0.000000e+00		0.000000e+00		0.000000e+00
0.000000e+00		0.000000e+00		0.000000e+00
0.000000e+00		0.000000e+00		0.000000e+00
0.000000e+00		0.000000e+00		0.000000e+00
0.000000e+00		0.000000e+00		0.000000e+00
0.000000e+00		0.000000e+00		0.000000e+00
0.000000e+00		0.000000e+00		0.000000e+00
0.000000e+00		0.000000e+00		0.000000e+00
0.000000e+00		0.000000e+00		0.000000e+00
0.000000e+00		0.000000e+00		0.000000e+00
0.000000e+00		0.000000e+00		0.000000e+00
0.000000e+00		0.000000e+00		0.000000e+00
0.000000e+00		0.000000e+00		0.000000e+00
0.000000e+00		0.000000e+00		0.000000e+00
0.000000e+00		0.000000e+00		0.000000e+00
0.000000e+00		0.000000e+00		0.000000e+00
0.000000e+00		0.000000e+00		0.000000e+00
0.000000e+00		0.000000e+00		0.000000e+00
0.000000e+00		0.000000e+00		0.000000e+00
0.000000e+00		0.000000e+00		0.000000e+00
0.000000e+00		0.000000e+00		0.000000e+00
0.000000e+00		0.000000e+00		0.000000e+00
0.000000e+00		0.000000e+00		0.000000e+00
0.000000e+00		0.000000e+00		0.000000e+00
0.000000e+00		0.000000e+00		0.000000e+00
0.000000e+00		0.000000e+00		0.000000e+00
0.000000e+00		0.000000e+00		0.000000e+00
0.000000e+00		0.000000e+00		0.000000e+00
0.000000e+00		0.000000e+00		0.000000e+00
0.000000e+00		0.000000e+00		0.000000e+00
0.000000e+00		0.000000e+00		0.000000e+00
0.000000e+00		0.000000e+00		0.000000e+00
0.000000e+00		0.000000e+00		0.000000e+00
0.000000e+00		0.000000e+00		0.000000e+00
0.000000e+00		0.000000e+00		0.000000e+00
0.000000e+00		0.000000e+00		0.000000e+00
0.000000e+00		0.000000e+00		0.000000e+00
0.000000e+00		0.000000e+00		0.000000e+00
0.000000e+00		0.000000e+00		0.000000e+00
0.000000e+00		0.000000e+00		0.000000e+00
0.000000e+00		0.000000e+00		0.000000e+00
0.000000e+00		0.000000e+00		0.000000e+00
0.000000e+00		0.000000e+00		0.000000e+00
0.000000e+00		0.000000e+00		0.000000e+00
0.000000e+00		0.000000e+00		0.000000e+00
0.000000e+00		0.000000e+00		0.000000e+00
0.000000e+00		0.000000e+00		0.000000e+00
0.000000e+00		0.000000e+00		0.000000e+00
0.000000e+00		0.000000e+00		0.000000e+00
0.000000e+00		0.000000e+00		0.000000e+00
0.000000e+00		0.000000e+00		0.000000e+00
0.000000e+00		0.000000e+00		0.000000e+00
0.000000e+00		0.000000e+00		0.000000e+00
0.000000e+00		0.000000e+00		0.000000e+00
0.000000e+00		0.000000e+00		0.000000e+00
0.000000e+00		0.000000e+00		0.000000e+00
0.000000e+00		0.000000e+00		0.000000e+00
0.000000e+00		0.000000e+00		0.000000e+00
0.000000e+00		0.000000e+00		0.000000e+00
0.000000e+00		0.000000e+00		0.000000e+00
0.000000e+00		0.000000e+00		0.000000e+00
0.000000e+00		0.000000e+00		0.000000e+00
0.000000e+00		0.000000e+00		0.000000e+00
0.000000e+00		0.000000e+00		0.000000e+00
0.000000e+00		0.000000e+00		0.000000e+00
0.000000e+00		0.000000e+00		0.000000e+00
0.000000e+00		0.000000e+00		0.000000e+00
0.000000e+00		0.000000e+00		0.000000e+00
0.000000e+00		0.000000e+00		0.000000e+00
0.000000e+00		0.000000e+00		0.000000e+00
0.000000e+00		0.000000e+00		0.000000e+00
0.000000e+00		0.000000e+00		0.000000e+00
0.000000e+00		0.000000e+00		0.000000e+00
0.000000e+00		0.000000e+00		0.000000e+00
0.000000e+00		0.000000e+00		0.000000e+00
0.000000e+00		0.000000e+00		0.000000e+00
0.000000e+00		0.000000e+00		0.000000e+00
0.000000e+00		0.000000e+00		0.000000e+00
0.000000e+00		0.000000e+00		0.000000e+00
0.000000e+00		0.000000e+00		0.000000e+00
0.000000e+00		0.000000e+00		0.000000e+00
0.000000e+00		0.000000e+00		0.000000e+00
0.000000e+00		0.000000e+00		0.000000e+00
0.000000e+00		0.000000e+00		0.000000e+00
0.000000e+00		0.000000e+00		0.000000e+00
0.000000e+00		0.000000e+00		0.000000e+00
0.000000e+00		0.000000e+00		0.000000e+00
0.000000e+00		0.000000e+00		0.000000e+00
0.000000e+00		0.000000e+00		0.000000e+00
0.000000e+00		0.000000e+00		0.000000e+00
0.000000e+00		0.000000e+00		0.000000e+00
0.000000e+00		0.000000e+00		0.000000e+00
0.000000e+00		0.000000e+00		0.000000e+00
0.000000e+00		0.000000e+00		0.000000e+00
0.000000e+00		0.000000e+00		0.000000e+00
0.000000e+00		0.000000e+00		0.000000e+00
0.000000e+00		0.000000e+00		0.000000e+00
0.000000e+00		0.000000e+00		0.000000e+00
0.000000e+00		0.000000e+00		0.000000e+00
0.000000e+00		0.000000e+00		0.000000e+00
0.000000e+00		0.000000e+00		0.000000e+00
0.000000e+00		0.000000e+00		0.000000e+00
0.000000e+00		0.000000e+00		0.000000e+00
0.000000e+00		0.000000e+00		0.000000e+00
0.000000e+00		0.000000e+00		0.000000e+00
0.000000e+00		0.000000e+00		0.000000e+00
0.000000e+00		0.000000e+00		0.000000e+00
0.000000e+00		0.000000e+00		0.000000e+00
0.000000e+00		0.000000e+00		0.000000e+00
0.000000e+00		0.000000e+00		0.000000e+00
0.000000e+00		0.000000e+00		0.000000e+00
0.000000e+00		0.000000e+00		0.000000e+00
0.000000e+00		0.000000e+00		0.000000e+00
0.000000e+00		0.000000e+00		0.000000e+00
0.000000e+00		0.000000e+00		0.000000e+00
0.000000e+00		0.000000e+00		0.000000e+00
0.000000e+00		0.000000e+00		0.000000e+00
0.000000e+00		0.000000e+00		0.000000e+00
0.000000e+00		0.000000e+00		0.000000e+00
0.000000e+00		0.000000e+00		0.000000e+00
0.000000e+00		0.000000e+00		0.000000e+00
0.000000e+00		0.000000e+00		0.000000e+00
0.000000e+00		0.000000e+00		0.000000e+00
0.000000e+00		0.000000e+00		0.000000e+00
0.000000e+00		0.000000e+00		0.000000e+00
0.000000e+00		0.000000e+00		0.000000e+00
0.000000e+00		0.000000e+00		0.000000e+00
0.000000e+00		0.000000e+00		0.000000e+00
0.000000e+00		0.000000e+00		0.000000e+00
0.000000e+00		0.000000e+00		0.000000e+00
0.000000e+00		0.000000e+00		0.000000e+00
0.000000e+00		0.000000e+00		0.000000e+00
0.000000e+00		0.000000e+00		0.000000e+00
0.000000e+00		0.000000e+00		0.000000e+00
0.000000e+00		0.000000e+00		0.000000e+00
0.000000e+00		0.000000e+00		0.000000e+00
0.000000e+00		0.000000e+00		0.000000e+00
0.000000e+00		0.000000e+00		0.000000e+00
0.000000e+00		0.000000e+00		0.000000e+00
0.000000e+00		0.000000e+00		0.000000e+00
0.000000e+00		0.000000e+00		0.000000e+00
0.000000e+00		0.000000e+00		0.000000e+00
0.000000e+00		0.000000e+00		0.000000e+00
0.000000e+00		0.000000e+00		0.000000e+00
0.000000e+00		0.000000e+00		0.000000e+00
0.000000e+00		0.000000e+00		0.000000e+00
0.000000e+00		0.000000e+00		0.000000e+00
0.000000e+00		0.000000e+00		0.000000e+00
0.000000e+00		0.000000e+00		0.000000e+00
0.000000e+00		0.000000e+00		0.000000e+00
0.000000e+00		0.000000e+00		0.000000e+00
0.000000e+00		0.000000e+00		0.000000e+00
0.000000e+00		0.000000e+00		0.000000e+00
0.000000e+00		0.000000e+00		0.000000e+00
0.000000e+00		0.000000e+00		0.000000e+00
0.000000e+00		0.000000e+00		0.000000e+00
0.000000e+00		0.000000e+00		0.000000e+00
0.000000e+00		0.000000e+00		0.000000e+00
0.000000e+00		0.000000e+00		0.000000e+00
0.000000e+00		0.000000e+00		0.000000e+00
0.000000e+00		0.000000e+00		0.000000e+00
0.000000e+00		0.000000e+00		0.000000e+00
0.000000e+00		0.000000e+00		0.000000e+00
0.000000e+00		0.000000e+00		0.000000e+00
0.000000e+00		0.000000e+00		0.000000e+00
0.000000e+00		0.000000e+00		0.000000e+00
0.000000e+00		0.000000e+00		0.000000e+00
0.000000e+00		0.000000e+00		0.000000e+00
0.000000e+00		0.000000e+00		0.000000e+00
0.000000e+00		0.000000e+00		0.000000e+00
0.000000e+00		0.000000e+00		0.000000e+00
0.000000e+00		0.000000e+00		0.000000e+00
0.000000e+00		0.000000e+00		0.000000e+00
0.000000e+00		0.000000e+00		0.000000e+00
0.000000e+00		0.000000e+00		0.000000e+00
0.000000e+00		0.000000e+00		0.000000e+00
0.000000e+00		0.000000e+00		0.000000e+00
0.000000e+00		0.000000e+00		0.000000e+00
0.000000e+00		0.000000e+00		0.000000e+00
0.000000e+00		0.000000e+00		0.000000e+00
0.000000e+00		0.000000e+00		0.000000e+00
0.000000e+00		0.000000e+00		0.000000e+00
0.000000e+00		0.000000e+00		0.000000e+00
0.000000e+00		0.000000e+00		0.000000e+00
0.000000e+00		0.000000e+00		0.000000e+00
0.000000e+00		0.000000e+00		0.000000e+00
0.000000e+00		0.000000e+00		0.000000e+00
0.000000e+00		0.000000e+00		0.000000e+00
0.000000e+00		0.000000e+00		0.000000e+00
0.000000e+00		0.000000e+00		0.000000e+00
0.000000e+00		0.000000e+00		0.000000e+00
0.000000e+00		0.000000e+00		0.000000e+00
0.000000e+00		0.000000e+00		0.000000e+00
0.000000e+00		0.000000e+00		0.000000e+00
0.000000e+00		0.000000e+00		0.000000e+00
0.000000e+00		0.000000e+00		0.000000e+00
0.000000e+00		0.000000e+00		0.000000e+00
0.000000e+00		0.000000e+00		0.000000e+00
0.000000e+00		0.000000e+00		0.000000e+00
0.000000e+00		0.000000e+00		0.000000e+00
0.000000e+00		0.000000e+00		0.000000e+00
0.000000e+00		0.000000e+00		0.000000e+00
0.000000e+00		0.000000e+00		0.000000e+00
0.000000e+00		0.000000e+00		0.000000e+00
0.000000e+00		0.000000e+00		0.000000e+00
0.000000e+00		0.000000e+00		0.000000e+00
0.000000e+00		0.000000e+00		0.000000e+00
0.000000e+00		0.000000e+00		0.000000e+00
0.000000e+00		0.000000e+00		0.000000e+00
0.000000e+00		0.000000e+00		0.000000e+00
0.000000e+00		0.000000e+00		0.000000e+00
0.000000e+00		0.000000e+00		0.000000e+00
0.000000e+00		0.000000e+00		0.000000e+00
0.000000e+00		0.000000e+00		0.000000e+00
0.000000e+00		0.000000e+00		0.000000e+00
0.000000e+00		0.000000e+00		0.000000e+00
0.000000e+00		0.000000e+00		0.000000e+00
0.000000e+00		0.000000e+00		0.000000e+00
0.000000e+00		0.000000e+00		0.000000e+00
0.000000e+00		0.000000e+00		0.000000e+00
0.000000e+00		0.000000e+00		0.000000e+00
0.000000e+00		0.000000e+00		0.000000e+00
0.000000e+00		0.000000e+00		0.000000e+00
0.000000e+00		0.000000e+00		0.000000e+00
0.000000e+00		0.000000e+00		0.000000e+00
0.000000e+00		0.000000e+00		0.000000e+00
0.000000e+00		0.000000e+00		0.000000e+00
0.000000e+00		0.000000e+00		0.000000e+00
0.000000e+00		0.000000e+00		0.000000e+00
0.000000e+00		0.000000e+00		0.000000e+00
0.000000e+00		0.000000e+00		0.000000e+00
0.000000e+00		0.000000e+00		0.000000e+00
0.000000e+00		0.000000e+00		0.000000e+00
0.000000e+00		0.000000e+00		0.000000e+00
0.000000e+00		0.000000e+00		0.000000e+00
0.000000e+00		0.000000e+00		0.000000e+00
0.000000e+00		0.000000e+00		0.000000e+00
0.000000e+00		0.000000e+00		0.000000e+00
0.000000e+00		0.000000e+00		0.000000e+00
0.000000e+00		0.000000e+00		0.000000e+00
0.000000e+00		0.000000e+00		0.000000e+00
0.000000e+00		0.000000e+00		0.000000e+00
0.000000e+00		0.000000e+00		0.000000e+00
0.000000e+00		0.000000e+00		0.000000e+00
0.000000e+00		0.000000e+00		0.000000e+00
0.000000e+00		0.000000e+00		0.000000e+00
0.000000e+00		0.000000e+00		0.000000e+00
0.000000e+00		0.000000e+00		0.000000e+00
0.000000e+00		0.000000e+00		0.000000e+00
0.000000e+00		0.000000e+00		0.000000e+00
0.000000e+00		0.000000e+00		0.000000e+00
0.000000e+00		0.000000e+00		0.000000e+00
0.000000e+00		0.000000e+00		0.000000e+00
0.000000e+00		0.000000e+00		0.000000e+00
0.000000e+00		0.000000e+00		0.000000e+00
0.000000e+00		0.000000e+00		0.000000e+00
0.000000e+00		0.000000e+00		0.000000e+00
0.000000e+00		0.000000e+00		0.000000e+00
0.000000e+00		0.000000e+00		0.000000e+00
0.000000e+00		0.000000e+00		0.000000e+00
0.000000e+00		0.000000e+00		0.000000e+00
0.000000e+00		0.000000e+00		0.000000e+00
0.000000e+00		0.000000e+00		0.000000e+00
0.000000e+00		0.000000e+00		0.000000e+00
0.000000e+00		0.000000e+00		0.000000e+00
0.000000e+00		0.000000e+00		0.000000e+00
0.000000e+00		0.000000e+00		0.000000e+00
0.000000e+00		0.000000e+00		0.000000e+00
0.000000e+00		0.000000e+00		0.000000e+00
0.000000e+00		0.000000e+00		0.000000e+00
0.000000e+00		0.000000e+00		0.000000e+00
0.000000e+00		0.000000e+00		0.000000e+00
0.000000e+00		0.000000e+00		0.000000e+00
0.000000e+00		0.000000e+00		0.000000e+00
0.000000e+00		0.000000e+00		0.000000e+00
0.000000e+00		0.000000e+00		0.000000e+00
0.000000e+00		0.000000e+00		0.000000e+00
0.000000e+00		0.000000e+00		0.000000e+00
0.000000e+00		0.000000e+00		0.000000e+00
0.000000e+00		0.000000e+00		0.000000e+00
0.000000e+00		0.000000e+00		0.000000e+00
0.000000e+00		0.000000e+00		0.000000e+00
0.000000e+00		0.000000e+00		0.000000e+00
0.000000e+00		0.000000e+00		0.000000e+00
0.000000e+00		0.000000e+00		0.000000e+00
0.000000e+00		0.000000e+00		0.000000e+00
0.000000e+00		0.000000e+00		0.000000e+00
0.000000e+00		0.000000e+00		0.000000e+00
0.000000e+00		0.000000e+00		0.000000e+00
0.000000e+00		0.000000e+00		0.000000e+00
0.000000e+00		0.000000e+00		0.000000e+00
0.000000e+00		0.000000e+00		0.000000e+00
0.000000e+00		0.000000e+00		0.000000e+00
0.000000e+00		0.000000e+00		0.000000e+00
0.000000e+00		0.000000e+00		0.000000e+00
0.000000e+00		0.000000e+00		0.000000e+00
0.000000e+00		0.000000e+00		0.000000e+00
0.000000e+00		0.000000e+00		0.000000e+00
0.000000e+00		0.000000e+00		0.000000e+00
0.000000e+00		0.000000e+00		0.000000e+00
0.000000e+00		0.000000e+00		0.000000e+00
0.000000e+00		0.000000e+00		0.000000e+00
0.000000e+00		0.000000e+00		0.000000e+00
0.000000e+00		0.000000e+00		0.000000e+00
0.000000e+00		0.000000e+00		0.000000e+00
0.000000e+00		0.000000e+00		0.000000e+00
0.000000e+00		0.000000e+00		0.000000e+00
0.000000e+00		0.000000e+00		0.000000e+00
0.000000e+00		0.000000e+00		0.000000e+00
0.000000e+00		0.000000e+00		0.000000e+00
0.000000e+00		0.000000e+00		0.000000e+00
0.000000e+00		0.000000e+00		0.000000e+00
0.000000e+00		0.000000e+00		0.000000e+00
0.000000e+00		0.000000e+00		0.000000e+00
0.000000e+00		0.000000e+00		0.000000e+00
0.000000e+00		0.000000e+00		0.000000e+00
0.000000e+00		0.000000e+00		0.000000e+00
0.000000e+00		0.000000e+00		0.000000e+00
0.000000e+00		0.000000e+00		0.000000e+00
0.000000e+00		0.000000e+00		0.000000e+00
0.000000e+00		0.000000e+00		0.000000e+00
0.000000e+00		0.000000e+00		0.000000e+00
0.000000e+00		0.000000e+00		0.000000e+00
0.000000e+00		0.000000e+00		0.000000e+00
0.000000e+00		0.000000e+00		0.000000e+00
0.000000e+00		0.000000e+00		0.000000e+00
0.000000e+00		0.000000e+00		0.000000e+00
0.000000e+00		0.000000e+00		0.000000e+00
0.000000e+00		0.000000e+00		0.000000e+00
0.000000e+00		0.000000e+00		0.000000e+00
0.000000e+00		0.000000e+00		0.000000e+00
0.000000e+00		0.000000e+00		0.000000e+00
0.000000e+00		0.000000e+00		0.000000e+00
0.000000e+00		0.000000e+00		0.000000e+00
0.000000e+00		0.000000e+00		0.000000e+00
0.000000e+00		0.000000e+00		0.000000e+00
0.000000e+00		0.000000e+00		0.000000e+00
0.000000e+00		0.000000e+00		0.000000e+00
0.000000e+00		0.000000e+00		0.000000e+00
0.000000e+00		0.000000e+00		0.000000e+00
0.000000e+00		0.000000e+00		0.000000e+00
0.000000e+00		0.000000e+00		0.000000e+00
0.000000e+00		0.000000e+00		0.000000e+00
0.000000e+00		0.000000e+00		0.000000e+00
0.000000e+00		0.000000e+00		0.000000e+00
0.000000e+00		0.000000e+00		0.000000e+00
0.000000e+00		0.000000e+00		0.000000e+00
0.000000e+00		0.000000e+00		0.000000e+00
0.000000e+00		0.000000e+00		0.000000e+00
0.000000e+00		0.000000e+00		0.000000e+00
0.000000e+00		0.000000e+00		0.000000e+00
0.000000e+00		0.000000e+00		0.000000e+00
0.000000e+00		0.000000e+00		0.000000e+00
0.000000e+00		0.000000e+00		0.000000e+00
0.000000e+00		0.000000e+00		0.000000e+00
0.000000e+00		0.000000e+00		0.000000e+00
0.000000e+00		0.000000e+00		0.000000e+00
0.000000e+00		0.000000e+00		0.000000e+00
0.000000e+00		0.000000e+00		0.000000e+00
0.000000e+00		0.000000e+00		0.000000e+00
0.000000e+00		0.000000e+00		0.000000e+00
0.000000e+00		0.000000e+00		0.000000e+00
0.000000e+00		0.000000e+00		0.000000e+00
0.000000e+00		0.000000e+00		0.000000e+00
0.000000e+00		0.000000e+00		0.000000e+00
0.000000e+00		0.000000e+00		0.000000e+00
0.000000e+00		0.000000e+00		0.000000e+00
0.000000e+00		0.000000e+00		0.000000e+00
0.000000e+00		0.000000e+00		0.000000e+00
0.000000e+00		0.000000e+00		0.000000e+00
0.000000e+00		0.000000e+00		0.000000e+00
0.000000e+00		0.000000e+00		0.000000e+00
0.000000e+00		0.000000e+00		0.000000e+00
0.000000e+00		0.000000e+00		0.000000e+00
0.000000e+00		0.000000e+00		0.000000e+00
0.000000e+00		0.000000e+00		0.000000e+00
0.000000e+00		0.000000e+00		0.000000e+00
0.000000e+00		0.000000e+00		0.000000e+00
0.000000e+00		0.000000e+00		0.000000e+00
0.000000e+00		0.000000e+00		0.000000e+00
0.000000e+00		0.000000e+00		0.000000e+00
0.000000e+00		0.000000e+00		0.000000e+00
0.000000e+00		0.000000e+00		0.000000e+00
0.000000e+00		0.000000e+00		0.000000e+00
0.000000e+00		0.000000e+00		0.000000e+00
0.000000e+00		0.000000e+00		0.000000e+00
0.000000e+00		0.000000e+00		0.000000e+00
0.000000e+00		0.000000e+00		0.000000e+00
0.000000e+00		0.000000e+00		0.000000e+00
0.000000e+00		0.000000e+00		0.000000e+00
0.000000e+00		0.000000e+00		0.000000e+00
0.000000e+00		0.000000e+00		0.000000e+00
0.000000e+00		0.000000e+00		0.000000e+00
0.000000e+00		0.000000e+00		0.000000e+00
0.000000e+00		0.000000e+00		0.000000e+00
0.000000e+00		0.000000e+00		0.000000e+00
0.000000e+00		0.000000e+00		0.000000e+00
0.000000e+00		0.000000e+00		0.000000e+00
0.000000e+00		0.000000e+00		0.000000e+00
0.000000e+00		0.000000e+00		0.000000e+00
0.000000e+00		0.000000e+00		0.000000e+00
0.000000e+00		0.000000e+00		0.000000e+00
0.000000e+00		0.000000e+00		0.000000e+00
0.000000e+00		0.000000e+00		0.000000e+00
0.000000e+00		0.000000e+00		0.000000e+00
0.000000e+00		0.000000e+00		0.000000e+00
0.000000e+00		0.000000e+00		0.000000e+00
0.000000e+00		0.000000e+00		0.000000e+00
0.000000e+00		0.000000e+00		0.000000e+00
0.000000e+00		0.000000e+00		0.000000e+00
0.000000e+00		0.000000e+00		0.000000e+00
0.000000e+00		0.000000e+00		0.000000e+00
0.000000e+00		0.000000e+00		0.000000e+00
0.000000e+00		0.000000e+00		0.000000e+00
0.000000e+00		0.000000e+00		0.000000e+00
0.000000e+00		0.000000e+00		0.000000e+00
0.000000e+00		0.000000e+00		0.000000e+00
0.000000e+00		0.000000e+00		0.000000e+00
0.000000e+00		0.000000e+00		0.000000e+00
0.000000e+00		0.000000e+00		0.000000e+00
0.000000e+00		0.000000e+00		0.000000e+00
0.000000e+00		0.000000e+00		0.000000e+00
0.000000e+00		0.000000e+00		0.000000e+00
0.000000e+00		0.000000e+00		0.000000e+00
0.000000e+00		0.000000e+00		0.000000e+00
0.000000e+00		0.000000e+00		0.000000e+00
0.000000e+00		0.000000e+00		0.000000e+00
0.000000e+00		0.000000e+00		0.000000e+00
0.000000e+00		0.000000e+00		0.000000e+00
0.000000e+00		0.000000e+00		0.000000e+00
0.000000e+00		0.000000e+00		0.000000e+00
0.000000e+00		0.000000e+00		0.000000e+00
0.000000e+00		0.000000e+00		0.000000e+00
0.000000e+00		0.000000e+00		0.000000e+00
0.000000e+00		0.000000e+00		0.000000e+00
0.000000e+00		0.000000e+00		0.000000e+00
0.000000e+00		0.000000e+00		0.000000e+00
0.000000e+00		0.000000e+00		0.000000e+00
0.000000e+00		0.000000e+00		0.000000e+00
0.000000e+00		0.000000e+00		0.000000e+00
0.000000e+00		0.000000e+00		0.000000e+00
0.000000e+00		0.000000e+00		0.000000e+00
0.000000e+00		0.000000e+00		0.000000e+00
0.000000e+00		0.000000e+00		0.000000e+00
0.000000e+00		0.000000e+00		0.000000e+00
0.000000e+00		0.000000e+00		0.000000e+00
0.000000e+00		0.000000e+00		0.000000e+00
0.000000e+00		0.000000e+00		0.000000e+00
0.000000e+00		0.000000e+00		0.000000e+00
0.000000e+00		0.000000e+00		0.000000e+00
0.000000e+00		0.000000e+00		0.000000e+00
0.000000e+00		0.000000e+00		0.000000e+00
0.000000e+00		0.000000e+00		0.000000e+00
0.000000e+00		0.000000e+00		0.000000e+00
0.000000e+00		0.000000e+00		0.000000e+00
0.000000e+00		0.000000e+00		0.000000e+00
0.000000e+00		0.000000e+00		0.000000e+00
0.000000e+00		0.000000e+00		0.000000e+00
0.000000e+00		0.000000e+00		0.000000e+00
0.000000e+00		0.000000e+00		0.000000e+00
0.000000e+00		0.000000e+00		0.000000e+00
0.000000e+00		0.000000e+00		0.000000e+00
0.000000e+00		0.000000e+00		0.000000e+00
0.000000e+00		0.000000e+00		0.000000e+00
0.000000e+00		0.000000e+00		0.000000e+00
0.000000e+00		0.000000e+00		0.000000e+00
0.000000e+00		0.000000e+00		0.000000e+00
0.000000e+00		0.000000e+00		0.000000e+00
0.000000e+00		0.000000e+00		0.000000e+00
0.000000e+00		0.000000e+00		0.000000e+00
0.000000e+00		0.000000e+00		0.000000e+00
0.000000e+00		0.000000e+00		0.000000e+00
0.000000e+00		0.000000e+00		0.000000e+00
0.000000e+00		0.000000e+00		0.000000e+00
0.000000e+00		0.000000e+00		0.000000e+00
0.000000e+00		0.000000e+00		0.000000e+00
0.000000e+00		0.000000e+00		0.000000e+00
0.000000e+00		0.000000e+00		0.000000e+00
0.000000e+00		0.000000e+00		0.000000e+00
0.000000e+00		0.000000e+00		0.000000e+00
0.000000e+00		0.000000e+00		0.000000e+00
0.000000e+00		0.000000e+00		0.000000e+00
0.000000e+00		0.000000e+00		0.000000e+00
0.000000e+00		0.000000e+00		0.000000e+00
0.000000e+00		0.000000e+00		0.000000e+00
0.000000e+00		0.000000e+00		0.000000e+00
0.000000e+00		0.000000e+00		0.000000e+00
0.000000e+00		0.000000e+00		0.000000e+00
0.000000e+00		0.000000e+00		0.000000e+00
0.000000e+00		0.000000e+00		0.000000e+00
0.000000e+00		0.000000e+00		0.000000e+00
0.000000e+00		0.000000e+00		0.000000e+00
0.000000e+00		0.000000e+00		0.000000e+00
0.000000e+00		0.000000e+00		0.000000e+00
0.000000e+00		0.000000e+00		0.000000e+00
0.000000e+00		0.000000e+00		0.000000e+00
0.000000e+00		0.000000e+00		0.000000e+00
0.000000e+00		0.000000e+00		0.000000e+00
0.000000e+00		0.000000e+00		0.000000e+00
0.000000e+00		0.000000e+00		0.000000e+00
0.000000e+00		0.000000e+00		0.000000e+00
0.000000e+00		0.000000e+00		0.000000e+00
0.000000e+00		0.000000e+00		0.000000e+00
0.000000e+00		0.000000e+00		0.000000e+00
0.000000e+00		0.000000e+00		0.000000e+00
0.000000e+00		0.000000e+00		0.000000e+00
0.000000e+00		0.000000e+00		0.000000e+00
0.000000e+00		0.000000e+00		0.000000e+00
0.000000e+00		0.000000e+00		0.000000e+00
0.000000e+00		0.000000e+00		0.000000e+00
0.000000e+00		0.000000e+00		0.000000e+00
0.000000e+00		0.000000e+00		0.000000e+00
0.000000e+00		0.000000e+00		0.000000e+00
0.000000e+00		0.000000e+00		0.000000e+00
0.000000e+00		0.000000e+00		0.000000e+00
0.000000e+00		0.000000e+00		0.000000e+00
0.000000e+00		0.000000e+00		0.000000e+00
0.000000e+00		0.000000e+00		0.000000e+00
0.000000e+00		0.000000e+00		0.000000e+00
0.000000e+00		0.000000e+00		0.000000e+00
0.000000e+00		0.000000e+00		0.000000e+00
0.000000e+00		0.000000e+00		0.000000e+00
0.000000e+00		0.000000e+00		0.000000e+00
0.000000e+00		0.000000e+00		0.000000e+00
0.000000e+00		0.000000e+00		0.000000e+00
0.000000e+00		0.000000e+00		0.000000e+00
0.000000e+00		0.000000e+00		0.000000e+00
0.000000e+00		0.000000e+00		0.000000e+00
0.000000e+00		0.000000e+00		0.000000e+00
0.000000e+00		0.000000e+00		0.000000e+00
0.000000e+00		0.000000e+00		0.000000e+00
0.000000e+00		0.000000e+00		0.000000e+00
0.000000e+00		0.000000e+00		0.000000e+00
0.000000e+00		0.000000e+00		0.000000e+00
0.000000e+00		0.000000e+00		0.000000e+00
0.000000e+00		0.000000e+00		0.000000e+00
0.000000e+00		0.000000e+00		0.000000e+00
0.000000e+00		0.000000e+00		0.000000e+00
0.000000e+00		0.000000e+00		0.000000e+00
0.000000e+00		0.000000e+00		0.000000e+00
0.000000e+00		0.000000e+00		0.000000e+00
0.000000e+00		0.000000e+00		0.000000e+00
0.000000e+00		0.000000e+00		0.000000e+00
0.000000e+00		0.000000e+00		0.000000e+00
0.000000e+00		0.000000e+00		0.000000e+00
0.000000e+00		0.000000e+00		0.000000e+00
0.000000e+00		0.000000e+00		0.000000e+00
0.000000e+00		0.000000e+00		0.000000e+00
0.000000e+00		0.000000e+00		0.000000e+00
0.000000e+00		0.000000e+00		0.000000e+00
0.000000e+00		0.000000e+00		0.000000e+00
0.000000e+00		0.000000e+00		0.000000e+00
0.000000e+00		0.000000e+00		0.000000e+00
0.000000e+00		0.000000e+00		0.000000e+00
0.000000e+00		0.000000e+00		0.000000e+00
0.000000e+00		0.000000e+00		0.000000e+00
0.000000e+00		0.000000e+00		0.000000e+00
0.000000e+00		0.000000e+00		0.000000e+00
0.000000e+00		0.000000e+00		0.000000e+00
0.000000e+00		0.000000e+00		0.000000e+00
0.000000e+00		0.000000e+00		0.000000e+00
0.000000e+00		0.000000e+00		0.000000e+00
0.000000e+00		0.000000e+00		0.000000e+00
0.000000e+00		0.000000e+00		0.000000e+00
0.000000e+00		0.000000e+00		0.000000e+00
0.000000e+00		0.000000e+00		0.000000e+00
0.000000e+00		0.000000e+00		0.000000e+00
0.000000e+00		0.000000e+00		0.000000e+00
0.000000e+00		0.000000e+00		0.000000e+00
0.000000e+00		0.000000e+00		0.000000e+00
0.000000e+00		0.000000e+00		0.000000e+00
0.000000e+00		0.000000e+00		0.000000e+00
0.000000e+00		0.000000e+00		0.000000e+00
0.000000e+00		0.000000e+00		0.000000e+00
0.000000e+00		0.000000e+00		0.000000e+00
0.000000e+00		0.000000e+00		0.000000e+00
0.000000e+00		0.000000e+00		0.000000e+00
0.000000e+00		0.000000e+00		0.000000e+00
0.000000e+00		0.000000e+00		0.000000e+00
0.000000e+00		0.000000e+00		0.000000e+00
0.000000e+00		0.000000e+00		0.000000e+00
0.000000e+00		0.000000e+00		0.000000e+00
0.000000e+00		0.000000e+00		0.000000e+00
0.000000e+00		0.000000e+00		0.000000e+00
0.000000e+00		0.000000e+00		0.000000e+00
0.000000e+00		0.000000e+00		0.000000e+00
0.000000e+00		0.000000e+00		0.000000e+00
0.000000e+00		0.000000e+00		0.000000e+00
0.000000e+00		0.000000e+00		0.000000e+00
0.000000e+00		0.000000e+00		0.000000e+00
0.000000e+00		0.000000e+00		0.000000e+00
0.000000e+00		0.000000e+00		0.000000e+00
0.000000e+00		0.000000e+00		0.000000e+00
0.000000e+00		0.000000e+00		0.000000e+00
0.000000e+00		0.000000e+00		0.000000e+00
0.000000e+00		0.000000e+00		0.000000e+00
0.000000e+00		0.000000e+00		0.000000e+00
0.000000e+00		0.000000e+00		0.000000e+00
0.000000e+00		0.000000e+00		0.000000e+00
0.000000e+00		0.000000e+00		0.000000e+00
0.000000e+00		0.000000e+00		0.000000e+00
0.000000e+00		0.000000e+00		0.000000e+00
0.000000e+00		0.000000e+00		0.000000e+00
0.000000e+00		0.000000e+00		0.000000e+00
0.000000e+00		0.000000e+00		0.000000e+00
0.000000e+00		0.000000e+00		0.000000e+00
0.000000e+00		0.000000e+00		0.000000e+00
0.000000e+00		0.000000e+00		0.000000e+00
0.000000e+00		0.000000e+00		0.000000e+00
0.000000e+00		0.000000e+00		0.000000e+00
0.000000e+00		0.000000e+00		0.000000e+00
0.000000e+00		0.000000e+00		0.000000e+00
0.000000e+00		0.000000e+00		0.000000e+00
0.000000e+00		0.000000e+00		0.000000e+00
0.000000e+00		0.000000e+00		0.000000e+00
0.000000e+00		0.000000e+00		0.000000e+00
0.000000e+00		0.000000e+00		0.000000e+00
0.000000e+00		0.000000e+00		0.000000e+00
0.000000e+00		0.000000e+00		0.000000e+00
0.000000e+00		0.000000e+00		0.000000e+00
0.000000e+00		0.000000e+00		0.000000e+00
0.000000e+00		0.000000e+00		0.000000e+00
0.000000e+00		0.000000e+00		0.000000e+00
0.000000e+00		0.000000e+00		0.000000e+00
0.000000e+00		0.000000e+00		0.000000e+00
0.000000e+00		0.000000e+00		0.000000e+00
0.000000e+00		0.000000e+00		0.000000e+00
0.000000e+00		0.000000e+00		0.000000e+00
0.000000e+00		0.000000e+00		0.000000e+00
0.000000e+00		0.000000e+00		0.000000e+00
0.000000e+00		0.000000e+00		0.000000e+00
0.000000e+00		0.000000e+00		0.000000e+00
0.000000e+00		0.000000e+00		0.000000e+00
0.000000e+00		0.000000e+00		0.000000e+00
0.000000e+00		0.000000e+00		0.000000e+00
0.000000e+00		0.000000e+00		0.000000e+00
0.000000e+00		0.000000e+00		0.000000e+00
0.000000e+00		0.000000e+00		0.000000e+00
0.000000e+00		0.000000e+00		0.000000e+00
0.000000e+00		0.000000e+00		0.000000e+00
0.000000e+00		0.000000e+00		0.000000e+00
0.000000e+00		0.000000e+00		0.000000e+00
0.000000e+00		0.000000e+00		0.000000e+00
0.000000e+00		0.000000e+00		0.000000e+00
0.000000e+00		0.000000e+00		0.000000e+00
0.000000e+00		0.000000e+00		0.000000e+00
0.000000e+00		0.000000e+00		0.000000e+00
0.000000e+00		0.000000e+00		0.000000e+00
0.000000e+00		0.000000e+00		0.000000e+00
0.000000e+00		0.000000e+00		0.000000e+00
0.000000e+00		0.000000e+00		0.000000e+00
0.000000e+00		0.000000e+00		0.000000e+00
0.000000e+00		0.000000e+00		0.000000e+00
0.000000e+00		0.000000e+00		0.000000e+00
0.000000e+00		0.000000e+00		0.000000e+00
0.000000e+00		0.000000e+00		0.000000e+00
0.000000e+00		0.000000e+00		0.000000e+00
0.000000e+00		0.000000e+00		0.000000e+00
0.000000e+00		0.000000e+00		0.000000e+00
0.000000e+00		0.000000e+00		0.000000e+00
0.000000e+00		0.000000e+00		0.000000e+00
0.000000e+00		0.000000e+00		0.000000e+00
0.000000e+00		0.000000e+00		0.000000e+00
0.000000e+00		0.000000e+00		0.000000e+00
0.000000e+00		0.000000e+00		0.000000e+00
0.000000e+00		0.000000e+00		0.000000e+00
0.000000e+00		0.000000e+00		0.000000e+00
0.000000e+00		0.000000e+00		0.000000e+00
0.000000e+00		0.000000e+00		0.000000e+00
0.000000e+00		0.000000e+00		0.000000e+00
0.000000e+00		0.000000e+00		0.000000e+00
0.000000e+00		0.000000e+00		0.000000e+00
0.000000e+00		0.000000e+00		0.000000e+00
0.000000e+00		0.000000e+00		0.000000e+00
0.000000e+00		0.000000e+00		0.000000e+00
0.000000e+00		0.000000e+00		0.000000e+00
0.000000e+00		0.000000e+00		0.000000e+00
0.000000e+00		0.000000e+00		0.000000e+00
0.000000e+00		0.000000e+00		0.000000e+00
0.000000e+00		0.000000e+00		0.000000e+00
0.000000e+00		0.000000e+00		0.000000e+00
0.000000e+00		0.000000e+00		0.000000e+00
0.000000e+00		0.000000e+00		0.000000e+00
0.000000e+00		0.000000e+00		0.000000e+00
0.000000e+00		0.000000e+00		0.000000e+00
0.000000e+00		0.000000e+00		0.000000e+00
0.000000e+00		0.000000e+00		0.000000e+00
0.000000e+00		0.000000e+00		0.000000e+00
0.000000e+00		0.000000e+00		0.000000e+00
0.000000e+00		0.000000e+00		0.000000e+00
0.000000e+00		0.000000e+00		0.000000e+00
0.000000e+00		0.000000e+00		0.000000e+00
0.000000e+00		0.000000e+00		0.000000e+00
0.000000e+00		0.000000e+00		0.000000e+00
0.000000e+00		0.000000e+00		0.000000e+00
0.000000e+00		0.000000e+00		0.000000e+00
0.000000e+00		0.000000e+00		0.000000e+00
0.000000e+00		0.000000e+00		0.000000e+00
0.000000e+00		0.000000e+00		0.000000e+00
0.000000e+00		0.000000e+00		0.000000e+00
0.000000e+00		0.000000e+00		0.000000e+00
0.000000e+00		0.000000e+00		0.000000e+00
0.000000e+00		0.000000e+00		0.000000e+00
0.000000e+00		0.000000e+00		0.000000e+00
0.000000e+00		0.000000e+00		0.000000e+00
0.000000e+00		0.000000e+00		0.000000e+00
0.000000e+00		0.000000e+00		0.000000e+00
0.000000e+00		0.000000e+00		0.000000e+00
0.000000e+00		0.000000e+00		0.000000e+00
0.000000e+00		0.000000e+00		0.000000e+00
0.000000e+00		0.000000e+00		0.000000e+00
0.000000e+00		0.000000e+00		0.000000e+00
0.000000e+00		0.000000e+00		0.000000e+00
0.000000e+00		0.000000e+00		0.000000e+00
0.000000e+00		0.000000e+00		0.000000e+00
0.000000e+00		0.000000e+00		0.000000e+00
0.000000e+00		0.000000e+00		0.000000e+00
0.000000e+00		0.000000e+00		0.000000e+00
0.000000e+00		0.000000e+00		0.000000e+00
0.000000e+00		0.000000e+00		0.000000e+00
0.000000e+00		0.000000e+00		0.000000e+00
0.000000e+00		0.000000e+00		0.000000e+00
0.000000e+00		0.000000e+00		0.000000e+00
0.000000e+00		0.000000e+00		0.000000e+00
0.000000e+00		0.000000e+00		0.000000e+00
0.000000e+00		0.000000e+00		0.000000e+00
0.000000e+00		0.000000e+00		0.000000e+00
0.000000e+00		0.000000e+00		0.000000e+00
0.000000e+00		0.000000e+00		0.000000e+00
0.000000e+00		0.000000e+00		0.000000e+00
0.000000e+00		0.000000e+00		0.000000e+00
0.000000e+00		0.000000e+00		0.000000e+00
0.000000e+00		0.000000e+00		0.000000e+00
0.000000e+00		0.000000e+00		0.000000e+00
0.000000e+00		0.000000e+00		0.000000e+00
0.000000e+00		0.000000e+00		0.000000e+00
0.000000e+00		0.000000e+00		0.000000e+00
0.000000e+00		0.000000e+00		0.000000e+00
0.000000e+00		0.000000e+00		0.000000e+00
0.000000e+00		0.000000e+00		0.000000e+00
0.000000e+00		0.000000e+00		0.000000e+00
0.000000e+00		0.000000e+00		0.000000e+00
0.000000e+00		0.000000e+00		0.000000e+00
0.000000e+00		0.000000e+00		0.000000e+00
0.000000e+00		0.000000e+00		0.000000e+00
0.000000e+00		0.000000e+00		0.000000e+00
0.000000e+00		0.000000e+00		0.000000e+00
0.000000e+00		0.000000e+00		0.000000e+00
0.000000e+00		0.000000e+00		0.000000e+00
0.000000e+00		0.000000e+00		0.000000e+00
0.000000e+00		0.000000e+00		0.000000e+00
0.000000e+00		0.000000e+00		0.000000e+00
0.000000e+00		0.000000e+00		0.000000e+00
0.000000e+00		0.000000e+00		0.000000e+00
0.000000e+00		0.000000e+00		0.000000e+00
0.000000e+00		0.000000e+00		0.000000e+00
0.000000e+00		0.000000e+00		0.000000e+00
0.000000e+00		0.000000e+00		0.000000e+00
0.000000e+00		0.000000e+00		0.000000e+00
0.000000e+00		0.000000e+00		0.000000e+00
0.000000e+00		0.000000e+00		0.000000e+00
0.000000e+00		0.000000e+00		0.000000e+00
0.000000e+00		0.000000e+00		0.000000e+00
0.000000e+00		0.000000e+00		0.000000e+00
0.000000e+00		0.000000e+00		0.000000e+00
0.000000e+00		0.000000e+00		0.000000e+00
0.000000e+00		0.000000e+00		0.000000e+00
0.000000e+00		0.000000e+00		0.000000e+00
0.000000e+00		0.000000e+00		0.000000e+00
0.000000e+00		0.000000e+00		0.000000e+00
0.000000e+00		0.000000e+00		0.000000e+00
0.000000e+00		0.000000e+00		0.000000e+00
0.000000e+00		0.000000e+00		0.000000e+00
0.000000e+00		0.000000e+00		0.000000e+00
0.000000e+00		0.000000e+00		0.000000e+00
0.000000e+00		0.000000e+00		0.000000e+00
0.000000e+00		0.000000e+00		0.000000e+00
0.000000e+00		0.000000e+00		0.000000e+00
0.000000e+00		0.000000e+00		0.000000e+00
0.000000e+00		0.000000e+00		0.000000e+00
0.000000e+00		0.000000e+00		0.000000e+00
0.000000e+00		0.000000e+00		0.000000e+00
0.000000e+00		0.000000e+00		0.000000e+00
0.000000e+00		0.000000e+00		0.000000e+00
0.000000e+00		0.000000e+00		0.000000e+00
0.000000e+00		0.000000e+00		0.000000e+00
0.000000e+00		0.000000e+00		0.000000e+00
0.000000e+00		0.000000e+00		0.000000e+00
0.000000e+00		0.000000e+00		0.000000e+00
0.000000e+00		0.000000e+00		0.000000e+00
0.000000e+00		0.000000e+00		0.000000e+00
0.000000e+00		0.000000e+00		0.000000e+00
0.000000e+00		0.000000e+00		0.000000e+00
0.000000e+00		0.000000e+00		0.000000e+00
0.000000e+00		0.000000e+00		0.000000e+00
0.000000e+00		0.000000e+00		0.000000e+00
0.000000e+00		0.000000e+00		0.000000e+00
0.000000e+00		0.000000e+00		0.000000e+00
0.000000e+00		0.000000e+00		0.000000e+00
0.000000e+00		0.000000e+00		0.000000e+00
0.000000e+00		0.000000e+00		0.000000e+00
0.000000e+00		0.000000e+00		0.000000e+00
0.000000e+00		0.000000e+00		0.000000e+00
0.000000e+00		0.000000e+00		0.000000e+00
0.000000e+00		0.000000e+00		0.000000e+00
0.000000e+00		0.000000e+00		0.000000e+00
0.000000e+00		0.000000e+00		0.000000e+00
0.000000e+00		0.000000e+00		0.000000e+00
0.000000e+00		0.000000e+00		0.000000e+00
0.000000e+00		0.000000e+00		0.000000e+00
0.000000e+00		0.000000e+00		0.000000e+00
3.778611e+07		3.308515e+07		1.211239e+07
1.799739e+08		6.387590e+07		-5.247175e+08
6.737997e+07		-1.095432e+07		8.202554e+07
2.017050e+08		3.266005e+07		-5.697097e+08
6.747586e+07		5.541369e-06		8.431886e+07
2.017050e+08		-3.266005e+07		-5.697097e+08
6.737997e+07		1.095432e+07		8.202554e+07
1.799739e+08		-6.387590e+07		-5.247175e+08
3.778611e+07		-3.308515e+07		1.211239e+07
-1.941202e+06		1.810897e+08		-4.678578e+08
5.773652e+07		1.057093e+08		-7.267565e+08
7.238231e+07		-1.580268e-05		-7.359466e+08
5.773652e+07		-1.057093e+08		-7.267565e+08
-1.941202e+06		-1.810897e+08		-4.678578e+08
-1.000739e+07		1.797908e+07		7.909712e+07
5.116961e+07		7.426742e+07		-4.706006e+08
-1.078847e+07		-2.277699e+07		2.382397e+08
1.034122e+08		3.747146e+07		-4.914257e+08
-2.330846e+07		6.625696e-06		2.473873e+08
1.034122e+08		-3.747146e+07		-4.914257e+08
-1.078847e+07		2.277699e+07		2.382397e+08
5.116961e+07		-7.426742e+07		-4.706006e+08
-1.000739e+07		-1.797908e+07		7.909712e+07
-7.613523e+06		5.735728e+07		-1.580305e+08
6.062965e+07		3.327049e+07		-2.428118e+08
8.579172e+07		-2.163817e-06		-2.441246e+08
6.062965e+07		-3.327049e+07		-2.428118e+08
-7.613523e+06		-5.735728e+07		-1.580305e+08
-1.770182e+07		-8.065253e-07		1.434237e-07
1.360173e+07		-1.061708e-06		3.710389e-06
-2.699385e+07		1.475215e-06		-7.227063e-07
7.368873e+07		4.529953e-06		-4.313886e-06
-4.591588e+07		4.930422e-06		4.446134e-06
7.368873e+07		-1.948327e-06		-1.263246e-05
-2.699385e+07		7.435679e-06		8.556992e-06
1.360173e+07		-6.183982e-06		-1.532957e-05
-1.770182e+07		-4.395843e-07		-2.220273e-06
-7.613523e+06		-5.735728e+07		1.580305e+08
6.062965e+07		-3.327049e+07		2.428118e+08
8.579172e+07		2.354383e-06		2.441246e+08
6.062965e+07		3.327049e+07		2.428118e+08
-7.613523e+06		5.735728e+07		1.580305e+08
-1.000739e+07		-1.797908e+07		-7.909712e+07
5.116961e+07		-7.426742e+07		4.706006e+08
-1.078847e+07		2.277699e+07		-2.382397e+08
1.034122e+08		-3.747146e+07		4.914257e+08
-2.330846e+07		-2.533197e-07		-2.473873e+08
1.034122e+08		3.747146e+07		4.914257e+08
-1.078847e+07		-2.277699e+07		-2.382397e+08
5.116961e+07		7.426742e+07		4.706006e+08
-1.000739e+07		1.797908e+07		-7.909712e+07
-1.941202e+06		-1.810897e+08		4.678578e+08
5.773652e+07		-1.057093e+08		7.267565e+08
7.238231e+07		1.205504e-05		7.359466e+08
5.773652e+07		1.057093e+08		7.267565e+08
-1.941202e+06		1.810897e+08		4.678578e+08
3.778611e+07		-3.308515e+07		-1.211239e+07
1.799739e+08		-6.387590e+07		5.247175e+08
6.737997e+07		1.095432e+07		-8.202554e+07
2.017050e+08		-3.266005e+07		5.697097e+08
6.747586e+07		-3.010035e-06		-8.431886e+07
2.017050e+08		3.266005e+07		5.697097e+08
6.737997e+07		-1.095432e+07		-8.202554e+07
1.799739e+08		6.387590e+07		5.247175e+08
3.778611e+07		3.308515e+07		-1.211239e+07
VECTORS velocity double
0.000000e+00		0.000000e+00		0.000000e+00
0.000000e+00		0.000000e+00		0.000000e+00
0.000000e+00		0.000000e+00		0.000000e+00
0.000000e+00		0.000000e+00		0.000000e+00
0.000000e+00		0.000000e+00		0.000000e+00
0.000000e+00		0.000000e+00		0.000000e+00
0.000000e+00		0.000000e+00		0.000000e+00
0.000000e+00		0.000000e+00		0.000000e+00
0.000000e+00		0.000000e+00		0.000000e+00
0.000000e+00		0.000000e+00		0.000000e+00
0.000000e+00		0.000000e+00		0.000000e+00
0.000000e+00		0.000000e+00		0.000000e+00
0.000000e+00		0.000000e+00		0.000000e+00
0.000000e+00		0.000000e+00		0.000000e+00
0.000000e+00		0.000000e+00		0.000000e+00
0.000000e+00		0.000000e+00		0.000000e+00
0.000000e+00		0.000000e+00		0.000000e+00
0.000000e+00		0.000000e+00		0.000000e+00
0.000000e+00		0.000000e+00		0.000000e+00
0.000000e+00		0.000000e+00		0.000000e+00
0.000000e+00		0.000000e+00		0.000000e+00
0.000000e+00		0.000000e+00		0.000000e+00
0.000000e+00		0.000000e+00		0.000000e+00
0.000000e+00		0.000000e+00		0.000000e+00
0.000000e+00		0.000000e+00		0.000000e+00
0.000000e+00		0.000000e+00		0.000000e+00
0.000000e+00		0.000000e+00		0.000000e+00
0.000000e+00		0.000000e+00		0.000000e+00
0.000000e+00		0.000000e+00		0.000000e+00
0.000000e+00		0.000000e+00		0.000000e+00
0.000000e+00		0.000000e+00		0.000000e+00
0.000000e+00		0.000000e+00		0.000000e+00
0.000000e+00		0.000000e+00		0.000000e+00
0.000000e+00		0.000000e+00		0.000000e+00
0.000000e+00		0.000000e+00		0.000000e+00
0.000000e+00		0.000000e+00		0.000000e+00
0.000000e+00		0.000000e+00		0.000000e+00
0.000000e+00		0.000000e+00		0.000000e+00
0.000000e+00		0.000000e+00		0.000000e+00
0.000000e+00		0.000000e+00		0.000000e+00
0.000000e+00		0.000000e+00		0.000000e+00
0.000000e+00		0.000000e+00		0.000000e+00
0.000000e+00		0.000000e+00		0.000000e+00
0.000000e+00		0.000000e+00		0.000000e+00
0.000000e+00		0.000000e+00		0.000000e+00
0.000000e+00		0.000000e+00		0.000000e+00
0.000000e+00		0.000000e+00		0.000000e+00
0.000000e+00		0.000000e+00		0.000000e+00
0.000000e+00		0.000000e+00		0.000000e+00
0.000000e+00		0.000000e+00		0.000000e+00
0.000000e+00		0.000000e+00		0.000000e+00
0.000000e+00		0.000000e+00		0.000000e+00
0.000000e+00		0.000000e+00		0.000000e+00
0.000000e+00		0.000000e+00		0.000000e+00
0.000000e+00		0.000000e+00		0.000000e+00
0.000000e+00		0.000000e+00		0.000000e+00
0.000000e+00		0.000000e+00		0.000000e+00
0.000000e+00		0.000000e+00		0.000000e+00
0.000000e+00		0.000000e+00		0.000000e+00
0.000000e+00		0.000000e+00		0.000000e+00
0.000000e+00		0.000000e+00		0.000000e+00
0.000000e+00		0.000000e+00		0.000000e+00
0.000000e+00		0.000000e+00		0.000000e+00
0.000000e+00		0.000000e+00		0.000000e+00
0.000000e+00		0.000000e+00		0.000000e+00
0.000000e+00		0.000000e+00		0.000000e+00
0.000000e+00		0.000000e+00		0.000000e+00
0.000000e+00		0.000000e+00		0.000000e+00
0.000000e+00		0.000000e+00		0.000000e+00
0.000000e+00		0.000000e+00		0.000000e+00
0.000000e+00		0.000000e+00		0.000000e+00
0.000000e+00		0.000000e+00		0.000000e+00
0.000000e+00		0.000000e+00		0.000000e+00
0.000000e+00		0.000000e+00		0.000000e+00
0.000000e+00		0.000000e+00		0.000000e+00
0.000000e+00		0.000000e+00		0.000000e+00
0.000000e+00		0.000000e+00		0.000000e+00
0.000000e+00		0.000000e+00		0.000000e+00
0.000000e+00		0.000000e+00		0.000000e+00
0.000000e+00		0.000000e+00		0.000000e+00
0.000000e+00		0.000000e+00		0.000000e+00
0.000000e+00		0.000000e+00		0.000000e+00
0.000000e+00		0.000000e+00		0.000000e+00
0.000000e+00		0.000000e+00		0.000000e+00
0.000000e+00		0.000000e+00		0.000000e+00
0.000000e+00		0.000000e+00		0.000000e+00
0.000000e+00		0.000000e+00		0.000000e+00
0.000000e+00		0.000000e+00		0.000000e+00
0.000000e+00		0.000000e+00		0.000000e+00
0.000000e+00		0.000000e+00		0.000000e+00
0.000000e+00		0.000000e+00		0.000000e+00
0.000000e+00		0.000000e+00		0.000000e+00
0.000000e+00		0.000000e+00		0.000000e+00
0.000000e+00		0.000000e+00		0.000000e+00
0.000000e+00		0.000000e+00		0.000000e+00
0.000000e+00		0.000000e+00		0.000000e+00
0.000000e+00		0.000000e+00		0.000000e+00
0.000000e+00		0.000000e+00		0.000000e+00
0.000000e+00		0.000000e+00		0.000000e+00
0.000000e+00		0.000000e+00		0.000000e+00
0.000000e+00		0.000000e+00		0.000000e+00
0.000000e+00		0.000000e+00		0.000000e+00
0.000000e+00		0.000000e+00		0.000000e+00
0.000000e+00		0.000000e+00		0.000000e+00
0.000000e+00		0.000000e+00		0.000000e+00
0.000000e+00		0.000000e+00		0.000000e+00
0.000000e+00		0.000000e+00		0.000000e+00
0.000000e+00		0.000000e+00		0.000000e+00
0.000000e+00		0.000000e+00		0.000000e+00
0.000000e+00		0.000000e+00		0.000000e+00
0.000000e+00		0.000000e+00		0.000000e+00
0.000000e+00		0.000000e+00		0.000000e+00
0.000000e+00		0.000000e+00		0.000000e+00
0.000000e+00		0.000000e+00		0.000000e+00
0.000000e+00		0.000000e+00		0.000000e+00
0.000000e+00		0.000000e+00		0.000000e+00
0.000000e+00		0.000000e+00		0.000000e+00
0.000000e+00		0.000000e+00		0.000000e+00
0.000000e+00		0.000000e+00		0.000000e+00
0.000000e+00		0.000000e+00		0.000000e+00
0.000000e+00		0.000000e+00		0.000000e+00
0.000000e+00		0.000000e+00		0.000000e+00
0.000000e+00		0.000000e+00		0.000000e+00
0.000000e+00		0.000000e+00		0.000000e+00
0.000000e+00		0.000000e+00		0.000000e+00
0.000000e+00		0.000000e+00		0.000000e+00
0.000000e+00		0.000000e+00		0.000000e+00
0.000000e+00		0.000000e+00		0.000000e+00
0.000000e+00		0.000000e+00		0.000000e+00
0.000000e+00		0.000000e+00		0.000000e+00
0.000000e+00		0.000000e+00		0.000000e+00
0.000000e+00		0.000000e+00		0.000000e+00
0.000000e+00		0.000000e+00		0.000000e+00
0.000000e+00		0.000000e+00		0.000000e+00
0.000000e+00		0.000000e+00		0.000000e+00
0.000000e+00		0.000000e+00		0.000000e+00
0.000000e+00		0.000000e+00		0.000000e+00
0.000000e+00		0.000000e+00		0.000000e+00
0.000000e+00		0.000000e+00		0.000000e+00
0.000000e+00		0.000000e+00		0.000000e+00
0.000000e+00		0.000000e+00		0.000000e+00
0.000000e+00		0.000000e+00		0.000000e+00
0.000000e+00		0.000000e+00		0.000000e+00
0.000000e+00		0.000000e+00		0.000000e+00
0.000000e+00		0.000000e+00		0.000000e+00
0.000000e+00		0.000000e+00		0.000000e+00
0.000000e+00		0.000000e+00		0.000000e+00
0.000000e+00		0.000000e+00		0.000000e+00
0.000000e+00		0.000000e+00		0.000000e+00
0.000000e+00		0.000000e+00		0.000000e+00
0.000000e+00		0.000000e+00		0.000000e+00
0.000000e+00		0.000000e+00		0.000000e+00
0.000000e+00		0.000000e+00		0.000000e+00
0.000000e+00		0.000000e+00		0.000000e+00
0.000000e+00		0.000000e+00		0.000000e+00
0.000000e+00		0.000000e+00		0.000000e+00
0.000000e+00		0.000000e+00		0.000000e+00
0.000000e+00		0.000000e+00		0.000000e+00
0.000000e+00		0.000000e+00		0.000000e+00
0.000000e+00		0.000000e+00		0.000000e+00
0.000000e+00		0.000000e+00		0.000000e+00
0.000000e+00		0.000000e+00		0.000000e+00
0.000000e+00		0.000000e+00		0.000000e+00
0.000000e+00		0.000000e+00		0.000000e+00
0.000000e+00		0.000000e+00		0.000000e+00
0.000000e+00		0.000000e+00		0.000000e+00
0.000000e+00		0.000000e+00		0.000000e+00
0.000000e+00		0.000000e+00		0.000000e+00
0.000000e+00		0.000000e+00		0.000000e+00
0.000000e+00		0.000000e+00		0.000000e+00
0.000000e+00		0.000000e+00		0.000000e+00
0.000000e+00		0.000000e+00		0.000000e+00
0.000000e+00		0.000000e+00		0.000000e+00
0.000000e+00		0.000000e+00		0.000000e+00
0.000000e+00		0.000000e+00		0.000000e+00
0.000000e+00		0.000000e+00		0.000000e+00
0.000000e+00		0.000000e+00		0.000000e+00
0.000000e+00		0.000000e+00		0.000000e+00
0.000000e+00		0.000000e+00		0.000000e+00
0.000000e+00		0.000000e+00		0.000000e+00
0.000000e+00		0.000000e+00		0.000000e+00
0.000000e+00		0.000000e+00		0.000000e+00
0.000000e+00		0.000000e+00		0.000000e+00
0.000000e+00		0.000000e+00		0.000000e+00
0.000000e+00		0.000000e+00		0.000000e+00
0.000000e+00		0.000000e+00		0.000000e+00
0.000000e+00		0.000000e+00		0.000000e+00
0.000000e+00		0.000000e+00		0.000000e+00
0.000000e+00		0.000000e+00		0.000000e+00
0.000000e+00		0.000000e+00		0.000000e+00
0.000000e+00		0.000000e+00		0.000000e+00
0.000000e+00		0.000000e+00		0.000000e+00
0.000000e+00		0.000000e+00		0.000000e+00
0.000000e+00		0.000000e+00		0.000000e+00
0.000000e+00		0.000000e+00		0.000000e+00
0.000000e+00		0.000000e+00		0.000000e+00
0.000000e+00		0.000000e+00		0.000000e+00
0.000000e+00		0.000000e+00		0.000000e+00
0.000000e+00		0.000000e+00		0.000000e+00
0.000000e+00		0.000000e+00		0.000000e+00
0.000000e+00		0.000000e+00		0.000000e+00
0.000000e+00		0.000000e+00		0.000000e+00
0.000000e+00		0.000000e+00		0.000000e+00
0.000000e+00		0.000000e+00		0.000000e+00
0.000000e+00		0.000000e+00		0.000000e+00
0.000000e+00		0.000000e+00		0.000000e+00
0.000000e+00		0.000000e+00		0.000000e+00
0.000000e+00		0.000000e+00		0.000000e+00
0.000000e+00		0.000000e+00		0.000000e+00
0.000000e+00		0.000000e+00		0.000000e+00
0.000000e+00		0.000000e+00		0.000000e+00
0.000000e+00		0.000000e+00		0.000000e+00
0.000000e+00		0.000000e+00		0.000000e+00
0.000000e+00		0.000000e+00		0.000000e+00
0.000000e+00		0.000000e+00		0.000000e+00
0.000000e+00		0.000000e+00		0.000000e+00
0.000000e+00		0.000000e+00		0.000000e+00
0.000000e+00		0.000000e+00		0.000000e+00
0.000000e+00		0.000000e+00		0.000000e+00
0.000000e+00		0.000000e+00		0.000000e+00
0.000000e+00		0.000000e+00		0.000000e+00
0.000000e+00		0.000000e+00		0.000000e+00
0.000000e+00		0.000000e+00		0.000000e+00
0.000000e+00		0.000000e+00		0.000000e+00
0.000000e+00		0.000000e+00		0.000000e+00
0.000000e+00		0.000000e+00		0.000000e+00
0.000000e+00		0.000000e+00		0.000000e+00
0.000000e+00		0.000000e+00		0.000000e+00
0.000000e+00		0.000000e+00		0.000000e+00
0.000000e+00		0.000000e+00		0.000000e+00
0.000000e+00		0.000000e+00		0.000000e+00
0.000000e+00		0.000000e+00		0.000000e+00
0.000000e+00		0.000000e+00		0.000000e+00
0.000000e+00		0.000000e+00		0.000000e+00
0.000000e+00		0.000000e+00		0.000000e+00
0.000000e+00		0.000000e+00		0.000000e+00
0.000000e+00		0.000000e+00		0.000000e+00
0.000000e+00		0.000000e+00		0.000000e+00
0.000000e+00		0.000000e+00		0.000000e+00
0.000000e+00		0.000000e+00		0.000000e+00
0.000000e+00		0.000000e+00		0.000000e+00
0.000000e+00		0.000000e+00		0.000000e+00
0.000000e+00		0.000000e+00		0.000000e+00
0.000000e+00		0.000000e+00		0.000000e+00
0.000000e+00		0.000000e+00		0.000000e+00
0.000000e+00		0.000000e+00		0.000000e+00
0.000000e+00		0.000000e+00		0.000000e+00
0.000000e+00		0.000000e+00		0.000000e+00
0.000000e+00		0.000000e+00		0.000000e+00
0.000000e+00		0.000000e+00		0.000000e+00
0.000000e+00		0.000000e+00		0.000000e+00
0.000000e+00		0.000000e+00		0.000000e+00
0.000000e+00		0.000000e+00		0.000000e+00
0.000000e+00		0.000000e+00		0.000000e+00
0.000000e+00		0.000000e+00		0.000000e+00
0.000000e+00		0.000000e+00		0.000000e+00
0.000000e+00		0.000000e+00		0.000000e+00
0.000000e+00		0.000000e+00		0.000000e+00
0.000000e+00		0.000000e+00		0.000000e+00
0.000000e+00		0.000000e+00		0.000000e+00
0.000000e+00		0.000000e+00		0.000000e+00
0.000000e+00		0.000000e+00		0.000000e+00
0.000000e+00		0.000000e+00		0.000000e+00
0.000000e+00		0.000000e+00		0.000000e+00
0.000000e+00		0.000000e+00		0.000000e+00
0.000000e+00		0.000000e+00		0.000000e+00
0.000000e+00		0.000000e+00		0.000000e+00
0.000000e+00		0.000000e+00		0.000000e+00
0.000000e+00		0.000000e+00		0.000000e+00
0.000000e+00		0.000000e+00		0.000000e+00
0.000000e+00		0.000000e+00		0.000000e+00
0.000000e+00		0.000000e+00		0.000000e+00
0.000000e+00		0.000000e+00		0.000000e+00
0.000000e+00		0.000000e+00		0.000000e+00
0.000000e+00		0.000000e+00		0.000000e+00
0.000000e+00		0.000000e+00		0.000000e+00
0.000000e+00		0.000000e+00		0.000000e+00
0.000000e+00		0.000000e+00		0.000000e+00
0.000000e+00		0.000000e+00		0.000000e+00
0.000000e+00		0.000000e+00		0.000000e+00
0.000000e+00		0.000000e+00		0.000000e+00
0.000000e+00		0.000000e+00		0.000000e+00
0.000000e+00		0.000000e+00		0.000000e+00
0.000000e+00		0.000000e+00		0.000000e+00
0.000000e+00		0.000000e+00		0.000000e+00
0.000000e+00		0.000000e+00		0.000000e+00
0.000000e+00		0.000000e+00		0.000000e+00
0.000000e+00		0.000000e+00		0.000000e+00
0.000000e+00		0.000000e+00		0.000000e+00
0.000000e+00		0.000000e+00		0.000000e+00
0.000000e+00		0.000000e+00		0.000000e+00
0.000000e+00		0.000000e+00		0.000000e+00
0.000000e+00		0.000000e+00		0.000000e+00
0.000000e+00		0.000000e+00		0.000000e+00
0.000000e+00		0.000000e+00		0.000000e+00
0.000000e+00		0.000000e+00		0.000000e+00
0.000000e+00		0.000000e+00		0.000000e+00
0.000000e+00		0.000000e+00		0.000000e+00
0.000000e+00		0.000000e+00		0.000000e+00
0.000000e+00		0.000000e+00		0.000000e+00
0.000000e+00		0.000000e+00		0.000000e+00
0.000000e+00		0.000000e+00		0.000000e+00
0.000000e+00		0.000000e+00		0.000000e+00
0.000000e+00		0.000000e+00		0.000000e+00
0.000000e+00		0.000000e+00		0.000000e+00
0.000000e+00		0.000000e+00		0.000000e+00
0.000000e+00		0.000000e+00		0.000000e+00
0.000000e+00		0.000000e+00		0.000000e+00
0.000000e+00		0.000000e+00		0.000000e+00
0.000000e+00		0.000000e+00		0.000000e+00
0.000000e+00		0.000000e+00		0.000000e+00
0.000000e+00		0.000000e+00		0.000000e+00
0.000000e+00		0.000000e+00		0.000000e+00
0.000000e+00		0.000000e+00		0.000000e+00
0.000000e+00		0.000000e+00		0.000000e+00
0.000000e+00		0.000000e+00		0.000000e+00
0.000000e+00		0.000000e+00		0.000000e+00
0.000000e+00		0.000000e+00		0.000000e+00
0.000000e+00		0.000000e+00		0.000000e+00
0.000000e+00		0.000000e+00		0.000000e+00
0.000000e+00		0.000000e+00		0.000000e+00
0.000000e+00		0.000000e+00		0.000000e+00
0.000000e+00		0.000000e+00		0.000000e+00
0.000000e+00		0.000000e+00		0.000000e+00
0.000000e+00		0.000000e+00		0.000000e+00
0.000000e+00		0.000000e+00		0.000000e+00
0.000000e+00		0.000000e+00		0.000000e+00
0.000000e+00		0.000000e+00		0.000000e+00
0.000000e+00		0.000000e+00		0.000000e+00
0.000000e+00		0.000000e+00		0.000000e+00
0.000000e+00		0.000000e+00		0.000000e+00
0.000000e+00		0.000000e+00		0.000000e+00
0.000000e+00		0.000000e+00		0.000000e+00
0.000000e+00		0.000000e+00		0.000000e+00
0.000000e+00		0.000000e+00		0.000000e+00
0.000000e+00		0.000000e+00		0.000000e+00
0.000000e+00		0.000000e+00		0.000000e+00
0.000000e+00		0.000000e+00		0.000000e+00
0.000000e+00		0.000000e+00		0.000000e+00
0.000000e+00		0.000000e+00		0.000000e+00
0.000000e+00		0.000000e+00		0.000000e+00
0.000000e+00		0.000000e+00		0.000000e+00
0.000000e+00		0.000000e+00		0.000000e+00
0.000000e+00		0.000000e+00		0.000000e+00
0.000000e+00		0.000000e+00		0.000000e+00
0.000000e+00		0.000000e+00		0.000000e+00
0.000000e+00		0.000000e+00		0.000000e+00
0.000000e+00		0.000000e+00		0.000000e+00
0.000000e+00		0.000000e+00		0.000000e+00
0.000000e+00		0.000000e+00		0.000000e+00
0.000000e+00		0.000000e+00		0.000000e+00
0.000000e+00		0.000000e+00		0.000000e+00
0.000000e+00		0.000000e+00		0.000000e+00
0.000000e+00		0.000000e+00		0.000000e+00
0.000000e+00		0.000000e+00		0.000000e+00
0.000000e+00		0.000000e+00		0.000000e+00
0.000000e+00		0.000000e+00		0.000000e+00
0.000000e+00		0.000000e+00		0.000000e+00
0.000000e+00		0.000000e+00		0.000000e+00
0.000000e+00		0.000000e+00		0.000000e+00
0.000000e+00		0.000000e+00		0.000000e+00
0.000000e+00		0.000000e+00		0.000000e+00
0.000000e+00		0.000000e+00		0.000000e+00
0.000000e+00		0.000000e+00		0.000000e+00
0.000000e+00		0.000000e+00		0.000000e+00
0.000000e+00		0.000000e+00		0.000000e+00
0.000000e+00		0.000000e+00		0.000000e+00
0.000000e+00		0.000000e+00		0.000000e+00
0.000000e+00		0.000000e+00		0.000000e+00
0.000000e+00		0.000000e+00		0.000000e+00
0.000000e+00		0.000000e+00		0.000000e+00
0.000000e+00		0.000000e+00		0.000000e+00
0.000000e+00		0.000000e+00		0.000000e+00
0.000000e+00		0.000000e+00		0.000000e+00
0.000000e+00		0.000000e+00		0.000000e+00
0.000000e+00		0.000000e+00		0.000000e+00
0.000000e+00		0.000000e+00		0.000000e+00
0.000000e+00		0.000000e+00		0.000000e+00
0.000000e+00		0.000000e+00		0.000000e+00
0.000000e+00		0.000000e+00		0.000000e+00
0.000000e+00		0.000000e+00		0.000000e+00
0.000000e+00		0.000000e+00		0.000000e+00
0.000000e+00		0.000000e+00		0.000000e+00
0.000000e+00		0.000000e+00		0.000000e+00
0.000000e+00		0.000000e+00		0.000000e+00
0.000000e+00		0.000000e+00		0.000000e+00
0.000000e+00		0.000000e+00		0.000000e+00
0.000000e+00		0.000000e+00		0.000000e+00
0.000000e+00		0.000000e+00		0.000000e+00
0.000000e+00		0.000000e+00		0.000000e+00
0.000000e+00		0.000000e+00		0.000000e+00
0.000000e+00		0.000000e+00		0.000000e+00
0.000000e+00		0.000000e+00		0.000000e+00
0.000000e+00		0.000000e+00		0.000000e+00
0.000000e+00		0.000000e+00		0.000000e+00
0.000000e+00		0.000000e+00		0.000000e+00
0.000000e+00		0.000000e+00		0.000000e+00
0.000000e+00		0.000000e+00		0.000000e+00
0.000000e+00		0.000000e+00		0.000000e+00
0.000000e+00		0.000000e+00		0.000000e+00
0.000000e+00		0.000000e+00		0.000000e+00
0.000000e+00		0.000000e+00		0.000000e+00
0.000000e+00		0.000000e+00		0.000000e+00
0.000000e+00		0.000000e+00		0.000000e+00
0.000000e+00		0.000000e+00		0.000000e+00
0.000000e+00		0.000000e+00		0.000000e+00
0.000000e+00		0.000000e+00		0.000000e+00
0.000000e+00		0.000000e+00		0.000000e+00
0.000000e+00		0.000000e+00		0.000000e+00
0.000000e+00		0.000000e+00		0.000000e+00
0.000000e+00		0.000000e+00		0.000000e+00
0.000000e+00		0.000000e+00		0.000000e+00
0.000000e+00		0.000000e+00		0.000000e+00
0.000000e+00		0.000000e+00		0.000000e+00
0.000000e+00		0.000000e+00		0.000000e+00
0.000000e+00		0.000000e+00		0.000000e+00
0.000000e+00		0.000000e+00		0.000000e+00
0.000000e+00		0.000000e+00		0.000000e+00
0.000000e+00		0.000000e+00		0.000000e+00
0.000000e+00		0.000000e+00		0.000000e+00
0.000000e+00		0.000000e+00		0.000000e+00
0.000000e+00		0.000000e+00		0.000000e+00
0.000000e+00		0.000000e+00		0.000000e+00
0.000000e+00		0.000000e+00		0.000000e+00
0.000000e+00		0.000000e+00		0.000000e+00
0.000000e+00		0.000000e+00		0.000000e+00
0.000000e+00		0.000000e+00		0.000000e+00
0.000000e+00		0.000000e+00		0.000000e+00
0.000000e+00		0.000000e+00		0.000000e+00
0.000000e+00		0.000000e+00		0.000000e+00
0.000000e+00		0.000000e+00		0.000000e+00
0.000000e+00		0.000000e+00		0.000000e+00
0.000000e+00		0.000000e+00		0.000000e+00
0.000000e+00		0.000000e+00		0.000000e+00
0.000000e+00		0.000000e+00		0.000000e+00
0.000000e+00		0.000000e+00		0.000000e+00
0.000000e+00		0.000000e+00		0.000000e+00
0.000000e+00		0.000000e+00		0.000000e+00
0.000000e+00		0.000000e+00		0.000000e+00
0.000000e+00		0.000000e+00		0.000000e+00
0.000000e+00		0.000000e+00		0.000000e+00
0.000000e+00		0.000000e+00		0.000000e+00
0.000000e+00		0.000000e+00		0.000000e+00
0.000000e+00		0.000000e+00		0.000000e+00
0.000000e+00		0.000000e+00		0.000000e+00
0.000000e+00		0.000000e+00		0.000000e+00
0.000000e+00		0.000000e+00		0.000000e+00
0.000000e+00		0.000000e+00		0.000000e+00
0.000000e+00		0.000000e+00		0.000000e+00
0.000000e+00		0.000000e+00		0.000000e+00
0.000000e+00		0.000000e+00		0.000000e+00
0.000000e+00		0.000000e+00		0.000000e+00
0.000000e+00		0.000000e+00		0.000000e+00
0.000000e+00		0.000000e+00		0.000000e+00
0.000000e+00		0.000000e+00		0.000000e+00
0.000000e+00		0.000000e+00		0.000000e+00
0.000000e+00		0.000000e+00		0.000000e+00
0.000000e+00		0.000000e+00		0.000000e+00
0.000000e+00		0.000000e+00		0.000000e+00
0.000000e+00		0.000000e+00		0.000000e+00
0.000000e+00		0.000000e+00		0.000000e+00
0.000000e+00		0.000000e+00		0.000000e+00
0.000000e+00		0.000000e+00		0.000000e+00
0.000000e+00		0.000000e+00		0.000000e+00
0.000000e+00		0.000000e+00		0.000000e+00
0.000000e+00		0.000000e+00		0.000000e+00
0.000000e+00		0.000000e+00		0.000000e+00
0.000000e+00		0.000000e+00		0.000000e+00
0.000000e+00		0.000000e+00		0.000000e+00
0.000000e+00		0.000000e+00		0.000000e+00
0.000000e+00		0.000000e+00		0.000000e+00
0.000000e+00		0.000000e+00		0.000000e+00
0.000000e+00		0.000000e+00		0.000000e+00
0.000000e+00		0.000000e+00		0.000000e+00
0.000000e+00		0.000000e+00		0.000000e+00
0.000000e+00		0.000000e+00		0.000000e+00
0.000000e+00		0.000000e+00		0.000000e+00
0.000000e+00		0.000000e+00		0.000000e+00
0.000000e+00		0.000000e+00		0.000000e+00
0.000000e+00		0.000000e+00		0.000000e+00
0.000000e+00		0.000000e+00		0.000000e+00
0.000000e+00		0.000000e+00		0.000000e+00
0.000000e+00		0.000000e+00		0.000000e+00
0.000000e+00		0.000000e+00		0.000000e+00
0.000000e+00		0.000000e+00		0.000000e+00
0.000000e+00		0.000000e+00		0.000000e+00
0.000000e+00		0.000000e+00		0.000000e+00
0.000000e+00		0.000000e+00		0.000000e+00
0.000000e+00		0.000000e+00		0.000000e+00
0.000000e+00		0.000000e+00		0.000000e+00
0.000000e+00		0.000000e+00		0.000000e+00
0.000000e+00		0.000000e+00		0.000000e+00
0.000000e+00		0.000000e+00		0.000000e+00
0.000000e+00		0.000000e+00		0.000000e+00
0.000000e+00		0.000000e+00		0.000000e+00
0.000000e+00		0.000000e+00		0.000000e+00
0.000000e+00		0.000000e+00		0.000000e+00
0.000000e+00		0.000000e+00		0.000000e+00
0.000000e+00		0.000000e+00		0.000000e+00
0.000000e+00		0.000000e+00		0.000000e+00
0.000000e+00		0.000000e+00		0.000000e+00
0.000000e+00		0.000000e+00		0.000000e+00
0.000000e+00		0.000000e+00		0.000000e+00
0.000000e+00		0.000000e+00		0.000000e+00
0.000000e+00		0.000000e+00		0.000000e+00
0.000000e+00		0.000000e+00		0.000000e+00
0.000000e+00		0.000000e+00		0.000000e+00
0.000000e+00		0.000000e+00		0.000000e+00
0.000000e+00		0.000000e+00		0.000000e+00
0.000000e+00		0.000000e+00		0.000000e+00
0.000000e+00		0.000000e+00		0.000000e+00
0.000000e+00		0.000000e+00		0.000000e+00
0.000000e+00		0.000000e+00		0.000000e+00
0.000000e+00		0.000000e+00		0.000000e+00
0.000000e+00		0.000000e+00		0.000000e+00
0.000000e+00		0.000000e+00		0.000000e+00
0.000000e+00		0.000000e+00		0.000000e+00
0.000000e+00		0.000000e+00		0.000000e+00
0.000000e+00		0.000000e+00		0.000000e+00
0.000000e+00		0.000000e+00		0.000000e+00
0.000000e+00		0.000000e+00		0.000000e+00
0.000000e+00		0.000000e+00		0.000000e+00
0.000000e+00		0.000000e+00		0.000000e+00
0.000000e+00		0.000000e+00		0.000000e+00
0.000000e+00		0.000000e+00		0.000000e+00
0.000000e+00		0.000000e+00		0.000000e+00
0.000000e+00		0.000000e+00		0.000000e+00
0.000000e+00		0.000000e+00		0.000000e+00
0.000000e+00		0.000000e+00		0.000000e+00
0.000000e+00		0.000000e+00		0.000000e+00
0.000000e+00		0.000000e+00		0.000000e+00
0.000000e+00		0.000000e+00		0.000000e+00
0.000000e+00		0.000000e+00		0.000000e+00
0.000000e+00		0.000000e+00		0.000000e+00
0.000000e+00		0.000000e+00		0.000000e+00
0.000000e+00		0.000000e+00		0.000000e+00
0.000000e+00		0.000000e+00		0.000000e+00
0.000000e+00		0.000000e+00		0.000000e+00
0.000000e+00		0.000000e+00		0.000000e+00
0.000000e+00		0.000000e+00		0.000000e+00
0.000000e+00		0.000000e+00		0.000000e+00
0.000000e+00		0.000000e+00		0.000000e+00
0.000000e+00		0.000000e+00		0.000000e+00
0.000000e+00		0.000000e+00		0.000000e+00
0.000000e+00		0.000000e+00		0.000000e+00
0.000000e+00		0.000000e+00		0.000000e+00
0.000000e+00		0.000000e+00		0.000000e+00
0.000000e+00		0.000000e+00		0.000000e+00
0.000000e+00		0.000000e+00		0.000000e+00
0.000000e+00		0.000000e+00		0.000000e+00
0.000000e+00		0.000000e+00		0.000000e+00
0.000000e+00		0.000000e+00		0.000000e+00
0.000000e+00		0.000000e+00		0.000000e+00
0.000000e+00		0.000000e+00		0.000000e+00
0.000000e+00		0.000000e+00		0.000000e+00
0.000000e+00		0.000000e+00		0.000000e+00
0.000000e+00		0.000000e+00		0.000000e+00
0.000000e+00		0.000000e+00		0.000000e+00
0.000000e+00		0.000000e+00		0.000000e+00
0.000000e+00		0.000000e+00		0.000000e+00
0.000000e+00		0.000000e+00		0.000000e+00
0.000000e+00		0.000000e+00		0.000000e+00
0.000000e+00		0.000000e+00		0.000000e+00
0.000000e+00		0.000000e+00		0.000000e+00
0.000000e+00		0.000000e+00		0.000000e+00
0.000000e+00		0.000000e+00		0.000000e+00
0.000000e+00		0.000000e+00		0.000000e+00
0.000000e+00		0.000000e+00		0.000000e+00
0.000000e+00		0.000000e+00		0.000000e+00
0.000000e+00		0.000000e+00		0.000000e+00
0.000000e+00		0.000000e+00		0.000000e+00
0.000000e+00		0.000000e+00		0.000000e+00
0.000000e+00		0.000000e+00		0.000000e+00
0.000000e+00		0.000000e+00		0.000000e+00
0.000000e+00		0.000000e+00		0.000000e+00
0.000000e+00		0.000000e+00		0.000000e+00
0.000000e+00		0.000000e+00		0.000000e+00
0.000000e+00		0.000000e+00		0.000000e+00
0.000000e+00		0.000000e+00		0.000000e+00
0.000000e+00		0.000000e+00		0.000000e+00
0.000000e+00		0.000000e+00		0.000000e+00
0.000000e+00		0.000000e+00		0.000000e+00
0.000000e+00		0.000000e+00		0.000000e+00
0.000000e+00		0.000000e+00		0.000000e+00
0.000000e+00		0.000000e+00		0.000000e+00
0.000000e+00		0.000000e+00		0.000000e+00
0.000000e+00		0.000000e+00		0.000000e+00
0.000000e+00		0.000000e+00		0.000000e+00
0.000000e+00		0.000000e+00		0.000000e+00
0.000000e+00		0.000000e+00		0.000000e+00
0.000000e+00		0.000000e+00		0.000000e+00
0.000000e+00		0.000000e+00		0.000000e+00
0.000000e+00		0.000000e+00		0.000000e+00
0.000000e+00		0.000000e+00		0.000000e+00
0.000000e+00		0.000000e+00		0.000000e+00
0.000000e+00		0.000000e+00		0.000000e+00
0.000000e+00		0.000000e+00		0.000000e+00
0.000000e+00		0.000000e+00		0.000000e+00
0.000000e+00		0.000000e+00		0.000000e+00
0.000000e+00		0.000000e+00		0.000000e+00
0.000000e+00		0.000000e+00		0.000000e+00
0.000000e+00		0.000000e+00		0.000000e+00
0.000000e+00		0.000000e+00		0.000000e+00
0.000000e+00		0.000000e+00		0.000000e+00
0.000000e+00		0.000000e+00		0.000000e+00
0.000000e+00		0.000000e+00		0.000000e+00
0.000000e+00		0.000000e+00		0.000000e+00
0.000000e+00		0.000000e+00		0.000000e+00
0.000000e+00		0.000000e+00		0.000000e+00
0.000000e+00		0.000000e+00		0.000000e+00
0.000000e+00		0.000000e+00		0.000000e+00
0.000000e+00		0.000000e+00		0.000000e+00
0.000000e+00		0.000000e+00		0.000000e+00
0.000000e+00		0.000000e+00		0.000000e+00
0.000000e+00		0.000000e+00		0.000000e+00
0.000000e+00		0.000000e+00		0.000000e+00
0.000000e+00		0.000000e+00		0.000000e+00
0.000000e+00		0.000000e+00		0.000000e+00
0.000000e+00		0.000000e+00		0.000000e+00
0.000000e+00		0.000000e+00		0.000000e+00
0.000000e+00		0.000000e+00		0.000000e+00
0.000000e+00		0.000000e+00		0.000000e+00
0.000000e+00		0.000000e+00		0.000000e+00
0.000000e+00		0.000000e+00		0.000000e+00
0.000000e+00		0.000000e+00		0.000000e+00
0.000000e+00		0.000000e+00		0.000000e+00
0.000000e+00		0.000000e+00		0.000000e+00
0.000000e+00		0.000000e+00		0.000000e+00
0.000000e+00		0.000000e+00		0.000000e+00
0.000000e+00		0.000000e+00		0.000000e+00
0.000000e+00		0.000000e+00		0.000000e+00
0.000000e+00		0.000000e+00		0.000000e+00
0.000000e+00		0.000000e+00		0.000000e+00
0.000000e+00		0.000000e+00		0.000000e+00
0.000000e+00		0.000000e+00		0.000000e+00
0.000000e+00		0.000000e+00		0.000000e+00
0.000000e+00		0.000000e+00		0.000000e+00
0.000000e+00		0.000000e+00		0.000000e+00
0.000000e+00		0.000000e+00		0.000000e+00
0.000000e+00		0.000000e+00		0.000000e+00
0.000000e+00		0.000000e+00		0.000000e+00
0.000000e+00		0.000000e+00		0.000000e+00
0.000000e+00		0.000000e+00		0.000000e+00
0.000000e+00		0.000000e+00		0.000000e+00
0.000000e+00		0.000000e+00		0.000000e+00
0.000000e+00		0.000000e+00		0.000000e+00
0.000000e+00		0.000000e+00		0.000000e+00
0.000000e+00		0.000000e+00		0.000000e+00
0.000000e+00		0.000000e+00		0.000000e+00
0.000000e+00		0.000000e+00		0.000000e+00
0.000000e+00		0.000000e+00		0.000000e+00
0.000000e+00		0.000000e+00		0.000000e+00
0.000000e+00		0.000000e+00		0.000000e+00
0.000000e+00		0.000000e+00		0.000000e+00
0.000000e+00		0.000000e+00		0.000000e+00
0.000000e+00		0.000000e+00		0.000000e+00
0.000000e+00		0.000000e+00		0.000000e+00
0.000000e+00		0.000000e+00		0.000000e+00
0.000000e+00		0.000000e+00		0.000000e+00
0.000000e+00		0.000000e+00		0.000000e+00
0.000000e+00		0.000000e+00		0.000000e+00
0.000000e+00		0.000000e+00		0.000000e+00
0.000000e+00		0.000000e+00		0.000000e+00
0.000000e+00		0.000000e+00		0.000000e+00
0.000000e+00		0.000000e+00		0.000000e+00
0.000000e+00		0.000000e+00		0.000000e+00
0.000000e+00		0.000000e+00		0.000000e+00
0.000000e+00		0.000000e+00		0.000000e+00
0.000000e+00		0.000000e+00		0.000000e+00
0.000000e+00		0.000000e+00		0.000000e+00
0.000000e+00		0.000000e+00		0.000000e+00
0.000000e+00		0.000000e+00		0.000000e+00
0.000000e+00		0.000000e+00		0.000000e+00
0.000000e+00		0.000000e+00		0.000000e+00
0.000000e+00		0.000000e+00		0.000000e+00
0.000000e+00		0.000000e+00		0.000000e+00
0.000000e+00		0.000000e+00		0.000000e+00
0.000000e+00		0.000000e+00		0.000000e+00
0.000000e+00		0.000000e+00		0.000000e+00
0.000000e+00		0.000000e+00		0.000000e+00
0.000000e+00		0.000000e+00		0.000000e+00
0.000000e+00		0.000000e+00		0.000000e+00
0.000000e+00		0.000000e+00		0.000000e+00
0.000000e+00		0.000000e+00		0.000000e+00
0.000000e+00		0.000000e+00		0.000000e+00
0.000000e+00		0.000000e+00		0.000000e+00
0.000000e+00		0.000000e+00		0.000000e+00
0.000000e+00		0.000000e+00		0.000000e+00
0.000000e+00		0.000000e+00		0.000000e+00
0.000000e+00		0.000000e+00		0.000000e+00
0.000000e+00		0.000000e+00		0.000000e+00
0.000000e+00		0.000000e+00		0.000000e+00
0.000000e+00		0.000000e+00		0.000000e+00
0.000000e+00		0.000000e+00		0.000000e+00
0.000000e+00		0.000000e+00		0.000000e+00
0.000000e+00		0.000000e+00		0.000000e+00
0.000000e+00		0.000000e+00		0.000000e+00
0.000000e+00		0.000000e+00		0.000000e+00
0.000000e+00		0.000000e+00		0.000000e+00
0.000000e+00		0.000000e+00		0.000000e+00
0.000000e+00		0.000000e+00		0.000000e+00
0.000000e+00		0.000000e+00		0.000000e+00
0.000000e+00		0.000000e+00		0.000000e+00
0.000000e+00		0.000000e+00		0.000000e+00
0.000000e+00		0.000000e+00		0.000000e+00
0.000000e+00		0.000000e+00		0.000000e+00
0.000000e+00		0.000000e+00		0.000000e+00
0.000000e+00		0.000000e+00		0.000000e+00
0.000000e+00		0.000000e+00		0.000000e+00
0.000000e+00		0.000000e+00		0.000000e+00
0.000000e+00		0.000000e+00		0.000000e+00
0.000000e+00		0.000000e+00		0.000000e+00
0.000000e+00		0.000000e+00		0.000000e+00
0.000000e+00		0.000000e+00		0.000000e+00
0.000000e+00		0.000000e+00		0.000000e+00
0.000000e+00		0.000000e+00		0.000000e+00
0.000000e+00		0.000000e+00		0.000000e+00
0.000000e+00		0.000000e+00		0.000000e+00
0.000000e+00		0.000000e+00		0.000000e+00
0.000000e+00		0.000000e+00		0.000000e+00
0.000000e+00		0.000000e+00		0.000000e+00
0.000000e+00		0.000000e+00		0.000000e+00
0.000000e+00		0.000000e+00		0.000000e+00
0.000000e+00		0.000000e+00		0.000000e+00
0.000000e+00		0.000000e+00		0.000000e+00
0.000000e+00		0.000000e+00		0.000000e+00
0.000000e+00		0.000000e+00		0.000000e+00
0.000000e+00		0.000000e+00		0.000000e+00
0.000000e+00		0.000000e+00		0.000000e+00
0.000000e+00		0.000000e+00		0.000000e+00
0.000000e+00		0.000000e+00		0.000000e+00
0.000000e+00		0.000000e+00		0.000000e+00
0.000000e+00		0.000000e+00		0.000000e+00
0.000000e+00		0.000000e+00		0.000000e+00
0.000000e+00		0.000000e+00		0.000000e+00
0.000000e+00		0.000000e+00		0.000000e+00
0.000000e+00		0.000000e+00		0.000000e+00
0.000000e+00		0.000000e+00		0.000000e+00
0.000000e+00		0.000000e+00		0.000000e+00
0.000000e+00		0.000000e+00		0.000000e+00
0.000000e+00		0.000000e+00		0.000000e+00
0.000000e+00		0.000000e+00		0.000000e+00
0.000000e+00		0.000000e+00		0.000000e+00
0.000000e+00		0.000000e+00		0.000000e+00
0.000000e+00		0.000000e+00		0.000000e+00
0.000000e+00		0.000000e+00		0.000000e+00
0.000000e+00		0.000000e+00		0.000000e+00
0.000000e+00		0.000000e+00		0.000000e+00
0.000000e+00		0.000000e+00		0.000000e+00
0.000000e+00		0.000000e+00		0.000000e+00
0.000000e+00		0.000000e+00		0.000000e+00
0.000000e+00		0.000000e+00		0.000000e+00
0.000000e+00		0.000000e+00		0.000000e+00
0.000000e+00		0.000000e+00		0.000000e+00
0.000000e+00		0.000000e+00		0.000000e+00
0.000000e+00		0.000000e+00		0.000000e+00
0.000000e+00		0.000000e+00		0.000000e+00
0.000000e+00		0.000000e+00		0.000000e+00
0.000000e+00		0.000000e+00		0.000000e+00
0.000000e+00		0.000000e+00		0.000000e+00
0.000000e+00		0.000000e+00		0.000000e+00
0.000000e+00		0.000000e+00		0.000000e+00
0.000000e+00		0.000000e+00		0.000000e+00
0.000000e+00		0.000000e+00		0.000000e+00
0.000000e+00		0.000000e+00		0.000000e+00
0.000000e+00		0.000000e+00		0.000000e+00
0.000000e+00		0.000000e+00		0.000000e+00
0.000000e+00		0.000000e+00		0.000000e+00
0.000000e+00		0.000000e+00		0.000000e+00
0.000000e+00		0.000000e+00		0.000000e+00
0.000000e+00		0.000000e+00		0.000000e+00
0.000000e+00		0.000000e+00		0.000000e+00
0.000000e+00		0.000000e+00		0.000000e+00
0.000000e+00		0.000000e+00		0.000000e+00
0.000000e+00		0.000000e+00		0.000000e+00
0.000000e+00		0.000000e+00		0.000000e+00
0.000000e+00		0.000000e+00		0.000000e+00
0.000000e+00		0.000000e+00		0.000000e+00
0.000000e+00		0.000000e+00		0.000000e+00
0.000000e+00		0.000000e+00		0.000000e+00
0.000000e+00		0.000000e+00		0.000000e+00
0.000000e+00		0.000000e+00		0.000000e+00
0.000000e+00		0.000000e+00		0.000000e+00
0.000000e+00		0.000000e+00		0.000000e+00
0.000000e+00		0.000000e+00		0.000000e+00
0.000000e+00		0.000000e+00		0.000000e+00
0.000000e+00		0.000000e+00		0.000000e+00
0.000000e+00		0.000000e+00		0.000000e+00
0.000000e+00		0.000000e+00		0.000000e+00
0.000000e+00		0.000000e+00		0.000000e+00
0.000000e+00		0.000000e+00		0.000000e+00
0.000000e+00		0.000000e+00		0.000000e+00
0.000000e+00		0.000000e+00		0.000000e+00
0.000000e+00		0.000000e+00		0.000000e+00
0.000000e+00		0.000000e+00		0.000000e+00
0.000000e+00		0.000000e+00		0.000000e+00
0.000000e+00		0.000000e+00		0.000000e+00
0.000000e+00		0.000000e+00		0.000000e+00
0.000000e+00		0.000000e+00		0.000000e+00
0.000000e+00		0.000000e+00		0.000000e+00
0.000000e+00		0.000000e+00		0.000000e+00
0.000000e+00		0.000000e+00		0.000000e+00
0.000000e+00		0.000000e+00		0.000000e+00
0.000000e+00		0.000000e+00		0.000000e+00
0.000000e+00		0.000000e+00		0.000000e+00
0.000000e+00		0.000000e+00		0.000000e+00
0.000000e+00		0.000000e+00		0.000000e+00
0.000000e+00		0.000000e+00		0.000000e+00
0.000000e+00		0.000000e+00		0.000000e+00
0.000000e+00		0.000000e+00		0.000000e+00
0.000000e+00		0.000000e+00		0.000000e+00
0.000000e+00		0.000000e+00		0.000000e+00
0.000000e+00		0.000000e+00		0.000000e+00
0.000000e+00		0.000000e+00		0.000000e+00
0.000000e+00		0.000000e+00		0.000000e+00
0.000000e+00		0.000000e+00		0.000000e+00
0.000000e+00		0.000000e+00		0.000000e+00
0.000000e+00		0.000000e+00		0.000000e+00
0.000000e+00		0.000000e+00		0.000000e+00
0.000000e+00		0.000000e+00		0.000000e+00
0.000000e+00		0.000000e+00		0.000000e+00
0.000000e+00		0.000000e+00		0.000000e+00
0.000000e+00		0.000000e+00		0.000000e+00
0.000000e+00		0.000000e+00		0.000000e+00
0.000000e+00		0.000000e+00		0.000000e+00
0.000000e+00		0.000000e+00		0.000000e+00
0.000000e+00		0.000000e+00		0.000000e+00
0.000000e+00		0.000000e+00		0.000000e+00
0.000000e+00		0.000000e+00		0.000000e+00
0.000000e+00		0.000000e+00		0.000000e+00
0.000000e+00		0.000000e+00		0.000000e+00
0.000000e+00		0.000000e+00		0.000000e+00
0.000000e+00		0.000000e+00		0.000000e+00
0.000000e+00		0.000000e+00		0.000000e+00
0.000000e+00		0.000000e+00		0.000000e+00
0.000000e+00		0.000000e+00		0.000000e+00
0.000000e+00		0.000000e+00		0.000000e+00
0.000000e+00		0.000000e+00		0.000000e+00
0.000000e+00		0.000000e+00		0.000000e+00
0.000000e+00		0.000000e+00		0.000000e+00
0.000000e+00		0.000000e+00		0.000000e+00
0.000000e+00		0.000000e+00		0.000000e+00
0.000000e+00		0.000000e+00		0.000000e+00
0.000000e+00		0.000000e+00		0.000000e+00
0.000000e+00		0.000000e+00		0.000000e+00
0.000000e+00		0.000000e+00		0.000000e+00
0.000000e+00		0.000000e+00		0.000000e+00
0.000000e+00		0.000000e+00		0.000000e+00
0.000000e+00		0.000000e+00		0.000000e+00
0.000000e+00		0.000000e+00		0.000000e+00
0.000000e+00		0.000000e+00		0.000000e+00
0.000000e+00		0.000000e+00		0.000000e+00
0.000000e+00		0.000000e+00		0.000000e+00
0.000000e+00		0.000000e+00		0.000000e+00
0.000000e+00		0.000000e+00		0.000000e+00
0.000000e+00		0.000000e+00		0.000000e+00
0.000000e+00		0.000000e+00		0.000000e+00
0.000000e+00		0.000000e+00		0.000000e+00
0.000000e+00		0.000000e+00		0.000000e+00
0.000000e+00		0.000000e+00		0.000000e+00
0.000000e+00		0.000000e+00		0.000000e+00
0.000000e+00		0.000000e+00		0.000000e+00
0.000000e+00		0.000000e+00		0.000000e+00
0.000000e+00		0.000000e+00		0.000000e+00
0.000000e+00		0.000000e+00		0.000000e+00
0.000000e+00		0.000000e+00		0.000000e+00
0.000000e+00		0.000000e+00		0.000000e+00
0.000000e+00		0.000000e+00		0.000000e+00
0.000000e+00		0.000000e+00		0.000000e+00
0.000000e+00		0.000000e+00		0.000000e+00
0.000000e+00		0.000000e+00		0.000000e+00
0.000000e+00		0.000000e+00		0.000000e+00
0.000000e+00		0.000000e+00		0.000000e+00
0.000000e+00		0.000000e+00		0.000000e+00
0.000000e+00		0.000000e+00		0.000000e+00
0.000000e+00		0.000000e+00		0.000000e+00
0.000000e+00		0.000000e+00		0.000000e+00
0.000000e+00		0.000000e+00		0.000000e+00
0.000000e+00		0.000000e+00		0.000000e+00
0.000000e+00		0.000000e+00		0.000000e+00
0.000000e+00		0.000000e+00		0.000000e+00
0.000000e+00		0.000000e+00		0.000000e+00
0.000000e+00		0.000000e+00		0.000000e+00
0.000000e+00		0.000000e+00		0.000000e+00
0.000000e+00		0.000000e+00		0.000000e+00
0.000000e+00		0.000000e+00		0.000000e+00
0.000000e+00		0.000000e+00		0.000000e+00
0.000000e+00		0.000000e+00		0.000000e+00
0.000000e+00		0.000000e+00		0.000000e+00
0.000000e+00		0.000000e+00		0.000000e+00
0.000000e+00		0.000000e+00		0.000000e+00
0.000000e+00		0.000000e+00		0.000000e+00
0.000000e+00		0.000000e+00		0.000000e+00
0.000000e+00		0.000000e+00		0.000000e+00
0.000000e+00		0.000000e+00		0.000000e+00
0.000000e+00		0.000000e+00		0.000000e+00
0.000000e+00		0.000000e+00		0.000000e+00
0.000000e+00		0.000000e+00		0.000000e+00
0.000000e+00		0.000000e+00		0.000000e+00
0.000000e+00		0.000000e+00		0.000000e+00
0.000000e+00		0.000000e+00		0.000000e+00
0.000000e+00		0.000000e+00		0.000000e+00
0.000000e+00		0.000000e+00		0.000000e+00
0.000000e+00		0.000000e+00		0.000000e+00
0.000000e+00		0.000000e+00		0.000000e+00
0.000000e+00		0.000000e+00		0.000000e+00
0.000000e+00		0.000000e+00		0.000000e+00
0.000000e+00		0.000000e+00		0.000000e+00
0.000000e+00		0.000000e+00		0.000000e+00
0.000000e+00		0.000000e+00		0.000000e+00
0.000000e+00		0.000000e+00		0.000000e+00
0.000000e+00		0.000000e+00		0.000000e+00
0.000000e+00		0.000000e+00		0.000000e+00
0.000000e+00		0.000000e+00		0.000000e+00
0.000000e+00		0.000000e+00		0.000000e+00
0.000000e+00		0.000000e+00		0.000000e+00
0.000000e+00		0.000000e+00		0.000000e+00
0.000000e+00		0.000000e+00		0.000000e+00
0.000000e+00		0.000000e+00		0.000000e+00
0.000000e+00		0.000000e+00		0.000000e+00
0.000000e+00		0.000000e+00		0.000000e+00
0.000000e+00		0.000000e+00		0.000000e+00
0.000000e+00		0.000000e+00		0.000000e+00
0.000000e+00		0.000000e+00		0.000000e+00
0.000000e+00		0.000000e+00		0.000000e+00
0.000000e+00		0.000000e+00		0.000000e+00
0.000000e+00		0.000000e+00		0.000000e+00
0.000000e+00		0.000000e+00		0.000000e+00
0.000000e+00		0.000000e+00		0.000000e+00
0.000000e+00		0.000000e+00		0.000000e+00
0.000000e+00		0.000000e+00		0.000000e+00
0.000000e+00		0.000000e+00		0.000000e+00
0.000000e+00		0.000000e+00		0.000000e+00
0.000000e+00		0.000000e+00		0.000000e+00
0.000000e+00		0.000000e+00		0.000000e+00
0.000000e+00		0.000000e+00		0.000000e+00
0.000000e+00		0.000000e+00		0.000000e+00
0.000000e+00		0.000000e+00		0.000000e+00
0.000000e+00		0.000000e+00		0.000000e+00
0.000000e+00		0.000000e+00		0.000000e+00
0.000000e+00		0.000000e+00		0.000000e+00
0.000000e+00		0.000000e+00		0.000000e+00
0.000000e+00		0.000000e+00		0.000000e+00
0.000000e+00		0.000000e+00		0.000000e+00
0.000000e+00		0.000000e+00		0.000000e+00
0.000000e+00		0.000000e+00		0.000000e+00
0.000000e+00		0.000000e+00		0.000000e+00
0.000000e+00		0.000000e+00		0.000000e+00
0.000000e+00		0.000000e+00		0.000000e+00
0.000000e+00		0.000000e+00		0.000000e+00
0.000000e+00		0.000000e+00		0.000000e+00
0.000000e+00		0.000000e+00		0.000000e+00
0.000000e+00		0.000000e+00		0.000000e+00
0.000000e+00		0.000000e+00		0.000000e+00
0.000000e+00		0.000000e+00		0.000000e+00
0.000000e+00		0.000000e+00		0.000000e+00
0.000000e+00		0.000000e+00		0.000000e+00
0.000000e+00		0.000000e+00		0.000000e+00
0.000000e+00		0.000000e+00		0.000000e+00
0.000000e+00		0.000000e+00		0.000000e+00
0.000000e+00		0.000000e+00		0.000000e+00
0.000000e+00		0.000000e+00		0.000000e+00
0.000000e+00		0.000000e+00		0.000000e+00
0.000000e+00		0.000000e+00		0.000000e+00
0.000000e+00		0.000000e+00		0.000000e+00
0.000000e+00		0.000000e+00		0.000000e+00
0.000000e+00		0.000000e+00		0.000000e+00
0.000000e+00		0.000000e+00		0.000000e+00
0.000000e+00		0.000000e+00		0.000000e+00
0.000000e+00		0.000000e+00		0.000000e+00
0.000000e+00		0.000000e+00		0.000000e+00
0.000000e+00		0.000000e+00		0.000000e+00
0.000000e+00		0.000000e+00		0.000000e+00
0.000000e+00		0.000000e+00		0.000000e+00
0.000000e+00		0.000000e+00		0.000000e+00
0.000000e+00		0.000000e+00		0.000000e+00
0.000000e+00		0.000000e+00		0.000000e+00
0.000000e+00		0.000000e+00		0.000000e+00
0.000000e+00		0.000000e+00		0.000000e+00
0.000000e+00		0.000000e+00		0.000000e+00
0.000000e+00		0.000000e+00		0.000000e+00
0.000000e+00		0.000000e+00		0.000000e+00
0.000000e+00		0.000000e+00		0.000000e+00
0.000000e+00		0.000000e+00		0.000000e+00
0.000000e+00		0.000000e+00		0.000000e+00
0.000000e+00		0.000000e+00		0.000000e+00
0.000000e+00		0.000000e+00		0.000000e+00
0.000000e+00		0.000000e+00		0.000000e+00
0.000000e+00		0.000000e+00		0.000000e+00
0.000000e+00		0.000000e+00		0.000000e+00
0.000000e+00		0.000000e+00		0.000000e+00
0.000000e+00		0.000000e+00		0.000000e+00
0.000000e+00		0.000000e+00		0.000000e+00
0.000000e+00		0.000000e+00		0.000000e+00
0.000000e+00		0.000000e+00		0.000000e+00
0.000000e+00		0.000000e+00		0.000000e+00
0.000000e+00		0.000000e+00		0.000000e+00
0.000000e+00		0.000000e+00		0.000000e+00
0.000000e+00		0.000000e+00		0.000000e+00
0.000000e+00		0.000000e+00		0.000000e+00
0.000000e+00		0.000000e+00		0.000000e+00
0.000000e+00		0.000000e+00		0.000000e+00
0.000000e+00		0.000000e+00		0.000000e+00
0.000000e+00		0.000000e+00		0.000000e+00
0.000000e+00		0.000000e+00		0.000000e+00
0.000000e+00		0.000000e+00		0.000000e+00
0.000000e+00		0.000000e+00		0.000000e+00
0.000000e+00		0.000000e+00		0.000000e+00
0.000000e+00		0.000000e+00		0.000000e+00
0.000000e+00		0.000000e+00		0.000000e+00
0.000000e+00		0.000000e+00		0.000000e+00
0.000000e+00		0.000000e+00		0.000000e+00
0.000000e+00		0.000000e+00		0.000000e+00
0.000000e+00		0.000000e+00		0.000000e+00
0.000000e+00		0.000000e+00		0.000000e+00
0.000000e+00		0.000000e+00		0.000000e+00
0.000000e+00		0.000000e+00		0.000000e+00
0.000000e+00		0.000000e+00		0.000000e+00
0.000000e+00		0.000000e+00		0.000000e+00
0.000000e+00		0.000000e+00		0.000000e+00
0.000000e+00		0.000000e+00		0.000000e+00
0.000000e+00		0.000000e+00		0.000000e+00
0.000000e+00		0.000000e+00		0.000000e+00
0.000000e+00		0.000000e+00		0.000000e+00
0.000000e+00		0.000000e+00		0.000000e+00
0.000000e+00		0.000000e+00		0.000000e+00
0.000000e+00		0.000000e+00		0.000000e+00
0.000000e+00		0.000000e+00		0.000000e+00
0.000000e+00		0.000000e+00		0.000000e+00
0.000000e+00		0.000000e+00		0.000000e+00
0.000000e+00		0.000000e+00		0.000000e+00
0.000000e+00		0.000000e+00		0.000000e+00
0.000000e+00		0.000000e+00		0.000000e+00
0.000000e+00		0.000000e+00		0.000000e+00
0.000000e+00		0.000000e+00		0.000000e+00
0.000000e+00		0.000000e+00		0.000000e+00
0.000000e+00		0.000000e+00		0.000000e+00
0.000000e+00		0.000000e+00		0.000000e+00
0.000000e+00		0.000000e+00		0.000000e+00
0.000000e+00		0.000000e+00		0.000000e+00
0.000000e+00		0.000000e+00		0.000000e+00
0.000000e+00		0.000000e+00		0.000000e+00
0.000000e+00		0.000000e+00		0.000000e+00
0.000000e+00		0.000000e+00		0.000000e+00
0.000000e+00		0.000000e+00		0.000000e+00
0.000000e+00		0.000000e+00		0.000000e+00
0.000000e+00		0.000000e+00		0.000000e+00
0.000000e+00		0.000000e+00		0.000000e+00
0.000000e+00		0.000000e+00		0.000000e+00
0.000000e+00		0.000000e+00		0.000000e+00
0.000000e+00		0.000000e+00		0.000000e+00
0.000000e+00		0.000000e+00		0.000000e+00
0.000000e+00		0.000000e+00		0.000000e+00
0.000000e+00		0.000000e+00		0.000000e+00
0.000000e+00		0.000000e+00		0.000000e+00
0.000000e+00		0.000000e+00		0.000000e+00
0.000000e+00		0.000000e+00		0.000000e+00
0.000000e+00		0.000000e+00		0.000000e+00
0.000000e+00		0.000000e+00		0.000000e+00
0.000000e+00		0.000000e+00		0.000000e+00
0.000000e+00		0.000000e+00		0.000000e+00
0.000000e+00		0.000000e+00		0.000000e+00
0.000000e+00		0.000000e+00		0.000000e+00
0.000000e+00		0.000000e+00		0.000000e+00
0.000000e+00		0.000000e+00		0.000000e+00
0.000000e+00		0.000000e+00		0.000000e+00
0.000000e+00		0.000000e+00		0.000000e+00
0.000000e+00		0.000000e+00		0.000000e+00
0.000000e+00		0.000000e+00		0.000000e+00
0.000000e+00		0.000000e+00		0.000000e+00
0.000000e+00		0.000000e+00		0.000000e+00
0.000000e+00		0.000000e+00		0.000000e+00
0.000000e+00		0.000000e+00		0.000000e+00
0.000000e+00		0.000000e+00		0.000000e+00
0.000000e+00		0.000000e+00		0.000000e+00
0.000000e+00		0.000000e+00		0.000000e+00
0.000000e+00		0.000000e+00		0.000000e+00
0.000000e+00		0.000000e+00		0.000000e+00
0.000000e+00		0.000000e+00		0.000000e+00
0.000000e+00		0.000000e+00		0.000000e+00
0.000000e+00		0.000000e+00		0.000000e+00
0.000000e+00		0.000000e+00		0.000000e+00
0.000000e+00		0.000000e+00		0.000000e+00
0.000000e+00		0.000000e+00		0.000000e+00
0.000000e+00		0.000000e+00		0.000000e+00
0.000000e+00		0.000000e+00		0.000000e+00
0.000000e+00		0.000000e+00		0.000000e+00
0.000000e+00		0.000000e+00		0.000000e+00
0.000000e+00		0.000000e+00		0.000000e+00
0.000000e+00		0.000000e+00		0.000000e+00
0.000000e+00		0.000000e+00		0.000000e+00
0.000000e+00		0.000000e+00		0.000000e+00
0.000000e+00		0.000000e+00		0.000000e+00
0.000000e+00		0.000000e+00		0.000000e+00
0.000000e+00		0.000000e+00		0.000000e+00
0.000000e+00		0.000000e+00		0.000000e+00
0.000000e+00		0.000000e+00		0.000000e+00
0.000000e+00		0.000000e+00		0.000000e+00
0.000000e+00		0.000000e+00		0.000000e+00
0.000000e+00		0.000000e+00		0.000000e+00
0.000000e+00		0.000000e+00		0.000000e+00
0.000000e+00		0.000000e+00		0.000000e+00
0.000000e+00		0.000000e+00		0.000000e+00
0.000000e+00		0.000000e+00		0.000000e+00
0.000000e+00		0.000000e+00		0.000000e+00
0.000000e+00		0.000000e+00		0.000000e+00
0.000000e+00		0.000000e+00		0.000000e+00
0.000000e+00		0.000000e+00		0.000000e+00
0.000000e+00		0.000000e+00		0.000000e+00
0.000000e+00		0.000000e+00		0.000000e+00
0.000000e+00		0.000000e+00		0.000000e+00
0.000000e+00		0.000000e+00		0.000000e+00
0.000000e+00		0.000000e+00		0.000000e+00
0.000000e+00		0.000000e+00		0.000000e+00
0.000000e+00		0.000000e+00		0.000000e+00
0.000000e+00		0.000000e+00		0.000000e+00
0.000000e+00		0.000000e+00		0.000000e+00
0.000000e+00		0.000000e+00		0.000000e+00
0.000000e+00		0.000000e+00		0.000000e+00
0.000000e+00		0.000000e+00		0.000000e+00
0.000000e+00		0.000000e+00		0.000000e+00
0.000000e+00		0.000000e+00		0.000000e+00
0.000000e+00		0.000000e+00		0.000000e+00
0.000000e+00		0.000000e+00		0.000000e+00
0.000000e+00		0.000000e+00		0.000000e+00
0.000000e+00		0.000000e+00		0.000000e+00
0.000000e+00		0.000000e+00		0.000000e+00
0.000000e+00		0.000000e+00		0.000000e+00
0.000000e+00		0.000000e+00		0.000000e+00
0.000000e+00		0.000000e+00		0.000000e+00
0.000000e+00		0.000000e+00		0.000000e+00
0.000000e+00		0.000000e+00		0.000000e+00
0.000000e+00		0.000000e+00		0.000000e+00
0.000000e+00		0.000000e+00		0.000000e+00
0.000000e+00		0.000000e+00		0.000000e+00
0.000000e+00		0.000000e+00		0.000000e+00
0.000000e+00		0.000000e+00		0.000000e+00
0.000000e+00		0.000000e+00		0.000000e+00
0.000000e+00		0.000000e+00		0.000000e+00
0.000000e+00		0.000000e+00		0.000000e+00
0.000000e+00		0.000000e+00		0.000000e+00
0.000000e+00		0.000000e+00		0.000000e+00
0.000000e+00		0.000000e+00		0.000000e+00
0.000000e+00		0.000000e+00		0.000000e+00
0.000000e+00		0.000000e+00		0.000000e+00
0.000000e+00		0.000000e+00		0.000000e+00
0.000000e+00		0.000000e+00		0.000000e+00
0.000000e+00		0.000000e+00		0.000000e+00
0.000000e+00		0.000000e+00		0.000000e+00
0.000000e+00		0.000000e+00		0.000000e+00
0.000000e+00		0.000000e+00		0.000000e+00
0.000000e+00		0.000000e+00		0.000000e+00
0.000000e+00		0.000000e+00		0.000000e+00
0.000000e+00		0.000000e+00		0.000000e+00
0.000000e+00		0.000000e+00		0.000000e+00
0.000000e+00		0.000000e+00		0.000000e+00
0.000000e+00		0.000000e+00		0.000000e+00
0.000000e+00		0.000000e+00		0.000000e+00
0.000000e+00		0.000000e+00		0.000000e+00
0.000000e+00		0.000000e+00		0.000000e+00
0.000000e+00		0.000000e+00		0.000000e+00
0.000000e+00		0.000000e+00		0.000000e+00
0.000000e+00		0.000000e+00		0.000000e+00
0.000000e+00		0.000000e+00		0.000000e+00
0.000000e+00		0.000000e+00		0.000000e+00
0.000000e+00		0.000000e+00		0.000000e+00
0.000000e+00		0.000000e+00		0.000000e+00
0.000000e+00		0.000000e+00		0.000000e+00
0.000000e+00		0.000000e+00		0.000000e+00
0.000000e+00		0.000000e+00		0.000000e+00
0.000000e+00		0.000000e+00		0.000000e+00
0.000000e+00		0.000000e+00		0.000000e+00
0.000000e+00		0.000000e+00		0.000000e+00
0.000000e+00		0.000000e+00		0.000000e+00
0.000000e+00		0.000000e+00		0.000000e+00
0.000000e+00		0.000000e+00		0.000000e+00
0.000000e+00		0.000000e+00		0.000000e+00
0.000000e+00		0.000000e+00		0.000000e+00
0.000000e+00		0.000000e+00		0.000000e+00
0.000000e+00		0.000000e+00		0.000000e+00
0.000000e+00		0.000000e+00		0.000000e+00
0.000000e+00		0.000000e+00		0.000000e+00
0.000000e+00		0.000000e+00		0.000000e+00
0.000000e+00		0.000000e+00		0.000000e+00
0.000000e+00		0.000000e+00		0.000000e+00
0.000000e+00		0.000000e+00		0.000000e+00
0.000000e+00		0.000000e+00		0.000000e+00
0.000000e+00		0.000000e+00		0.000000e+00
0.000000e+00		0.000000e+00		0.000000e+00
0.000000e+00		0.000000e+00		0.000000e+00
0.000000e+00		0.000000e+00		0.000000e+00
0.000000e+00		0.000000e+00		0.000000e+00
0.000000e+00		0.000000e+00		0.000000e+00
0.000000e+00		0.000000e+00		0.000000e+00
0.000000e+00		0.000000e+00		0.000000e+00
0.000000e+00		0.000000e+00		0.000000e+00
0.000000e+00		0.000000e+00		0.000000e+00
0.000000e+00		0.000000e+00		0.000000e+00
0.000000e+00		0.000000e+00		0.000000e+00
0.000000e+00		0.000000e+00		0.000000e+00
0.000000e+00		0.000000e+00		0.000000e+00
0.000000e+00		0.000000e+00		0.000000e+00
0.000000e+00		0.000000e+00		0.000000e+00
0.000000e+00		0.000000e+00		0.000000e+00
0.000000e+00		0.000000e+00		0.000000e+00
0.000000e+00		0.000000e+00		0.000000e+00
0.000000e+00		0.000000e+00		0.000000e+00
0.000000e+00		0.000000e+00		0.000000e+00
0.000000e+00		0.000000e+00		0.000000e+00
0.000000e+00		0.000000e+00		0.000000e+00
0.000000e+00		0.000000e+00		0.000000e+00
0.000000e+00		0.000000e+00		0.000000e+00
0.000000e+00		0.000000e+00		0.000000e+00
0.000000e+00		0.000000e+00		0.000000e+00
0.000000e+00		0.000000e+00		0.000000e+00
0.000000e+00		0.000000e+00		0.000000e+00
0.000000e+00		0.000000e+00		0.000000e+00
0.000000e+00		0.000000e+00		0.000000e+00
0.000000e+00		0.000000e+00		0.000000e+00
0.000000e+00		0.000000e+00		0.000000e+00
0.000000e+00		0.000000e+00		0.000000e+00
0.000000e+00		0.000000e+00		0.000000e+00
0.000000e+00		0.000000e+00		0.000000e+00
0.000000e+00		0.000000e+00		0.000000e+00
0.000000e+00		0.000000e+00		0.000000e+00
0.000000e+00		0.000000e+00		0.000000e+00
0.000000e+00		0.000000e+00		0.000000e+00
0.000000e+00		0.000000e+00		0.000000e+00
0.000000e+00		0.000000e+00		0.000000e+00
0.000000e+00		0.000000e+00		0.000000e+00
0.000000e+00		0.000000e+00		0.000000e+00
0.000000e+00		0.000000e+00		0.000000e+00
0.000000e+00		0.000000e+00		0.000000e+00
0.000000e+00		0.000000e+00		0.000000e+00
0.000000e+00		0.000000e+00		0.000000e+00
0.000000e+00		0.000000e+00		0.000000e+00
0.000000e+00		0.000000e+00		0.000000e+00
0.000000e+00		0.000000e+00		0.000000e+00
0.000000e+00		0.000000e+00		0.000000e+00
0.000000e+00		0.000000e+00		0.000000e+00
0.000000e+00		0.000000e+00		0.000000e+00
0.000000e+00		0.000000e+00		0.000000e+00
0.000000e+00		0.000000e+00		0.000000e+00
0.000000e+00		0.000000e+00		0.000000e+00
0.000000e+00		0.000000e+00		0.000000e+00
0.000000e+00		0.000000e+00		0.000000e+00
0.000000e+00		0.000000e+00		0.000000e+00
0.000000e+00		0.000000e+00		0.000000e+00
0.000000e+00		0.000000e+00		0.000000e+00
0.000000e+00		0.000000e+00		0.000000e+00
0.000000e+00		0.000000e+00		0.000000e+00
0.000000e+00		0.000000e+00		0.000000e+00
0.000000e+00		0.000000e+00		0.000000e+00
0.000000e+00		0.000000e+00		0.000000e+00
0.000000e+00		0.000000e+00		0.000000e+00
0.000000e+00		0.000000e+00		0.000000e+00
0.000000e+00		0.000000e+00		0.000000e+00
0.000000e+00		0.000000e+00		0.000000e+00
0.000000e+00		0.000000e+00		0.000000e+00
0.000000e+00		0.000000e+00		0.000000e+00
0.000000e+00		0.000000e+00		0.000000e+00
0.000000e+00		0.000000e+00		0.000000e+00
0.000000e+00		0.000000e+00		0.000000e+00
0.000000e+00		0.000000e+00		0.000000e+00
0.000000e+00		0.000000e+00		0.000000e+00
0.000000e+00		0.000000e+00		0.000000e+00
0.000000e+00		0.000000e+00		0.000000e+00
0.000000e+00		0.000000e+00		0.000000e+00
0.000000e+00		0.000000e+00		0.000000e+00
0.000000e+00		0.000000e+00		0.000000e+00
0.000000e+00		0.000000e+00		0.000000e+00
0.000000e+00		0.000000e+00		0.000000e+00
0.000000e+00		0.000000e+00		0.000000e+00
0.000000e+00		0.000000e+00		0.000000e+00
0.000000e+00		0.000000e+00		0.000000e+00
0.000000e+00		0.000000e+00		0.000000e+00
0.000000e+00		0.000000e+00		0.000000e+00
0.000000e+00		0.000000e+00		0.000000e+00
0.000000e+00		0.000000e+00		0.000000e+00
0.000000e+00		0.000000e+00		0.000000e+00
0.000000e+00		0.000000e+00		0.000000e+00
0.000000e+00		0.000000e+00		0.000000e+00
0.000000e+00		0.000000e+00		0.000000e+00
0.000000e+00		0.000000e+00		0.000000e+00
0.000000e+00		0.000000e+00		0.000000e+00
0.000000e+00		0.000000e+00		0.000000e+00
0.000000e+00		0.000000e+00		0.000000e+00
0.000000e+00		0.000000e+00		0.000000e+00
0.000000e+00		0.000000e+00		0.000000e+00
0.000000e+00		0.000000e+00		0.000000e+00
0.000000e+00		0.000000e+00		0.000000e+00
0.000000e+00		0.000000e+00		0.000000e+00
0.000000e+00		0.000000e+00		0.000000e+00
0.000000e+00		0.000000e+00		0.000000e+00
0.000000e+00		0.000000e+00		0.000000e+00
0.000000e+00		0.000000e+00		0.000000e+00
0.000000e+00		0.000000e+00		0.000000e+00
0.000000e+00		0.000000e+00		0.000000e+00
0.000000e+00		0.000000e+00		0.000000e+00
0.000000e+00		0.000000e+00		0.000000e+00
0.000000e+00		0.000000e+00		0.000000e+00
0.000000e+00		0.000000e+00		0.000000e+00
0.000000e+00		0.000000e+00		0.000000e+00
0.000000e+00		0.000000e+00		0.000000e+00
0.000000e+00		0.000000e+00		0.000000e+00
0.000000e+00		0.000000e+00		0.000000e+00
0.000000e+00		0.000000e+00		0.000000e+00
0.000000e+00		0.000000e+00		0.000000e+00
0.000000e+00		0.000000e+00		0.000000e+00
0.000000e+00		0.000000e+00		0.000000e+00
0.000000e+00		0.000000e+00		0.000000e+00
0.000000e+00		0.000000e+00		0.000000e+00
0.000000e+00		0.000000e+00		0.000000e+00
0.000000e+00		0.000000e+00		0.000000e+00
0.000000e+00		0.000000e+00		0.000000e+00
0.000000e+00		0.000000e+00		0.000000e+00
0.000000e+00		0.000000e+00		0.000000e+00
0.000000e+00		0.000000e+00		0.000000e+00
0.000000e+00		0.000000e+00		0.000000e+00
0.000000e+00		0.000000e+00		0.000000e+00
0.000000e+00		0.000000e+00		0.000000e+00
0.000000e+00		0.000000e+00		0.000000e+00
0.000000e+00		0.000000e+00		0.000000e+00
0.000000e+00		0.000000e+00		0.000000e+00
0.000000e+00		0.000000e+00		0.000000e+00
VECTORS acceleration double
0.000000e+00		0.000000e+00		0.000000e+00
0.000000e+00		0.000000e+00		0.000000e+00
0.000000e+00		0.000000e+00		0.000000e+00
0.000000e+00		0.000000e+00		0.000000e+00
0.000000e+00		0.000000e+00		0.000000e+00
0.000000e+00		0.000000e+00		0.000000e+00
0.000000e+00		0.000000e+00		0.000000e+00
0.000000e+00		0.000000e+00		0.000000e+00
0.000000e+00		0.000000e+00		0.000000e+00
0.000000e+00		0.000000e+00		0.000000e+00
0.000000e+00		0.000000e+00		0.000000e+00
0.000000e+00		0.000000e+00		0.000000e+00
0.000000e+00		0.000000e+00		0.000000e+00
0.000000e+00		0.000000e+00		0.000000e+00
0.000000e+00		0.000000e+00		0.000000e+00
0.000000e+00		0.000000e+00		0.000000e+00
0.000000e+00		0.000000e+00		0.000000e+00
0.000000e+00		0.000000e+00		0.000000e+00
0.000000e+00		0.000000e+00		0.000000e+00
0.000000e+00		0.000000e+00		0.000000e+00
0.000000e+00		0.000000e+00		0.000000e+00
0.000000e+00		0.000000e+00		0.000000e+00
0.000000e+00		0.000000e+00		0.000000e+00
0.000000e+00		0.000000e+00		0.000000e+00
0.000000e+00		0.000000e+00		0.000000e+00
0.000000e+00		0.000000e+00		0.000000e+00
0.000000e+00		0.000000e+00		0.000000e+00
0.000000e+00		0.000000e+00		0.000000e+00
0.000000e+00		0.000000e+00		0.000000e+00
0.000000e+00		0.000000e+00		0.000000e+00
0.000000e+00		0.000000e+00		0.000000e+00
0.000000e+00		0.000000e+00		0.000000e+00
0.000000e+00		0.000000e+00		0.000000e+00
0.000000e+00		0.000000e+00		0.000000e+00
0.000000e+00		0.000000e+00		0.000000e+00
0.000000e+00		0.000000e+00		0.000000e+00
0.000000e+00		0.000000e+00		0.000000e+00
0.000000e+00		0.000000e+00		0.000000e+00
0.000000e+00		0.000000e+00		0.000000e+00
0.000000e+00		0.000000e+00		0.000000e+00
0.000000e+00		0.000000e+00		0.000000e+00
0.000000e+00		0.000000e+00		0.000000e+00
0.000000e+00		0.000000e+00		0.000000e+00
0.000000e+00		0.000000e+00		0.000000e+00
0.000000e+00		0.000000e+00		0.000000e+00
0.000000e+00		0.000000e+00		0.000000e+00
0.000000e+00		0.000000e+00		0.000000e+00
0.000000e+00		0.000000e+00		0.000000e+00
0.000000e+00		0.000000e+00		0.000000e+00
0.000000e+00		0.000000e+00		0.000000e+00
0.000000e+00		0.000000e+00		0.000000e+00
0.000000e+00		0.000000e+00		0.000000e+00
0.000000e+00		0.000000e+00		0.000000e+00
0.000000e+00		0.000000e+00		0.000000e+00
0.000000e+00		0.000000e+00		0.000000e+00
0.000000e+00		0.000000e+00		0.000000e+00
0.000000e+00		0.000000e+00		0.000000e+00
0.000000e+00		0.000000e+00		0.000000e+00
0.000000e+00		0.000000e+00		0.000000e+00
0.000000e+00		0.000000e+00		0.000000e+00
0.000000e+00		0.000000e+00		0.000000e+00
0.000000e+00		0.000000e+00		0.000000e+00
0.000000e+00		0.000000e+00		0.000000e+00
0.000000e+00		0.000000e+00		0.000000e+00
0.000000e+00		0.000000e+00		0.000000e+00
0.000000e+00		0.000000e+00		0.000000e+00
0.000000e+00		0.000000e+00		0.000000e+00
0.000000e+00		0.000000e+00		0.000000e+00
0.000000e+00		0.000000e+00		0.000000e+00
0.000000e+00		0.000000e+00		0.000000e+00
0.000000e+00		0.000000e+00		0.000000e+00
0.000000e+00		0.000000e+00		0.000000e+00
0.000000e+00		0.000000e+00		0.000000e+00
0.000000e+00		0.000000e+00		0.000000e+00
0.000000e+00		0.000000e+00		0.000000e+00
0.000000e+00		0.000000e+00		0.000000e+00
0.000000e+00		0.000000e+00		0.000000e+00
0.000000e+00		0.000000e+00		0.000000e+00
0.000000e+00		0.000000e+00		0.000000e+00
0.000000e+00		0.000000e+00		0.000000e+00
0.000000e+00		0.000000e+00		0.000000e+00
0.000000e+00		0.000000e+00		0.000000e+00
0.000000e+00		0.000000e+00		0.000000e+00
0.000000e+00		0.000000e+00		0.000000e+00
0.000000e+00		0.000000e+00		0.000000e+00
0.000000e+00		0.000000e+00		0.000000e+00
0.000000e+00		0.000000e+00		0.000000e+00
0.000000e+00		0.000000e+00		0.000000e+00
0.000000e+00		0.000000e+00		0.000000e+00
0.000000e+00		0.000000e+00		0.000000e+00
0.000000e+00		0.000000e+00		0.000000e+00
0.000000e+00		0.000000e+00		0.000000e+00
0.000000e+00		0.000000e+00		0.000000e+00
0.000000e+00		0.000000e+00		0.000000e+00
0.000000e+00		0.000000e+00		0.000000e+00
0.000000e+00		0.000000e+00		0.000000e+00
0.000000e+00		0.000000e+00		0.000000e+00
0.000000e+00		0.000000e+00		0.000000e+00
0.000000e+00		0.000000e+00		0.000000e+00
0.000000e+00		0.000000e+00		0.000000e+00
0.000000e+00		0.000000e+00		0.000000e+00
0.000000e+00		0.000000e+00		0.000000e+00
0.000000e+00		0.000000e+00		0.000000e+00
0.000000e+00		0.000000e+00		0.000000e+00
0.000000e+00		0.000000e+00		0.000000e+00
0.000000e+00		0.000000e+00		0.000000e+00
0.000000e+00		0.000000e+00		0.000000e+00
0.000000e+00		0.000000e+00		0.000000e+00
0.000000e+00		0.000000e+00		0.000000e+00
0.000000e+00		0.000000e+00		0.000000e+00
0.000000e+00		0.000000e+00		0.000000e+00
0.000000e+00		0.000000e+00		0.000000e+00
0.000000e+00		0.000000e+00		0.000000e+00
0.000000e+00		0.000000e+00		0.000000e+00
0.000000e+00		0.000000e+00		0.000000e+00
0.000000e+00		0.000000e+00		0.000000e+00
0.000000e+00		0.000000e+00		0.000000e+00
0.000000e+00		0.000000e+00		0.000000e+00
0.000000e+00		0.000000e+00		0.000000e+00
0.000000e+00		0.000000e+00		0.000000e+00
0.000000e+00		0.000000e+00		0.000000e+00
0.000000e+00		0.000000e+00		0.000000e+00
0.000000e+00		0.000000e+00		0.000000e+00
0.000000e+00		0.000000e+00		0.000000e+00
0.000000e+00		0.000000e+00		0.000000e+00
0.000000e+00		0.000000e+00		0.000000e+00
0.000000e+00		0.000000e+00		0.000000e+00
0.000000e+00		0.000000e+00		0.000000e+00
0.000000e+00		0.000000e+00		0.000000e+00
0.000000e+00		0.000000e+00		0.000000e+00
0.000000e+00		0.000000e+00		0.000000e+00
0.000000e+00		0.000000e+00		0.000000e+00
0.000000e+00		0.000000e+00		0.000000e+00
0.000000e+00		0.000000e+00		0.000000e+00
0.000000e+00		0.000000e+00		0.000000e+00
0.000000e+00		0.000000e+00		0.000000e+00
0.000000e+00		0.000000e+00		0.000000e+00
0.000000e+00		0.000000e+00		0.000000e+00
0.000000e+00		0.000000e+00		0.000000e+00
0.000000e+00		0.000000e+00		0.000000e+00
0.000000e+00		0.000000e+00		0.000000e+00
0.000000e+00		0.000000e+00		0.000000e+00
0.000000e+00		0.000000e+00		0.000000e+00
0.000000e+00		0.000000e+00		0.000000e+00
0.000000e+00		0.000000e+00		0.000000e+00
0.000000e+00		0.000000e+00		0.000000e+00
0.000000e+00		0.000000e+00		0.000000e+00
0.000000e+00		0.000000e+00		0.000000e+00
0.000000e+00		0.000000e+00		0.000000e+00
0.000000e+00		0.000000e+00		0.000000e+00
0.000000e+00		0.000000e+00		0.000000e+00
0.000000e+00		0.000000e+00		0.000000e+00
0.000000e+00		0.000000e+00		0.000000e+00
0.000000e+00		0.000000e+00		0.000000e+00
0.000000e+00		0.000000e+00		0.000000e+00
0.000000e+00		0.000000e+00		0.000000e+00
0.000000e+00		0.000000e+00		0.000000e+00
0.000000e+00		0.000000e+00		0.000000e+00
0.000000e+00		0.000000e+00		0.000000e+00
0.000000e+00		0.000000e+00		0.000000e+00
0.000000e+00		0.000000e+00		0.000000e+00
0.000000e+00		0.000000e+00		0.000000e+00
0.000000e+00		0.000000e+00		0.000000e+00
0.000000e+00		0.000000e+00		0.000000e+00
0.000000e+00		0.000000e+00		0.000000e+00
0.000000e+00		0.000000e+00		0.000000e+00
0.000000e+00		0.000000e+00		0.000000e+00
0.000000e+00		0.000000e+00		0.000000e+00
0.000000e+00		0.000000e+00		0.000000e+00
0.000000e+00		0.000000e+00		0.000000e+00
0.000000e+00		0.000000e+00		0.000000e+00
0.000000e+00		0.000000e+00		0.000000e+00
0.000000e+00		0.000000e+00		0.000000e+00
0.000000e+00		0.000000e+00		0.000000e+00
0.000000e+00		0.000000e+00		0.000000e+00
0.000000e+00		0.000000e+00		0.000000e+00
0.000000e+00		0.000000e+00		0.000000e+00
0.000000e+00		0.000000e+00		0.000000e+00
0.000000e+00		0.000000e+00		0.000000e+00
0.000000e+00		0.000000e+00		0.000000e+00
0.000000e+00		0.000000e+00		0.000000e+00
0.000000e+00		0.000000e+00		0.000000e+00
0.000000e+00		0.000000e+00		0.000000e+00
0.000000e+00		0.000000e+00		0.000000e+00
0.000000e+00		0.000000e+00		0.000000e+00
0.000000e+00		0.000000e+00		0.000000e+00
0.000000e+00		0.000000e+00		0.000000e+00
0.000000e+00		0.000000e+00		0.000000e+00
0.000000e+00		0.000000e+00		0.000000e+00
0.000000e+00		0.000000e+00		0.000000e+00
0.000000e+00		0.000000e+00		0.000000e+00
0.000000e+00		0.000000e+00		0.000000e+00
0.000000e+00		0.000000e+00		0.000000e+00
0.000000e+00		0.000000e+00		0.000000e+00
0.000000e+00		0.000000e+00		0.000000e+00
0.000000e+00		0.000000e+00		0.000000e+00
0.000000e+00		0.000000e+00		0.000000e+00
0.000000e+00		0.000000e+00		0.000000e+00
0.000000e+00		0.000000e+00		0.000000e+00
0.000000e+00		0.000000e+00		0.000000e+00
0.000000e+00		0.000000e+00		0.000000e+00
0.000000e+00		0.000000e+00		0.000000e+00
0.000000e+00		0.000000e+00		0.000000e+00
0.000000e+00		0.000000e+00		0.000000e+00
0.000000e+00		0.000000e+00		0.000000e+00
0.000000e+00		0.000000e+00		0.000000e+00
0.000000e+00		0.000000e+00		0.000000e+00
0.000000e+00		0.000000e+00		0.000000e+00
0.000000e+00		0.000000e+00		0.000000e+00
0.000000e+00		0.000000e+00		0.000000e+00
0.000000e+00		0.000000e+00		0.000000e+00
0.000000e+00		0.000000e+00		0.000000e+00
0.000000e+00		0.000000e+00		0.000000e+00
0.000000e+00		0.000000e+00		0.000000e+00
0.000000e+00		0.000000e+00		0.000000e+00
0.000000e+00		0.000000e+00		0.000000e+00
0.000000e+00		0.000000e+00		0.000000e+00
0.000000e+00		0.000000e+00		0.000000e+00
0.000000e+00		0.000000e+00		0.000000e+00
0.000000e+00		0.000000e+00		0.000000e+00
0.000000e+00		0.000000e+00		0.000000e+00
0.000000e+00		0.000000e+00		0.000000e+00
0.000000e+00		0.000000e+00		0.000000e+00
0.000000e+00		0.000000e+00		0.000000e+00
0.000000e+00		0.000000e+00		0.000000e+00
0.000000e+00		0.000000e+00		0.000000e+00
0.000000e+00		0.000000e+00		0.000000e+00
0.000000e+00		0.000000e+00		0.000000e+00
0.000000e+00		0.000000e+00		0.000000e+00
0.000000e+00		0.000000e+00		0.000000e+00
0.000000e+00		0.000000e+00		0.000000e+00
0.000000e+00		0.000000e+00		0.000000e+00
0.000000e+00		0.000000e+00		0.000000e+00
0.000000e+00		0.000000e+00		0.000000e+00
0.000000e+00		0.000000e+00		0.000000e+00
0.000000e+00		0.000000e+00		0.000000e+00
0.000000e+00		0.000000e+00		0.000000e+00
0.000000e+00		0.000000e+00		0.000000e+00
0.000000e+00		0.000000e+00		0.000000e+00
0.000000e+00		0.000000e+00		0.000000e+00
0.000000e+00		0.000000e+00		0.000000e+00
0.000000e+00		0.000000e+00		0.000000e+00
0.000000e+00		0.000000e+00		0.000000e+00
0.000000e+00		0.000000e+00		0.000000e+00
0.000000e+00		0.000000e+00		0.000000e+00
0.000000e+00		0.000000e+00		0.000000e+00
0.000000e+00		0.000000e+00		0.000000e+00
0.000000e+00		0.000000e+00		0.000000e+00
0.000000e+00		0.000000e+00		0.000000e+00
0.000000e+00		0.000000e+00		0.000000e+00
0.000000e+00		0.000000e+00		0.000000e+00
0.000000e+00		0.000000e+00		0.000000e+00
0.000000e+00		0.000000e+00		0.000000e+00
0.000000e+00		0.000000e+00		0.000000e+00
0.000000e+00		0.000000e+00		0.000000e+00
0.000000e+00		0.000000e+00		0.000000e+00
0.000000e+00		0.000000e+00		0.000000e+00
0.000000e+00		0.000000e+00		0.000000e+00
0.000000e+00		0.000000e+00		0.000000e+00
0.000000e+00		0.000000e+00		0.000000e+00
0.000000e+00		0.000000e+00		0.000000e+00
0.000000e+00		0.000000e+00		0.000000e+00
0.000000e+00		0.000000e+00		0.000000e+00
0.000000e+00		0.000000e+00		0.000000e+00
0.000000e+00		0.000000e+00		0.000000e+00
0.000000e+00		0.000000e+00		0.000000e+00
0.000000e+00		0.000000e+00		0.000000e+00
0.000000e+00		0.000000e+00		0.000000e+00
0.000000e+00		0.000000e+00		0.000000e+00
0.000000e+00		0.000000e+00		0.000000e+00
0.000000e+00		0.000000e+00		0.000000e+00
0.000000e+00		0.000000e+00		0.000000e+00
0.000000e+00		0.000000e+00		0.000000e+00
0.000000e+00		0.000000e+00		0.000000e+00
0.000000e+00		0.000000e+00		0.000000e+00
0.000000e+00		0.000000e+00		0.000000e+00
0.000000e+00		0.000000e+00		0.000000e+00
0.000000e+00		0.000000e+00		0.000000e+00
0.000000e+00		0.000000e+00		0.000000e+00
0.000000e+00		0.000000e+00		0.000000e+00
0.000000e+00		0.000000e+00		0.000000e+00
0.000000e+00		0.000000e+00		0.000000e+00
0.000000e+00		0.000000e+00		0.000000e+00
0.000000e+00		0.000000e+00		0.000000e+00
0.000000e+00		0.000000e+00		0.000000e+00
0.000000e+00		0.000000e+00		0.000000e+00
0.000000e+00		0.000000e+00		0.000000e+00
0.000000e+00		0.000000e+00		0.000000e+00
0.000000e+00		0.000000e+00		0.000000e+00
0.000000e+00		0.000000e+00		0.000000e+00
0.000000e+00		0.000000e+00		0.000000e+00
0.000000e+00		0.000000e+00		0.000000e+00
0.000000e+00		0.000000e+00		0.000000e+00
0.000000e+00		0.000000e+00		0.000000e+00
0.000000e+00		0.000000e+00		0.000000e+00
0.000000e+00		0.000000e+00		0.000000e+00
0.000000e+00		0.000000e+00		0.000000e+00
0.000000e+00		0.000000e+00		0.000000e+00
0.000000e+00		0.000000e+00		0.000000e+00
0.000000e+00		0.000000e+00		0.000000e+00
0.000000e+00		0.000000e+00		0.000000e+00
0.000000e+00		0.000000e+00		0.000000e+00
0.000000e+00		0.000000e+00		0.000000e+00
0.000000e+00		0.000000e+00		0.000000e+00
0.000000e+00		0.000000e+00		0.000000e+00
0.000000e+00		0.000000e+00		0.000000e+00
0.000000e+00		0.000000e+00		0.000000e+00
0.000000e+00		0.000000e+00		0.000000e+00
0.000000e+00		0.000000e+00		0.000000e+00
0.000000e+00		0.000000e+00		0.000000e+00
0.000000e+00		0.000000e+00		0.000000e+00
0.000000e+00		0.000000e+00		0.000000e+00
0.000000e+00		0.000000e+00		0.000000e+00
0.000000e+00		0.000000e+00		0.000000e+00
0.000000e+00		0.000000e+00		0.000000e+00
0.000000e+00		0.000000e+00		0.000000e+00
0.000000e+00		0.000000e+00		0.000000e+00
0.000000e+00		0.000000e+00		0.000000e+00
0.000000e+00		0.000000e+00		0.000000e+00
0.000000e+00		0.000000e+00		0.000000e+00
0.000000e+00		0.000000e+00		0.000000e+00
0.000000e+00		0.000000e+00		0.000000e+00
0.000000e+00		0.000000e+00		0.000000e+00
0.000000e+00		0.000000e+00		0.000000e+00
0.000000e+00		0.000000e+00		0.000000e+00
0.000000e+00		0.000000e+00		0.000000e+00
0.000000e+00		0.000000e+00		0.000000e+00
0.000000e+00		0.000000e+00		0.000000e+00
0.000000e+00		0.000000e+00		0.000000e+00
0.000000e+00		0.000000e+00		0.000000e+00
0.000000e+00		0.000000e+00		0.000000e+00
0.000000e+00		0.000000e+00		0.000000e+00
0.000000e+00		0.000000e+00		0.000000e+00
0.000000e+00		0.000000e+00		0.000000e+00
0.000000e+00		0.000000e+00		0.000000e+00
0.000000e+00		0.000000e+00		0.000000e+00
0.000000e+00		0.000000e+00		0.000000e+00
0.000000e+00		0.000000e+00		0.000000e+00
0.000000e+00		0.000000e+00		0.000000e+00
0.000000e+00		0.000000e+00		0.000000e+00
0.000000e+00		0.000000e+00		0.000000e+00
0.000000e+00		0.000000e+00		0.000000e+00
0.000000e+00		0.000000e+00		0.000000e+00
0.000000e+00		0.000000e+00		0.000000e+00
0.000000e+00		0.000000e+00		0.000000e+00
0.000000e+00		0.000000e+00		0.000000e+00
0.000000e+00		0.000000e+00		0.000000e+00
0.000000e+00		0.000000e+00		0.000000e+00
0.000000e+00		0.000000e+00		0.000000e+00
0.000000e+00		0.000000e+00		0.000000e+00
0.000000e+00		0.000000e+00		0.000000e+00
0.000000e+00		0.000000e+00		0.000000e+00
0.000000e+00		0.000000e+00		0.000000e+00
0.000000e+00		0.000000e+00		0.000000e+00
0.000000e+00		0.000000e+00		0.000000e+00
0.000000e+00		0.000000e+00		0.000000e+00
0.000000e+00		0.000000e+00		0.000000e+00
0.000000e+00		0.000000e+00		0.000000e+00
0.000000e+00		0.000000e+00		0.000000e+00
0.000000e+00		0.000000e+00		0.000000e+00
0.000000e+00		0.000000e+00		0.000000e+00
0.000000e+00		0.000000e+00		0.000000e+00
0.000000e+00		0.000000e+00		0.000000e+00
0.000000e+00		0.000000e+00		0.000000e+00
0.000000e+00		0.000000e+00		0.000000e+00
0.000000e+00		0.000000e+00		0.000000e+00
0.000000e+00		0.000000e+00		0.000000e+00
0.000000e+00		0.000000e+00		0.000000e+00
0.000000e+00		0.000000e+00		0.000000e+00
0.000000e+00		0.000000e+00		0.000000e+00
0.000000e+00		0.000000e+00		0.000000e+00
0.000000e+00		0.000000e+00		0.000000e+00
0.000000e+00		0.000000e+00		0.000000e+00
0.000000e+00		0.000000e+00		0.000000e+00
0.000000e+00		0.000000e+00		0.000000e+00
0.000000e+00		0.000000e+00		0.000000e+00
0.000000e+00		0.000000e+00		0.000000e+00
0.000000e+00		0.000000e+00		0.000000e+00
0.000000e+00		0.000000e+00		0.000000e+00
0.000000e+00		0.000000e+00		0.000000e+00
0.000000e+00		0.000000e+00		0.000000e+00
0.000000e+00		0.000000e+00		0.000000e+00
0.000000e+00		0.000000e+00		0.000000e+00
0.000000e+00		0.000000e+00		0.000000e+00
0.000000e+00		0.000000e+00		0.000000e+00
0.000000e+00		0.000000e+00		0.000000e+00
0.000000e+00		0.000000e+00		0.000000e+00
0.000000e+00		0.000000e+00		0.000000e+00
0.000000e+00		0.000000e+00		0.000000e+00
0.000000e+00		0.000000e+00		0.000000e+00
0.000000e+00		0.000000e+00		0.000000e+00
0.000000e+00		0.000000e+00		0.000000e+00
0.000000e+00		0.000000e+00		0.000000e+00
0.000000e+00		0.000000e+00		0.000000e+00
0.000000e+00		0.000000e+00		0.000000e+00
0.000000e+00		0.000000e+00		0.000000e+00
0.000000e+00		0.000000e+00		0.000000e+00
0.000000e+00		0.000000e+00		0.000000e+00
0.000000e+00		0.000000e+00		0.000000e+00
0.000000e+00		0.000000e+00		0.000000e+00
0.000000e+00		0.000000e+00		0.000000e+00
0.000000e+00		0.000000e+00		0.000000e+00
0.000000e+00		0.000000e+00		0.000000e+00
0.000000e+00		0.000000e+00		0.000000e+00
0.000000e+00		0.000000e+00		0.000000e+00
0.000000e+00		0.000000e+00		0.000000e+00
0.000000e+00		0.000000e+00		0.000000e+00
0.000000e+00		0.000000e+00		0.000000e+00
0.000000e+00		0.000000e+00		0.000000e+00
0.000000e+00		0.000000e+00		0.000000e+00
0.000000e+00		0.000000e+00		0.000000e+00
0.000000e+00		0.000000e+00		0.000000e+00
0.000000e+00		0.000000e+00		0.000000e+00
0.000000e+00		0.000000e+00		0.000000e+00
0.000000e+00		0.000000e+00		0.000000e+00
0.000000e+00		0.000000e+00		0.000000e+00
0.000000e+00		0.000000e+00		0.000000e+00
0.000000e+00		0.000000e+00		0.000000e+00
0.000000e+00		0.000000e+00		0.000000e+00
0.000000e+00		0.000000e+00		0.000000e+00
0.000000e+00		0.000000e+00		0.000000e+00
0.000000e+00		0.000000e+00		0.000000e+00
0.000000e+00		0.000000e+00		0.000000e+00
0.000000e+00		0.000000e+00		0.000000e+00
0.000000e+00		0.000000e+00		0.000000e+00
0.000000e+00		0.000000e+00		0.000000e+00
0.000000e+00		0.000000e+00		0.000000e+00
0.000000e+00		0.000000e+00		0.000000e+00
0.000000e+00		0.000000e+00		0.000000e+00
0.000000e+00		0.000000e+00		0.000000e+00
0.000000e+00		0.000000e+00		0.000000e+00
0.000000e+00		0.000000e+00		0.000000e+00
0.000000e+00		0.000000e+00		0.000000e+00
0.000000e+00		0.000000e+00		0.000000e+00
0.000000e+00		0.000000e+00		0.000000e+00
0.000000e+00		0.000000e+00		0.000000e+00
0.000000e+00		0.000000e+00		0.000000e+00
0.000000e+00		0.000000e+00		0.000000e+00
0.000000e+00		0.000000e+00		0.000000e+00
0.000000e+00		0.000000e+00		0.000000e+00
0.000000e+00		0.000000e+00		0.000000e+00
0.000000e+00		0.000000e+00		0.000000e+00
0.000000e+00		0.000000e+00		0.000000e+00
0.000000e+00		0.000000e+00		0.000000e+00
0.000000e+00		0.000000e+00		0.000000e+00
0.000000e+00		0.000000e+00		0.000000e+00
0.000000e+00		0.000000e+00		0.000000e+00
0.000000e+00		0.000000e+00		0.000000e+00
0.000000e+00		0.000000e+00		0.000000e+00
0.000000e+00		0.000000e+00		0.000000e+00
0.000000e+00		0.000000e+00		0.000000e+00
0.000000e+00		0.000000e+00		0.000000e+00
0.000000e+00		0.000000e+00		0.000000e+00
0.000000e+00		0.000000e+00		0.000000e+00
0.000000e+00		0.000000e+00		0.000000e+00
0.000000e+00		0.000000e+00		0.000000e+00
0.000000e+00		0.000000e+00		0.000000e+00
0.000000e+00		0.000000e+00		0.000000e+00
0.000000e+00		0.000000e+00		0.000000e+00
0.000000e+00		0.000000e+00		0.000000e+00
0.000000e+00		0.000000e+00		0.000000e+00
0.000000e+00		0.000000e+00		0.000000e+00
0.000000e+00		0.000000e+00		0.000000e+00
0.000000e+00		0.000000e+00		0.000000e+00
0.000000e+00		0.000000e+00		0.000000e+00
0.000000e+00		0.000000e+00		0.000000e+00
0.000000e+00		0.000000e+00		0.000000e+00
0.000000e+00		0.000000e+00		0.000000e+00
0.000000e+00		0.000000e+00		0.000000e+00
0.000000e+00		0.000000e+00		0.000000e+00
0.000000e+00		0.000000e+00		0.000000e+00
0.000000e+00		0.000000e+00		0.000000e+00
0.000000e+00		0.000000e+00		0.000000e+00
0.000000e+00		0.000000e+00		0.000000e+00
0.000000e+00		0.000000e+00		0.000000e+00
0.000000e+00		0.000000e+00		0.000000e+00
0.000000e+00		0.000000e+00		0.000000e+00
0.000000e+00		0.000000e+00		0.000000e+00
0.000000e+00		0.000000e+00		0.000000e+00
0.000000e+00		0.000000e+00		0.000000e+00
0.000000e+00		0.000000e+00		0.000000e+00
0.000000e+00		0.000000e+00		0.000000e+00
0.000000e+00		0.000000e+00		0.000000e+00
0.000000e+00		0.000000e+00		0.000000e+00
0.000000e+00		0.000000e+00		0.000000e+00
0.000000e+00		0.000000e+00		0.000000e+00
0.000000e+00		0.000000e+00		0.000000e+00
0.000000e+00		0.000000e+00		0.000000e+00
0.000000e+00		0.000000e+00		0.000000e+00
0.000000e+00		0.000000e+00		0.000000e+00
0.000000e+00		0.000000e+00		0.000000e+00
0.000000e+00		0.000000e+00		0.000000e+00
0.000000e+00		0.000000e+00		0.000000e+00
0.000000e+00		0.000000e+00		0.000000e+00
0.000000e+00		0.000000e+00		0.000000e+00
0.000000e+00		0.000000e+00		0.000000e+00
0.000000e+00		0.000000e+00		0.000000e+00
0.000000e+00		0.000000e+00		0.000000e+00
0.000000e+00		0.000000e+00		0.000000e+00
0.000000e+00		0.000000e+00		0.000000e+00
0.000000e+00		0.000000e+00		0.000000e+00
0.000000e+00		0.000000e+00		0.000000e+00
0.000000e+00		0.000000e+00		0.000000e+00
0.000000e+00		0.000000e+00		0.000000e+00
0.000000e+00		0.000000e+00		0.000000e+00
0.000000e+00		0.000000e+00		0.000000e+00
0.000000e+00		0.000000e+00		0.000000e+00
0.000000e+00		0.000000e+00		0.000000e+00
0.000000e+00		0.000000e+00		0.000000e+00
0.000000e+00		0.000000e+00		0.000000e+00
0.000000e+00		0.000000e+00		0.000000e+00
0.000000e+00		0.000000e+00		0.000000e+00
0.000000e+00		0.000000e+00		0.000000e+00
0.000000e+00		0.000000e+00		0.000000e+00
0.000000e+00		0.000000e+00		0.000000e+00
0.000000e+00		0.000000e+00		0.000000e+00
0.000000e+00		0.000000e+00		0.000000e+00
0.000000e+00		0.000000e+00		0.000000e+00
0.000000e+00		0.000000e+00		0.000000e+00
0.000000e+00		0.000000e+00		0.000000e+00
0.000000e+00		0.000000e+00		0.000000e+00
0.000000e+00		0.000000e+00		0.000000e+00
0.000000e+00		0.000000e+00		0.000000e+00
0.000000e+00		0.000000e+00		0.000000e+00
0.000000e+00		0.000000e+00		0.000000e+00
0.000000e+00		0.000000e+00		0.000000e+00
0.000000e+00		0.000000e+00		0.000000e+00
0.000000e+00		0.000000e+00		0.000000e+00
0.000000e+00		0.000000e+00		0.000000e+00
0.000000e+00		0.000000e+00		0.000000e+00
0.000000e+00		0.000000e+00		0.000000e+00
0.000000e+00		0.000000e+00		0.000000e+00
0.000000e+00		0.000000e+00		0.000000e+00
0.000000e+00		0.000000e+00		0.000000e+00
0.000000e+00		0.000000e+00		0.000000e+00
0.000000e+00		0.000000e+00		0.000000e+00
0.000000e+00		0.000000e+00		0.000000e+00
0.000000e+00		0.000000e+00		0.000000e+00
0.000000e+00		0.000000e+00		0.000000e+00
0.000000e+00		0.000000e+00		0.000000e+00
0.000000e+00		0.000000e+00		0.000000e+00
0.000000e+00		0.000000e+00		0.000000e+00
0.000000e+00		0.000000e+00		0.000000e+00
0.000000e+00		0.000000e+00		0.000000e+00
0.000000e+00		0.000000e+00		0.000000e+00
0.000000e+00		0.000000e+00		0.000000e+00
0.000000e+00		0.000000e+00		0.000000e+00
0.000000e+00		0.000000e+00		0.000000e+00
0.000000e+00		0.000000e+00		0.000000e+00
0.000000e+00		0.000000e+00		0.000000e+00
0.000000e+00		0.000000e+00		0.000000e+00
0.000000e+00		0.000000e+00		0.000000e+00
0.000000e+00		0.000000e+00		0.000000e+00
0.000000e+00		0.000000e+00		0.000000e+00
0.000000e+00		0.000000e+00		0.000000e+00
0.000000e+00		0.000000e+00		0.000000e+00
0.000000e+00		0.000000e+00		0.000000e+00
0.000000e+00		0.000000e+00		0.000000e+00
0.000000e+00		0.000000e+00		0.000000e+00
0.000000e+00		0.000000e+00		0.000000e+00
0.000000e+00		0.000000e+00		0.000000e+00
0.000000e+00		0.000000e+00		0.000000e+00
0.000000e+00		0.000000e+00		0.000000e+00
0.000000e+00		0.000000e+00		0.000000e+00
0.000000e+00		0.000000e+00		0.000000e+00
0.000000e+00		0.000000e+00		0.000000e+00
0.000000e+00		0.000000e+00		0.000000e+00
0.000000e+00		0.000000e+00		0.000000e+00
0.000000e+00		0.000000e+00		0.000000e+00
0.000000e+00		0.000000e+00		0.000000e+00
0.000000e+00		0.000000e+00		0.000000e+00
0.000000e+00		0.000000e+00		0.000000e+00
0.000000e+00		0.000000e+00		0.000000e+00
0.000000e+00		0.000000e+00		0.000000e+00
0.000000e+00		0.000000e+00		0.000000e+00
0.000000e+00		0.000000e+00		0.000000e+00
0.000000e+00		0.000000e+00		0.000000e+00
0.000000e+00		0.000000e+00		0.000000e+00
0.000000e+00		0.000000e+00		0.000000e+00
0.000000e+00		0.000000e+00		0.000000e+00
0.000000e+00		0.000000e+00		0.000000e+00
0.000000e+00		0.000000e+00		0.000000e+00
0.000000e+00		0.000000e+00		0.000000e+00
0.000000e+00		0.000000e+00		0.000000e+00
0.000000e+00		0.000000e+00		0.000000e+00
0.000000e+00		0.000000e+00		0.000000e+00
0.000000e+00		0.000000e+00		0.000000e+00
0.000000e+00		0.000000e+00		0.000000e+00
0.000000e+00		0.000000e+00		0.000000e+00
0.000000e+00		0.000000e+00		0.000000e+00
0.000000e+00		0.000000e+00		0.000000e+00
0.000000e+00		0.000000e+00		0.000000e+00
0.000000e+00		0.000000e+00		0.000000e+00
0.000000e+00		0.000000e+00		0.000000e+00
0.000000e+00		0.000000e+00		0.000000e+00
0.000000e+00		0.000000e+00		0.000000e+00
0.000000e+00		0.000000e+00		0.000000e+00
0.000000e+00		0.000000e+00		0.000000e+00
0.000000e+00		0.000000e+00		0.000000e+00
0.000000e+00		0.000000e+00		0.000000e+00
0.000000e+00		0.000000e+00		0.000000e+00
0.000000e+00		0.000000e+00		0.000000e+00
0.000000e+00		0.000000e+00		0.000000e+00
0.000000e+00		0.000000e+00		0.000000e+00
0.000000e+00		0.000000e+00		0.000000e+00
0.000000e+00		0.000000e+00		0.000000e+00
0.000000e+00		0.000000e+00		0.000000e+00
0.000000e+00		0.000000e+00		0.000000e+00
0.000000e+00		0.000000e+00		0.000000e+00
0.000000e+00		0.000000e+00		0.000000e+00
0.000000e+00		0.000000e+00		0.000000e+00
0.000000e+00		0.000000e+00		0.000000e+00
0.000000e+00		0.000000e+00		0.000000e+00
0.000000e+00		0.000000e+00		0.000000e+00
0.000000e+00		0.000000e+00		0.000000e+00
0.000000e+00		0.000000e+00		0.000000e+00
0.000000e+00		0.000000e+00		0.000000e+00
0.000000e+00		0.000000e+00		0.000000e+00
0.000000e+00		0.000000e+00		0.000000e+00
0.000000e+00		0.000000e+00		0.000000e+00
0.000000e+00		0.000000e+00		0.000000e+00
0.000000e+00		0.000000e+00		0.000000e+00
0.000000e+00		0.000000e+00		0.000000e+00
0.000000e+00		0.000000e+00		0.000000e+00
0.000000e+00		0.000000e+00		0.000000e+00
0.000000e+00		0.000000e+00		0.000000e+00
0.000000e+00		0.000000e+00		0.000000e+00
0.000000e+00		0.000000e+00		0.000000e+00
0.000000e+00		0.000000e+00		0.000000e+00
0.000000e+00		0.000000e+00		0.000000e+00
0.000000e+00		0.000000e+00		0.000000e+00
0.000000e+00		0.000000e+00		0.000000e+00
0.000000e+00		0.000000e+00		0.000000e+00
0.000000e+00		0.000000e+00		0.000000e+00
0.000000e+00		0.000000e+00		0.000000e+00
0.000000e+00		0.000000e+00		0.000000e+00
0.000000e+00		0.000000e+00		0.000000e+00
0.000000e+00		0.000000e+00		0.000000e+00
0.000000e+00		0.000000e+00		0.000000e+00
0.000000e+00		0.000000e+00		0.000000e+00
0.000000e+00		0.000000e+00		0.000000e+00
0.000000e+00		0.000000e+00		0.000000e+00
0.000000e+00		0.000000e+00		0.000000e+00
0.000000e+00		0.000000e+00		0.000000e+00
0.000000e+00		0.000000e+00		0.000000e+00
0.000000e+00		0.000000e+00		0.000000e+00
0.000000e+00		0.000000e+00		0.000000e+00
0.000000e+00		0.000000e+00		0.000000e+00
0.000000e+00		0.000000e+00		0.000000e+00
0.000000e+00		0.000000e+00		0.000000e+00
0.000000e+00		0.000000e+00		0.000000e+00
0.000000e+00		0.000000e+00		0.000000e+00
0.000000e+00		0.000000e+00		0.000000e+00
0.000000e+00		0.000000e+00		0.000000e+00
0.000000e+00		0.000000e+00		0.000000e+00
0.000000e+00		0.000000e+00		0.000000e+00
0.000000e+00		0.000000e+00		0.000000e+00
0.000000e+00		0.000000e+00		0.000000e+00
0.000000e+00		0.000000e+00		0.000000e+00
0.000000e+00		0.000000e+00		0.000000e+00
0.000000e+00		0.000000e+00		0.000000e+00
0.000000e+00		0.000000e+00		0.000000e+00
0.000000e+00		0.000000e+00		0.000000e+00
0.000000e+00		0.000000e+00		0.000000e+00
0.000000e+00		0.000000e+00		0.000000e+00
0.000000e+00		0.000000e+00		0.000000e+00
0.000000e+00		0.000000e+00		0.000000e+00
0.000000e+00		0.000000e+00		0.000000e+00
0.000000e+00		0.000000e+00		0.000000e+00
0.000000e+00		0.000000e+00		0.000000e+00
0.000000e+00		0.000000e+00		0.000000e+00
0.000000e+00		0.000000e+00		0.000000e+00
0.000000e+00		0.000000e+00		0.000000e+00
0.000000e+00		0.000000e+00		0.000000e+00
0.000000e+00		0.000000e+00		0.000000e+00
0.000000e+00		0.000000e+00		0.000000e+00
0.000000e+00		0.000000e+00		0.000000e+00
0.000000e+00		0.000000e+00		0.000000e+00
0.000000e+00		0.000000e+00		0.000000e+00
0.000000e+00		0.000000e+00		0.000000e+00
0.000000e+00		0.000000e+00		0.000000e+00
0.000000e+00		0.000000e+00		0.000000e+00
0.000000e+00		0.000000e+00		0.000000e+00
0.000000e+00		0.000000e+00		0.000000e+00
0.000000e+00		0.000000e+00		0.000000e+00
0.000000e+00		0.000000e+00		0.000000e+00
0.000000e+00		0.000000e+00		0.000000e+00
0.000000e+00		0.000000e+00		0.000000e+00
0.000000e+00		0.000000e+00		0.000000e+00
0.000000e+00		0.000000e+00		0.000000e+00
0.000000e+00		0.000000e+00		0.000000e+00
0.000000e+00		0.000000e+00		0.000000e+00
0.000000e+00		0.000000e+00		0.000000e+00
0.000000e+00		0.000000e+00		0.000000e+00
0.000000e+00		0.000000e+00		0.000000e+00
0.000000e+00		0.000000e+00		0.000000e+00
0.000000e+00		0.000000e+00		0.000000e+00
0.000000e+00		0.000000e+00		0.000000e+00
0.000000e+00		0.000000e+00		0.000000e+00
0.000000e+00		0.000000e+00		0.000000e+00
0.000000e+00		0.000000e+00		0.000000e+00
0.000000e+00		0.000000e+00		0.000000e+00
0.000000e+00		0.000000e+00		0.000000e+00
0.000000e+00		0.000000e+00		0.000000e+00
0.000000e+00		0.000000e+00		0.000000e+00
0.000000e+00		0.000000e+00		0.000000e+00
0.000000e+00		0.000000e+00		0.000000e+00
0.000000e+00		0.000000e+00		0.000000e+00
0.000000e+00		0.000000e+00		0.000000e+00
0.000000e+00		0.000000e+00		0.000000e+00
0.000000e+00		0.000000e+00		0.000000e+00
0.000000e+00		0.000000e+00		0.000000e+00
0.000000e+00		0.000000e+00		0.000000e+00
0.000000e+00		0.000000e+00		0.000000e+00
0.000000e+00		0.000000e+00		0.000000e+00
0.000000e+00		0.000000e+00		0.000000e+00
0.000000e+00		0.000000e+00		0.000000e+00
0.000000e+00		0.000000e+00		0.000000e+00
0.000000e+00		0.000000e+00		0.000000e+00
0.000000e+00		0.000000e+00		0.000000e+00
0.000000e+00		0.000000e+00		0.000000e+00
0.000000e+00		0.000000e+00		0.000000e+00
0.000000e+00		0.000000e+00		0.000000e+00
0.000000e+00		0.000000e+00		0.000000e+00
0.000000e+00		0.000000e+00		0.000000e+00
0.000000e+00		0.000000e+00		0.000000e+00
0.000000e+00		0.000000e+00		0.000000e+00
0.000000e+00		0.000000e+00		0.000000e+00
0.000000e+00		0.000000e+00		0.000000e+00
0.000000e+00		0.000000e+00		0.000000e+00
0.000000e+00		0.000000e+00		0.000000e+00
0.000000e+00		0.000000e+00		0.000000e+00
0.000000e+00		0.000000e+00		0.000000e+00
0.000000e+00		0.000000e+00		0.000000e+00
0.000000e+00		0.000000e+00		0.000000e+00
0.000000e+00		0.000000e+00		0.000000e+00
0.000000e+00		0.000000e+00		0.000000e+00
0.000000e+00		0.000000e+00		0.000000e+00
0.000000e+00		0.000000e+00		0.000000e+00
0.000000e+00		0.000000e+00		0.000000e+00
0.000000e+00		0.000000e+00		0.000000e+00
0.000000e+00		0.000000e+00		0.000000e+00
0.000000e+00		0.000000e+00		0.000000e+00
0.000000e+00		0.000000e+00		0.000000e+00
0.000000e+00		0.000000e+00		0.000000e+00
0.000000e+00		0.000000e+00		0.000000e+00
0.000000e+00		0.000000e+00		0.000000e+00
0.000000e+00		0.000000e+00		0.000000e+00
0.000000e+00		0.000000e+00		0.000000e+00
0.000000e+00		0.000000e+00		0.000000e+00
0.000000e+00		0.000000e+00		0.000000e+00
0.000000e+00		0.000000e+00		0.000000e+00
0.000000e+00		0.000000e+00		0.000000e+00
0.000000e+00		0.000000e+00		0.000000e+00
0.000000e+00		0.000000e+00		0.000000e+00
0.000000e+00		0.000000e+00		0.000000e+00
0.000000e+00		0.000000e+00		0.000000e+00
0.000000e+00		0.000000e+00		0.000000e+00
0.000000e+00		0.000000e+00		0.000000e+00
0.000000e+00		0.000000e+00		0.000000e+00
0.000000e+00		0.000000e+00		0.000000e+00
0.000000e+00		0.000000e+00		0.000000e+00
0.000000e+00		0.000000e+00		0.000000e+00
0.000000e+00		0.000000e+00		0.000000e+00
0.000000e+00		0.000000e+00		0.000000e+00
0.000000e+00		0.000000e+00		0.000000e+00
0.000000e+00		0.000000e+00		0.000000e+00
0.000000e+00		0.000000e+00		0.000000e+00
0.000000e+00		0.000000e+00		0.000000e+00
0.000000e+00		0.000000e+00		0.000000e+00
0.000000e+00		0.000000e+00		0.000000e+00
0.000000e+00		0.000000e+00		0.000000e+00
0.000000e+00		0.000000e+00		0.000000e+00
0.000000e+00		0.000000e+00		0.000000e+00
0.000000e+00		0.000000e+00		0.000000e+00
0.000000e+00		0.000000e+00		0.000000e+00
0.000000e+00		0.000000e+00		0.000000e+00
0.000000e+00		0.000000e+00		0.000000e+00
0.000000e+00		0.000000e+00		0.000000e+00
0.000000e+00		0.000000e+00		0.000000e+00
0.000000e+00		0.000000e+00		0.000000e+00
0.000000e+00		0.000000e+00		0.000000e+00
0.000000e+00		0.000000e+00		0.000000e+00
0.000000e+00		0.000000e+00		0.000000e+00
0.000000e+00		0.000000e+00		0.000000e+00
0.000000e+00		0.000000e+00		0.000000e+00
0.000000e+00		0.000000e+00		0.000000e+00
0.000000e+00		0.000000e+00		0.000000e+00
0.000000e+00		0.000000e+00		0.000000e+00
0.000000e+00		0.000000e+00		0.000000e+00
0.000000e+00		0.000000e+00		0.000000e+00
0.000000e+00		0.000000e+00		0.000000e+00
0.000000e+00		0.000000e+00		0.000000e+00
0.000000e+00		0.000000e+00		0.000000e+00
0.000000e+00		0.000000e+00		0.000000e+00
0.000000e+00		0.000000e+00		0.000000e+00
0.000000e+00		0.000000e+00		0.000000e+00
0.000000e+00		0.000000e+00		0.000000e+00
0.000000e+00		0.000000e+00		0.000000e+00
0.000000e+00		0.000000e+00		0.000000e+00
0.000000e+00		0.000000e+00		0.000000e+00
0.000000e+00		0.000000e+00		0.000000e+00
0.000000e+00		0.000000e+00		0.000000e+00
0.000000e+00		0.000000e+00		0.000000e+00
0.000000e+00		0.000000e+00		0.000000e+00
0.000000e+00		0.000000e+00		0.000000e+00
0.000000e+00		0.000000e+00		0.000000e+00
0.000000e+00		0.000000e+00		0.000000e+00
0.000000e+00		0.000000e+00		0.000000e+00
0.000000e+00		0.000000e+00		0.000000e+00
0.000000e+00		0.000000e+00		0.000000e+00
0.000000e+00		0.000000e+00		0.000000e+00
0.000000e+00		0.000000e+00		0.000000e+00
0.000000e+00		0.000000e+00		0.000000e+00
0.000000e+00		0.000000e+00		0.000000e+00
0.000000e+00		0.000000e+00		0.000000e+00
0.000000e+00		0.000000e+00		0.000000e+00
0.000000e+00		0.000000e+00		0.000000e+00
0.000000e+00		0.000000e+00		0.000000e+00
0.000000e+00		0.000000e+00		0.000000e+00
0.000000e+00		0.000000e+00		0.000000e+00
0.000000e+00		0.000000e+00		0.000000e+00
0.000000e+00		0.000000e+00		0.000000e+00
0.000000e+00		0.000000e+00		0.000000e+00
0.000000e+00		0.000000e+00		0.000000e+00
0.000000e+00		0.000000e+00		0.000000e+00
0.000000e+00		0.000000e+00		0.000000e+00
0.000000e+00		0.000000e+00		0.000000e+00
0.000000e+00		0.000000e+00		0.000000e+00
0.000000e+00		0.000000e+00		0.000000e+00
0.000000e+00		0.000000e+00		0.000000e+00
0.000000e+00		0.000000e+00		0.000000e+00
0.000000e+00		0.000000e+00		0.000000e+00
0.000000e+00		0.000000e+00		0.000000e+00
0.000000e+00		0.000000e+00		0.000000e+00
0.000000e+00		0.000000e+00		0.000000e+00
0.000000e+00		0.000000e+00		0.000000e+00
0.000000e+00		0.000000e+00		0.000000e+00
0.000000e+00		0.000000e+00		0.000000e+00
0.000000e+00		0.000000e+00		0.000000e+00
0.000000e+00		0.000000e+00		0.000000e+00
0.000000e+00		0.000000e+00		0.000000e+00
0.000000e+00		0.000000e+00		0.000000e+00
0.000000e+00		0.000000e+00		0.000000e+00
0.000000e+00		0.000000e+00		0.000000e+00
0.000000e+00		0.000000e+00		0.000000e+00
0.000000e+00		0.000000e+00		0.000000e+00
0.000000e+00		0.000000e+00		0.000000e+00
0.000000e+00		0.000000e+00		0.000000e+00
0.000000e+00		0.000000e+00		0.000000e+00
0.000000e+00		0.000000e+00		0.000000e+00
0.000000e+00		0.000000e+00		0.000000e+00
0.000000e+00		0.000000e+00		0.000000e+00
0.000000e+00		0.000000e+00		0.000000e+00
0.000000e+00		0.000000e+00		0.000000e+00
0.000000e+00		0.000000e+00		0.000000e+00
0.000000e+00		0.000000e+00		0.000000e+00
0.000000e+00		0.000000e+00		0.000000e+00
0.000000e+00		0.000000e+00		0.000000e+00
0.000000e+00		0.000000e+00		0.000000e+00
0.000000e+00		0.000000e+00		0.000000e+00
0.000000e+00		0.000000e+00		0.000000e+00
0.000000e+00		0.000000e+00		0.000000e+00
0.000000e+00		0.000000e+00		0.000000e+00
0.000000e+00		0.000000e+00		0.000000e+00
0.000000e+00		0.000000e+00		0.000000e+00
0.000000e+00		0.000000e+00		0.000000e+00
0.000000e+00		0.000000e+00		0.000000e+00
0.000000e+00		0.000000e+00		0.000000e+00
0.000000e+00		0.000000e+00		0.000000e+00
0.000000e+00		0.000000e+00		0.000000e+00
0.000000e+00		0.000000e+00		0.000000e+00
0.000000e+00		0.000000e+00		0.000000e+00
0.000000e+00		0.000000e+00		0.000000e+00
0.000000e+00		0.000000e+00		0.000000e+00
0.000000e+00		0.000000e+00		0.000000e+00
0.000000e+00		0.000000e+00		0.000000e+00
0.000000e+00		0.000000e+00		0.000000e+00
0.000000e+00		0.000000e+00		0.000000e+00
0.000000e+00		0.000000e+00		0.000000e+00
0.000000e+00		0.000000e+00		0.000000e+00
0.000000e+00		0.000000e+00		0.000000e+00
0.000000e+00		0.000000e+00		0.000000e+00
0.000000e+00		0.000000e+00		0.000000e+00
0.000000e+00		0.000000e+00		0.000000e+00
0.000000e+00		0.000000e+00		0.000000e+00
0.000000e+00		0.000000e+00		0.000000e+00
0.000000e+00		0.000000e+00		0.000000e+00
0.000000e+00		0.000000e+00		0.000000e+00
0.000000e+00		0.000000e+00		0.000000e+00
0.000000e+00		0.000000e+00		0.000000e+00
0.000000e+00		0.000000e+00		0.000000e+00
0.000000e+00		0.000000e+00		0.000000e+00
0.000000e+00		0.000000e+00		0.000000e+00
0.000000e+00		0.000000e+00		0.000000e+00
0.000000e+00		0.000000e+00		0.000000e+00
0.000000e+00		0.000000e+00		0.000000e+00
0.000000e+00		0.000000e+00		0.000000e+00
0.000000e+00		0.000000e+00		0.000000e+00
0.000000e+00		0.000000e+00		0.000000e+00
0.000000e+00		0.000000e+00		0.000000e+00
0.000000e+00		0.000000e+00		0.000000e+00
0.000000e+00		0.000000e+00		0.000000e+00
0.000000e+00		0.000000e+00		0.000000e+00
0.000000e+00		0.000000e+00		0.000000e+00
0.000000e+00		0.000000e+00		0.000000e+00
0.000000e+00		0.000000e+00		0.000000e+00
0.000000e+00		0.000000e+00		0.000000e+00
0.000000e+00		0.000000e+00		0.000000e+00
0.000000e+00		0.000000e+00		0.000000e+00
0.000000e+00		0.000000e+00		0.000000e+00
0.000000e+00		0.000000e+00		0.000000e+00
0.000000e+00		0.000000e+00		0.000000e+00
0.000000e+00		0.000000e+00		0.000000e+00
0.000000e+00		0.000000e+00		0.000000e+00
0.000000e+00		0.000000e+00		0.000000e+00
0.000000e+00		0.000000e+00		0.000000e+00
0.000000e+00		0.000000e+00		0.000000e+00
0.000000e+00		0.000000e+00		0.000000e+00
0.000000e+00		0.000000e+00		0.000000e+00
0.000000e+00		0.000000e+00		0.000000e+00
0.000000e+00		0.000000e+00		0.000000e+00
0.000000e+00		0.000000e+00		0.000000e+00
0.000000e+00		0.000000e+00		0.000000e+00
0.000000e+00		0.000000e+00		0.000000e+00
0.000000e+00		0.000000e+00		0.000000e+00
0.000000e+00		0.000000e+00		0.000000e+00
0.000000e+00		0.000000e+00		0.000000e+00
0.000000e+00		0.000000e+00		0.000000e+00
0.000000e+00		0.000000e+00		0.000000e+00
0.000000e+00		0.000000e+00		0.000000e+00
0.000000e+00		0.000000e+00		0.000000e+00
0.000000e+00		0.000000e+00		0.000000e+00
0.000000e+00		0.000000e+00		0.000000e+00
0.000000e+00		0.000000e+00		0.000000e+00
0.000000e+00		0.000000e+00		0.000000e+00
0.000000e+00		0.000000e+00		0.000000e+00
0.000000e+00		0.000000e+00		0.000000e+00
0.000000e+00		0.000000e+00		0.000000e+00
0.000000e+00		0.000000e+00		0.000000e+00
0.000000e+00		0.000000e+00		0.000000e+00
0.000000e+00		0.000000e+00		0.000000e+00
0.000000e+00		0.000000e+00		0.000000e+00
0.000000e+00		0.000000e+00		0.000000e+00
0.000000e+00		0.000000e+00		0.000000e+00
0.000000e+00		0.000000e+00		0.000000e+00
0.000000e+00		0.000000e+00		0.000000e+00
0.000000e+00		0.000000e+00		0.000000e+00
0.000000e+00		0.000000e+00		0.000000e+00
0.000000e+00		0.000000e+00		0.000000e+00
0.000000e+00		0.000000e+00		0.000000e+00
0.000000e+00		0.000000e+00		0.000000e+00
0.000000e+00		0.000000e+00		0.000000e+00
0.000000e+00		0.000000e+00		0.000000e+00
0.000000e+00		0.000000e+00		0.000000e+00
0.000000e+00		0.000000e+00		0.000000e+00
0.000000e+00		0.000000e+00		0.000000e+00
0.000000e+00		0.000000e+00		0.000000e+00
0.000000e+00		0.000000e+00		0.000000e+00
0.000000e+00		0.000000e+00		0.000000e+00
0.000000e+00		0.000000e+00		0.000000e+00
0.000000e+00		0.000000e+00		0.000000e+00
0.000000e+00		0.000000e+00		0.000000e+00
0.000000e+00		0.000000e+00		0.000000e+00
0.000000e+00		0.000000e+00		0.000000e+00
0.000000e+00		0.000000e+00		0.000000e+00
0.000000e+00		0.000000e+00		0.000000e+00
0.000000e+00		0.000000e+00		0.000000e+00
0.000000e+00		0.000000e+00		0.000000e+00
0.000000e+00		0.000000e+00		0.000000e+00
0.000000e+00		0.000000e+00		0.000000e+00
0.000000e+00		0.000000e+00		0.000000e+00
0.000000e+00		0.000000e+00		0.000000e+00
0.000000e+00		0.000000e+00		0.000000e+00
0.000000e+00		0.000000e+00		0.000000e+00
0.000000e+00		0.000000e+00		0.000000e+00
0.000000e+00		0.000000e+00		0.000000e+00
0.000000e+00		0.000000e+00		0.000000e+00
0.000000e+00		0.000000e+00		0.000000e+00
0.000000e+00		0.000000e+00		0.000000e+00
0.000000e+00		0.000000e+00		0.000000e+00
0.000000e+00		0.000000e+00		0.000000e+00
0.000000e+00		0.000000e+00		0.000000e+00
0.000000e+00		0.000000e+00		0.000000e+00
0.000000e+00		0.000000e+00		0.000000e+00
0.000000e+00		0.000000e+00		0.000000e+00
0.000000e+00		0.000000e+00		0.000000e+00
0.000000e+00		0.000000e+00		0.000000e+00
0.000000e+00		0.000000e+00		0.000000e+00
0.000000e+00		0.000000e+00		0.000000e+00
0.000000e+00		0.000000e+00		0.000000e+00
0.000000e+00		0.000000e+00		0.000000e+00
0.000000e+00		0.000000e+00		0.000000e+00
0.000000e+00		0.000000e+00		0.000000e+00
0.000000e+00		0.000000e+00		0.000000e+00
0.000000e+00		0.000000e+00		0.000000e+00
0.000000e+00		0.000000e+00		0.000000e+00
0.000000e+00		0.000000e+00		0.000000e+00
0.000000e+00		0.000000e+00		0.000000e+00
0.000000e+00		0.000000e+00		0.000000e+00
0.000000e+00		0.000000e+00		0.000000e+00
0.000000e+00		0.000000e+00		0.000000e+00
0.000000e+00		0.000000e+00		0.000000e+00
0.000000e+00		0.000000e+00		0.000000e+00
0.000000e+00		0.000000e+00		0.000000e+00
0.000000e+00		0.000000e+00		0.000000e+00
0.000000e+00		0.000000e+00		0.000000e+00
0.000000e+00		0.000000e+00		0.000000e+00
0.000000e+00		0.000000e+00		0.000000e+00
0.000000e+00		0.000000e+00		0.000000e+00
0.000000e+00		0.000000e+00		0.000000e+00
0.000000e+00		0.000000e+00		0.000000e+00
0.000000e+00		0.000000e+00		0.000000e+00
0.000000e+00		0.000000e+00		0.000000e+00
0.000000e+00		0.000000e+00		0.000000e+00
0.000000e+00		0.000000e+00		0.000000e+00
0.000000e+00		0.000000e+00		0.000000e+00
0.000000e+00		0.000000e+00		0.000000e+00
0.000000e+00		0.000000e+00		0.000000e+00
0.000000e+00		0.000000e+00		0.000000e+00
0.000000e+00		0.000000e+00		0.000000e+00
0.000000e+00		0.000000e+00		0.000000e+00
0.000000e+00		0.000000e+00		0.000000e+00
0.000000e+00		0.000000e+00		0.000000e+00
0.000000e+00		0.000000e+00		0.000000e+00
0.000000e+00		0.000000e+00		0.000000e+00
0.000000e+00		0.000000e+00		0.000000e+00
0.000000e+00		0.000000e+00		0.000000e+00
0.000000e+00		0.000000e+00		0.000000e+00
0.000000e+00		0.000000e+00		0.000000e+00
0.000000e+00		0.000000e+00		0.000000e+00
0.000000e+00		0.000000e+00		0.000000e+00
0.000000e+00		0.000000e+00		0.000000e+00
0.000000e+00		0.000000e+00		0.000000e+00
0.000000e+00		0.000000e+00		0.000000e+00
0.000000e+00		0.000000e+00		0.000000e+00
0.000000e+00		0.000000e+00		0.000000e+00
0.000000e+00		0.000000e+00		0.000000e+00
0.000000e+00		0.000000e+00		0.000000e+00
0.000000e+00		0.000000e+00		0.000000e+00
0.000000e+00		0.000000e+00		0.000000e+00
0.000000e+00		0.000000e+00		0.000000e+00
0.000000e+00		0.000000e+00		0.000000e+00
0.000000e+00		0.000000e+00		0.000000e+00
0.000000e+00		0.000000e+00		0.000000e+00
0.000000e+00		0.000000e+00		0.000000e+00
0.000000e+00		0.000000e+00		0.000000e+00
0.000000e+00		0.000000e+00		0.000000e+00
0.000000e+00		0.000000e+00		0.000000e+00
0.000000e+00		0.000000e+00		0.000000e+00
0.000000e+00		0.000000e+00		0.000000e+00
0.000000e+00		0.000000e+00		0.000000e+00
0.000000e+00		0.000000e+00		0.000000e+00
0.000000e+00		0.000000e+00		0.000000e+00
0.000000e+00		0.000000e+00		0.000000e+00
0.000000e+00		0.000000e+00		0.000000e+00
0.000000e+00		0.000000e+00		0.000000e+00
0.000000e+00		0.000000e+00		0.000000e+00
0.000000e+00		0.000000e+00		0.000000e+00
0.000000e+00		0.000000e+00		0.000000e+00
0.000000e+00		0.000000e+00		0.000000e+00
0.000000e+00		0.000000e+00		0.000000e+00
0.000000e+00		0.000000e+00		0.000000e+00
0.000000e+00		0.000000e+00		0.000000e+00
0.000000e+00		0.000000e+00		0.000000e+00
0.000000e+00		0.000000e+00		0.000000e+00
0.000000e+00		0.000000e+00		0.000000e+00
0.000000e+00		0.000000e+00		0.000000e+00
0.000000e+00		0.000000e+00		0.000000e+00
0.000000e+00		0.000000e+00		0.000000e+00
0.000000e+00		0.000000e+00		0.000000e+00
0.000000e+00		0.000000e+00		0.000000e+00
0.000000e+00		0.000000e+00		0.000000e+00
0.000000e+00		0.000000e+00		0.000000e+00
0.000000e+00		0.000000e+00		0.000000e+00
0.000000e+00		0.000000e+00		0.000000e+00
0.000000e+00		0.000000e+00		0.000000e+00
0.000000e+00		0.000000e+00		0.000000e+00
0.000000e+00		0.000000e+00		0.000000e+00
0.000000e+00		0.000000e+00		0.000000e+00
0.000000e+00		0.000000e+00		0.000000e+00
0.000000e+00		0.000000e+00		0.000000e+00
0.000000e+00		0.000000e+00		0.000000e+00
0.000000e+00		0.000000e+00		0.000000e+00
0.000000e+00		0.000000e+00		0.000000e+00
0.000000e+00		0.000000e+00		0.000000e+00
0.000000e+00		0.000000e+00		0.000000e+00
0.000000e+00		0.000000e+00		0.000000e+00
0.000000e+00		0.000000e+00		0.000000e+00
0.000000e+00		0.000000e+00		0.000000e+00
0.000000e+00		0.000000e+00		0.000000e+00
0.000000e+00		0.000000e+00		0.000000e+00
0.000000e+00		0.000000e+00		0.000000e+00
0.000000e+00		0.000000e+00		0.000000e+00
0.000000e+00		0.000000e+00		0.000000e+00
0.000000e+00		0.000000e+00		0.000000e+00
0.000000e+00		0.000000e+00		0.000000e+00
0.000000e+00		0.000000e+00		0.000000e+00
0.000000e+00		0.000000e+00		0.000000e+00
0.000000e+00		0.000000e+00		0.000000e+00
0.000000e+00		0.000000e+00		0.000000e+00
0.000000e+00		0.000000e+00		0.000000e+00
0.000000e+00		0.000000e+00		0.000000e+00
0.000000e+00		0.000000e+00		0.000000e+00
0.000000e+00		0.000000e+00		0.000000e+00
0.000000e+00		0.000000e+00		0.000000e+00
0.000000e+00		0.000000e+00		0.000000e+00
0.000000e+00		0.000000e+00		0.000000e+00
0.000000e+00		0.000000e+00		0.000000e+00
0.000000e+00		0.000000e+00		0.000000e+00
0.000000e+00		0.000000e+00		0.000000e+00
0.000000e+00		0.000000e+00		0.000000e+00
0.000000e+00		0.000000e+00		0.000000e+00
0.000000e+00		0.000000e+00		0.000000e+00
0.000000e+00		0.000000e+00		0.000000e+00
0.000000e+00		0.000000e+00		0.000000e+00
0.000000e+00		0.000000e+00		0.000000e+00
0.000000e+00		0.000000e+00		0.000000e+00
0.000000e+00		0.000000e+00		0.000000e+00
0.000000e+00		0.000000e+00		0.000000e+00
0.000000e+00		0.000000e+00		0.000000e+00
0.000000e+00		0.000000e+00		0.000000e+00
0.000000e+00		0.000000e+00		0.000000e+00
0.000000e+00		0.000000e+00		0.000000e+00
0.000000e+00		0.000000e+00		0.000000e+00
0.000000e+00		0.000000e+00		0.000000e+00
0.000000e+00		0.000000e+00		0.000000e+00
0.000000e+00		0.000000e+00		0.000000e+00
0.000000e+00		0.000000e+00		0.000000e+00
0.000000e+00		0.000000e+00		0.000000e+00
0.000000e+00		0.000000e+00		0.000000e+00
0.000000e+00		0.000000e+00		0.000000e+00
0.000000e+00		0.000000e+00		0.000000e+00
0.000000e+00		0.000000e+00		0.000000e+00
0.000000e+00		0.000000e+00		0.000000e+00
0.000000e+00		0.000000e+00		0.000000e+00
0.000000e+00		0.000000e+00		0.000000e+00
0.000000e+00		0.000000e+00		0.000000e+00
0.000000e+00		0.000000e+00		0.000000e+00
0.000000e+00		0.000000e+00		0.000000e+00
0.000000e+00		0.000000e+00		0.000000e+00
0.000000e+00		0.000000e+00		0.000000e+00
0.000000e+00		0.000000e+00		0.000000e+00
0.000000e+00		0.000000e+00		0.000000e+00
0.000000e+00		0.000000e+00		0.000000e+00
0.000000e+00		0.000000e+00		0.000000e+00
0.000000e+00		0.000000e+00		0.000000e+00
0.000000e+00		0.000000e+00		0.000000e+00
0.000000e+00		0.000000e+00		0.000000e+00
0.000000e+00		0.000000e+00		0.000000e+00
0.000000e+00		0.000000e+00		0.000000e+00
0.000000e+00		0.000000e+00		0.000000e+00
0.000000e+00		0.000000e+00		0.000000e+00
0.000000e+00		0.000000e+00		0.000000e+00
0.000000e+00		0.000000e+00		0.000000e+00
0.000000e+00		0.000000e+00		0.000000e+00
0.000000e+00		0.000000e+00		0.000000e+00
0.000000e+00		0.000000e+00		0.000000e+00
0.000000e+00		0.000000e+00		0.000000e+00
0.000000e+00		0.000000e+00		0.000000e+00
0.000000e+00		0.000000e+00		0.000000e+00
0.000000e+00		0.000000e+00		0.000000e+00
0.000000e+00		0.000000e+00		0.000000e+00
0.000000e+00		0.000000e+00		0.000000e+00
0.000000e+00		0.000000e+00		0.000000e+00
0.000000e+00		0.000000e+00		0.000000e+00
0.000000e+00		0.000000e+00		0.000000e+00
0.000000e+00		0.000000e+00		0.000000e+00
0.000000e+00		0.000000e+00		0.000000e+00
0.000000e+00		0.000000e+00		0.000000e+00
0.000000e+00		0.000000e+00		0.000000e+00
0.000000e+00		0.000000e+00		0.000000e+00
0.000000e+00		0.000000e+00		0.000000e+00
0.000000e+00		0.000000e+00		0.000000e+00
0.000000e+00		0.000000e+00		0.000000e+00
0.000000e+00		0.000000e+00		0.000000e+00
0.000000e+00		0.000000e+00		0.000000e+00
0.000000e+00		0.000000e+00		0.000000e+00
0.000000e+00		0.000000e+00		0.000000e+00
0.000000e+00		0.000000e+00		0.000000e+00
0.000000e+00		0.000000e+00		0.000000e+00
0.000000e+00		0.000000e+00		0.000000e+00
0.000000e+00		0.000000e+00		0.000000e+00
0.000000e+00		0.000000e+00		0.000000e+00
0.000000e+00		0.000000e+00		0.000000e+00
0.000000e+00		0.000000e+00		0.000000e+00
0.000000e+00		0.000000e+00		0.000000e+00
0.000000e+00		0.000000e+00		0.000000e+00
0.000000e+00		0.000000e+00		0.000000e+00
0.000000e+00		0.000000e+00		0.000000e+00
0.000000e+00		0.000000e+00		0.000000e+00
0.000000e+00		0.000000e+00		0.000000e+00
0.000000e+00		0.000000e+00		0.000000e+00
0.000000e+00		0.000000e+00		0.000000e+00
0.000000e+00		0.000000e+00		0.000000e+00
0.000000e+00		0.000000e+00		0.000000e+00
0.000000e+00		0.000000e+00		0.000000e+00
0.000000e+00		0.000000e+00		0.000000e+00
0.000000e+00		0.000000e+00		0.000000e+00
0.000000e+00		0.000000e+00		0.000000e+00
0.000000e+00		0.000000e+00		0.000000e+00
0.000000e+00		0.000000e+00		0.000000e+00
0.000000e+00		0.000000e+00		0.000000e+00
0.000000e+00		0.000000e+00		0.000000e+00
0.000000e+00		0.000000e+00		0.000000e+00
0.000000e+00		0.000000e+00		0.000000e+00
0.000000e+00		0.000000e+00		0.000000e+00
0.000000e+00		0.000000e+00		0.000000e+00
0.000000e+00		0.000000e+00		0.000000e+00
0.000000e+00		0.000000e+00		0.000000e+00
0.000000e+00		0.000000e+00		0.000000e+00
0.000000e+00		0.000000e+00		0.000000e+00
0.000000e+00		0.000000e+00		0.000000e+00
0.000000e+00		0.000000e+00		0.000000e+00
0.000000e+00		0.000000e+00		0.000000e+00
0.000000e+00		0.000000e+00		0.000000e+00
0.000000e+00		0.000000e+00		0.000000e+00
0.000000e+00		0.000000e+00		0.000000e+00
0.000000e+00		0.000000e+00		0.000000e+00
0.000000e+00		0.000000e+00		0.000000e+00
0.000000e+00		0.000000e+00		0.000000e+00
0.000000e+00		0.000000e+00		0.000000e+00
0.000000e+00		0.000000e+00		0.000000e+00
0.000000e+00		0.000000e+00		0.000000e+00
0.000000e+00		0.000000e+00		0.000000e+00
0.000000e+00		0.000000e+00		0.000000e+00
0.000000e+00		0.000000e+00		0.000000e+00
0.000000e+00		0.000000e+00		0.000000e+00
0.000000e+00		0.000000e+00		0.000000e+00
0.000000e+00		0.000000e+00		0.000000e+00
0.000000e+00		0.000000e+00		0.000000e+00
0.000000e+00		0.000000e+00		0.000000e+00
0.000000e+00		0.000000e+00		0.000000e+00
0.000000e+00		0.000000e+00		0.000000e+00
0.000000e+00		0.000000e+00		0.000000e+00
0.000000e+00		0.000000e+00		0.000000e+00
0.000000e+00		0.000000e+00		0.000000e+00
0.000000e+00		0.000000e+00		0.000000e+00
0.000000e+00		0.000000e+00		0.000000e+00
0.000000e+00		0.000000e+00		0.000000e+00
0.000000e+00		0.000000e+00		0.000000e+00
0.000000e+00		0.000000e+00		0.000000e+00
0.000000e+00		0.000000e+00		0.000000e+00
0.000000e+00		0.000000e+00		0.000000e+00
0.000000e+00		0.000000e+00		0.000000e+00
0.000000e+00		0.000000e+00		0.000000e+00
0.000000e+00		0.000000e+00		0.000000e+00
0.000000e+00		0.000000e+00		0.000000e+00
0.000000e+00		0.000000e+00		0.000000e+00
0.000000e+00		0.000000e+00		0.000000e+00
0.000000e+00		0.000000e+00		0.000000e+00
0.000000e+00		0.000000e+00		0.000000e+00
0.000000e+00		0.000000e+00		0.000000e+00
0.000000e+00		0.000000e+00		0.000000e+00
0.000000e+00		0.000000e+00		0.000000e+00
0.000000e+00		0.000000e+00		0.000000e+00
0.000000e+00		0.000000e+00		0.000000e+00
0.000000e+00		0.000000e+00		0.000000e+00
0.000000e+00		0.000000e+00		0.000000e+00
0.000000e+00		0.000000e+00		0.000000e+00
0.000000e+00		0.000000e+00		0.000000e+00
0.000000e+00		0.000000e+00		0.000000e+00
0.000000e+00		0.000000e+00		0.000000e+00
0.000000e+00		0.000000e+00		0.000000e+00
0.000000e+00		0.000000e+00		0.000000e+00
0.000000e+00		0.000000e+00		0.000000e+00
0.000000e+00		0.000000e+00		0.000000e+00
0.000000e+00		0.000000e+00		0.000000e+00
0.000000e+00		0.000000e+00		0.000000e+00
0.000000e+00		0.000000e+00		0.000000e+00
0.000000e+00		0.000000e+00		0.000000e+00
0.000000e+00		0.000000e+00		0.000000e+00
0.000000e+00		0.000000e+00		0.000000e+00
0.000000e+00		0.000000e+00		0.000000e+00
0.000000e+00		0.000000e+00		0.000000e+00
0.000000e+00		0.000000e+00		0.000000e+00
0.000000e+00		0.000000e+00		0.000000e+00
0.000000e+00		0.000000e+00		0.000000e+00
0.000000e+00		0.000000e+00		0.000000e+00
0.000000e+00		0.000000e+00		0.000000e+00
0.000000e+00		0.000000e+00		0.000000e+00
0.000000e+00		0.000000e+00		0.000000e+00
0.000000e+00		0.000000e+00		0.000000e+00
0.000000e+00		0.000000e+00		0.000000e+00
0.000000e+00		0.000000e+00		0.000000e+00
0.000000e+00		0.000000e+00		0.000000e+00
0.000000e+00		0.000000e+00		0.000000e+00
0.000000e+00		0.000000e+00		0.000000e+00
0.000000e+00		0.000000e+00		0.000000e+00
0.000000e+00		0.000000e+00		0.000000e+00
0.000000e+00		0.000000e+00		0.000000e+00
0.000000e+00		0.000000e+00		0.000000e+00
0.000000e+00		0.000000e+00		0.000000e+00
0.000000e+00		0.000000e+00		0.000000e+00
0.000000e+00		0.000000e+00		0.000000e+00
0.000000e+00		0.000000e+00		0.000000e+00
0.000000e+00		0.000000e+00		0.000000e+00
0.000000e+00		0.000000e+00		0.000000e+00
0.000000e+00		0.000000e+00		0.000000e+00
0.000000e+00		0.000000e+00		0.000000e+00
0.000000e+00		0.000000e+00		0.000000e+00
0.000000e+00		0.000000e+00		0.000000e+00
0.000000e+00		0.000000e+00		0.000000e+00
0.000000e+00		0.000000e+00		0.000000e+00
0.000000e+00		0.000000e+00		0.000000e+00
0.000000e+00		0.000000e+00		0.000000e+00
0.000000e+00		0.000000e+00		0.000000e+00
0.000000e+00		0.000000e+00		0.000000e+00
0.000000e+00		0.000000e+00		0.000000e+00
0.000000e+00		0.000000e+00		0.000000e+00
0.000000e+00		0.000000e+00		0.000000e+00
0.000000e+00		0.000000e+00		0.000000e+00
0.000000e+00		0.000000e+00		0.000000e+00
0.000000e+00		0.000000e+00		0.000000e+00
0.000000e+00		0.000000e+00		0.000000e+00
0.000000e+00		0.000000e+00		0.000000e+00
0.000000e+00		0.000000e+00		0.000000e+00
0.000000e+00		0.000000e+00		0.000000e+00
0.000000e+00		0.000000e+00		0.000000e+00
0.000000e+00		0.000000e+00		0.000000e+00
0.000000e+00		0.000000e+00		0.000000e+00
0.000000e+00		0.000000e+00		0.000000e+00
0.000000e+00		0.000000e+00		0.000000e+00
0.000000e+00		0.000000e+00		0.000000e+00
0.000000e+00		0.000000e+00		0.000000e+00
TENSORS stress double
1.982855e+10		-5.535036e-05		9.507704e+09
-5.535036e-05		1.982855e+10		1.425327e+10
9.507704e+09		1.425327e+10		4.413451e+10
1.737529e+10		-1.379848e-05		1.132476e+10
-1.379848e-05		1.737529e+10		8.005119e+09
1.132476e+10		8.005119e+09		3.867402e+10
1.609538e+10		-2.520578e-05		1.244870e+10
-2.520578e-05		1.609538e+10		2.882994e+09
1.244870e+10		2.882994e+09		3.582521e+10
1.666608e+10		-1.705997e-05		1.299724e+10
-1.705997e-05		1.666608e+10		1.233976e+09
1.299724e+10		1.233976e+09		3.709548e+10
1.736116e+10		-1.193956e-05		1.317664e+10
-1.193956e-05		1.736116e+10		1.157410e-04
1.317664e+10		1.157410e-04		3.864259e+10
1.666608e+10		-1.606718e-05		1.299724e+10
-1.606718e-05		1.666608e+10		-1.233976e+09
1.299724e+10		-1.233976e+09		3.709548e+10
1.609538e+10		3.073364e-07		1.244870e+10
3.073364e-07		1.609538e+10		-2.882994e+09
1.244870e+10		-2.882994e+09		3.582521e+10
1.737529e+10		-1.383759e-05		1.132476e+10
-1.383759e-05		1.737529e+10		-8.005119e+09
1.132476e+10		-8.005119e+09		3.867402e+10
1.982855e+10		9.353086e-05		9.507704e+09
9.353086e-05		1.982855e+10		-1.425327e+10
9.507704e+09		-1.425327e+10		4.413451e+10
1.323881e+10		1.203269e-05		3.187260e+09
1.203269e-05		1.323881e+10		1.060566e+10
3.187260e+09		1.060566e+10		2.946703e+10
9.480577e+09		-1.245271e-05		6.109113e+09
-1.245271e-05		9.480577e+09		2.132042e+09
6.109113e+09		2.132042e+09		2.110193e+10
1.020607e+10		-1.324480e-05		6.538319e+09
-1.324480e-05		1.020607e+10		9.611249e-05
6.538319e+09		9.611249e-05		2.271674e+10
9.480577e+09		-1.711026e-05		6.109113e+09
-1.711026e-05		9.480577e+09		-2.132042e+09
6.109113e+09		-2.132042e+09		2.110193e+10
1.323881e+10		-1.388043e-05		3.187260e+09
-1.388043e-05		1.323881e+10		-1.060566e+10
3.187260e+09		-1.060566e+10		2.946703e+10
7.617683e+09		4.515052e-06		-1.590617e+09
4.515052e-06		7.617683e+09		7.003988e+09
-1.590617e+09		7.003988e+09		1.695549e+10
5.807516e+09		-8.516014e-06		4.989458e+08
-8.516014e-06		5.807516e+09		3.910174e+09
4.989458e+08		3.910174e+09		1.292641e+10
4.614208e+09		9.164214e-07		1.738279e+09
9.164214e-07		4.614208e+09		1.414637e+09
1.738279e+09		1.414637e+09		1.027033e+10
4.735005e+09		-2.478249e-06		1.960218e+09
-2.478249e-06		4.735005e+09		5.819406e+08
1.960218e+09		5.819406e+08		1.053920e+10
5.001333e+09		-1.834007e-06		1.920593e+09
-1.834007e-06		5.001333e+09		8.486025e-05
1.920593e+09		8.486025e-05		1.113200e+10
4.735005e+09		-2.216548e-07		1.960218e+09
-2.216548e-07		4.735005e+09		-5.819406e+08
1.960218e+09		-5.819406e+08		1.053920e+10
4.614208e+09		-4.870817e-06		1.738279e+09
-4.870817e-06		4.614208e+09		-1.414637e+09
1.738279e+09		-1.414637e+09		1.027033e+10
5.807516e+09		5.072914e-06		4.989458e+08
5.072914e-06		5.807516e+09		-3.910174e+09
4.989458e+08		-3.910174e+09		1.292641e+10
7.617683e+09		3.147870e-06		-1.590617e+09
3.147870e-06		7.617683e+09		-7.003988e+09
-1.590617e+09		-7.003988e+09		1.695549e+10
3.611583e+09		2.339482e-06		-2.029634e+09
2.339482e-06		3.611583e+09		3.551231e+09
-2.029634e+09		3.551231e+09		8.038684e+09
2.085509e+09		-3.871508e-06		1.300214e+09
-3.871508e-06		2.085509e+09		7.240979e+08
1.300214e+09		7.240979e+08		4.641940e+09
2.267537e+09		-5.604699e-06		1.503179e+09
-5.604699e-06		2.267537e+09		5.242694e-05
1.503179e+09		5.242694e-05		5.047099e+09
2.085509e+09		-5.926937e-06		1.300214e+09
-5.926937e-06		2.085509e+09		-7.240979e+08
1.300214e+09		-7.240979e+08		4.641940e+09
3.611583e+09		4.902482e-06		-2.029634e+09
4.902482e-06		3.611583e+09		-3.551231e+09
-2.029634e+09		-3.551231e+09		8.038684e+09
2.967641e-04		-3.650784e-06		-1.769455e+09
-3.650784e-06		2.998523e-04		2.313890e-04
-1.769455e+09		2.313890e-04		6.721169e-04
1.764111e-04		-3.162771e-06		4.235521e+08
-3.162771e-06		1.843944e-04		1.265071e-04
4.235521e+08		1.265071e-04		4.052520e-04
1.322217e-04		-8.922070e-07		1.594838e+09
-8.922070e-07		1.290329e-04		5.055720e-05
1.594838e+09		5.055720e-05		2.943426e-04
6.635487e-05		-4.292000e-06		1.854442e+09
-4.292000e-06		7.377192e-05		3.277161e-05
1.854442e+09		3.277161e-05		1.658052e-04
7.706136e-05		-1.914334e-06		1.882492e+09
-1.914334e-06		7.439591e-05		3.331306e-05
1.882492e+09		3.331306e-05		1.700893e-04
2.580136e-05		-3.393739e-06		1.854442e+09
-3.393739e-06		3.289059e-05		2.516340e-05
1.854442e+09		2.516340e-05		7.550418e-05
3.900938e-05		-2.553686e-06		1.594838e+09
-2.553686e-06		3.526313e-05		1.354446e-05
1.594838e+09		1.354446e-05		8.955598e-05
-1.628138e-05		-5.081296e-06		4.235521e+08
-5.081296e-06		-1.044106e-05		2.045603e-05
4.235521e+08		2.045603e-05		-3.036857e-05
-3.001466e-05		-7.595867e-06		-1.769455e+09
-7.595867e-06		-3.610831e-05		2.742978e-05
-1.769455e+09		2.742978e-05		-6.093085e-05
-3.611583e+09		-5.237758e-06		-2.029634e+09
-5.237758e-06		-3.611583e+09		-3.551231e+09
-2.029634e+09		-3.551231e+09		-8.038684e+09
-2.085509e+09		-8.332543e-06		1.300214e+09
-8.332543e-06		-2.085509e+09		-7.240979e+08
1.300214e+09		-7.240979e+08		-4.641940e+09
-2.267537e+09		-5.057547e-06		1.503179e+09
-5.057547e-06		-2.267537e+09		6.165355e-06
1.503179e+09		6.165355e-06		-5.047099e+09
-2.085509e+09		-2.894551e-06		1.300214e+09
-2.894551e-06		-2.085509e+09		7.240979e+08
1.300214e+09		7.240979e+08		-4.641940e+09
-3.611583e+09		7.964671e-06		-2.029634e+09
7.964671e-06		-3.611583e+09		3.551231e+09
-2.029634e+09		3.551231e+09		-8.038684e+09
-7.617683e+09		-2.262602e-05		-1.590617e+09
-2.262602e-05		-7.617683e+09		-7.003988e+09
-1.590617e+09		-7.003988e+09		-1.695549e+10
-5.807516e+09		4.610047e-06		4.989458e+08
4.610047e-06		-5.807516e+09		-3.910174e+09
4.989458e+08		-3.910174e+09		-1.292641e+10
-4.614208e+09		-2.679764e-06		1.738279e+09
-2.679764e-06		-4.614208e+09		-1.414637e+09
1.738279e+09		-1.414637e+09		-1.027033e+10
-4.735005e+09		-7.187482e-07		1.960218e+09
-7.187482e-07		-4.735005e+09		-5.819406e+08
1.960218e+09		-5.819406e+08		-1.053920e+10
-5.001333e+09		-4.134839e-06		1.920593e+09
-4.134839e-06		-5.001333e+09		-2.410728e-05
1.920593e+09		-2.410728e-05		-1.113200e+10
-4.735005e+09		-3.582798e-06		1.960218e+09
-3.582798e-06		-4.735005e+09		5.819406e+08
1.960218e+09		5.819406e+08		-1.053920e+10
-4.614208e+09		-2.496367e-06		1.738279e+09
-2.496367e-06		-4.614208e+09		1.414637e+09
1.738279e+09		1.414637e+09		-1.027033e+10
-5.807516e+09		-1.128603e-05		4.989458e+08
-1.128603e-05		-5.807516e+09		3.910174e+09
4.989458e+08		3.910174e+09		-1.292641e+10
-7.617683e+09		-1.037109e-05		-1.590617e+09
-1.037109e-05		-7.617683e+09		7.003988e+09
-1.590617e+09		7.003988e+09		-1.695549e+10
-1.323881e+10		-8.379109e-06		3.187260e+09
-8.379109e-06		-1.323881e+10		-1.060566e+10
3.187260e+09		-1.060566e+10		-2.946703e+10
-9.480577e+09		-1.580990e-05		6.109113e+09
-1.580990e-05		-9.480577e+09		-2.132042e+09
6.109113e+09		-2.132042e+09		-2.110193e+10
-1.020607e+10		-7.920433e-06		6.538319e+09
-7.920433e-06		-1.020607e+10		-5.438924e-05
6.538319e+09		-5.438924e-05		-2.271674e+10
-9.480577e+09		-2.119603e-06		6.109113e+09
-2.119603e-06		-9.480577e+09		2.132042e+09
6.109113e+09		2.132042e+09		-2.110193e+10
-1.323881e+10		-3.248570e-07		3.187260e+09
-3.248570e-07		-1.323881e+10		1.060566e+10
3.187260e+09		1.060566e+10		-2.946703e+10
-1.982855e+10		-7.125456e-05		9.507704e+09
-7.125456e-05		-1.982855e+10		-1.425327e+10
9.507704e+09		-1.425327e+10		-4.413451e+10
-1.737529e+10		2.551265e-05		1.132476e+10
2.551265e-05		-1.737529e+10		-8.005119e+09
1.132476e+10		-8.005119e+09		-3.867402e+10
-1.609538e+10		-4.365575e-07		1.244870e+10
-4.365575e-07		-1.609538e+10		-2.882994e+09
1.244870e+10		-2.882994e+09		-3.582521e+10
-1.666608e+10		2.878252e-06		1.299724e+10
2.878252e-06		-1.666608e+10		-1.233976e+09
1.299724e+10		-1.233976e+09		-3.709548e+10
-1.736116e+10		1.732679e-05		1.317664e+10
1.732679e-05		-1.736116e+10		-1.424626e-04
1.317664e+10		-1.424626e-04		-3.864259e+10
-1.666608e+10		-5.822629e-06		1.299724e+10
-5.822629e-06		-1.666608e+10		1.233976e+09
1.299724e+10		1.233976e+09		-3.709548e+10
-1.609538e+10		3.878376e-05		1.244870e+10
3.878376e-05		-1.609538e+10		2.882994e+09
1.244870e+10		2.882994e+09		-3.582521e+10
-1.737529e+10		-2.878672e-05		1.132476e+10
-2.878672e-05		-1.737529e+10		8.005119e+09
1.132476e+10		8.005119e+09		-3.867402e+10
-1.982855e+10		8.300843e-05		9.507704e+09
8.300843e-05		-1.982855e+10		1.425327e+10
9.507704e+09		1.425327e+10		-4.413451e+10
5.522716e+09		-5.637649e+08		3.015738e+09
-5.637649e+08		5.671664e+09		5.865282e+09
3.015738e+09		5.865282e+09		3.187625e+10
5.516959e+09		-2.141117e+07		5.393952e+09
-2.141117e+07		8.516471e+09		3.219753e+09
5.393952e+09		3.219753e+09		3.091540e+10
5.998012e+09		-9.406358e-07		5.627118e+09
-9.406358e-07		1.038314e+10		1.443028e-04
5.627118e+09		1.443028e-04		3.146299e+10
5.516959e+09		2.141117e+07		5.393952e+09
2.141117e+07		8.516471e+09		-3.219753e+09
5.393952e+09		-3.219753e+09		3.091540e+10
5.522716e+09		5.637649e+08		3.015738e+09
5.637649e+08		5.671664e+09		-5.865282e+09
3.015738e+09		-5.865282e+09		3.187625e+10
3.205159e+09		-4.524591e+08		6.905992e+08
-4.524591e+08		2.367328e+09		2.795110e+09
6.905992e+08		2.795110e+09		1.424930e+10
3.446112e+09		-2.065728e+08		3.902018e+09
-2.065728e+08		3.715200e+09		1.382144e+09
3.902018e+09		1.382144e+09		1.311672e+10
3.612888e+09		1.888722e-06		4.346080e+09
1.888722e-06		4.609487e+09		1.084507e-04
4.346080e+09		1.084507e-04		1.311269e+10
3.446112e+09		2.065728e+08		3.902018e+09
2.065728e+08		3.715200e+09		-1.382144e+09
3.902018e+09		-1.382144e+09		1.311672e+10
3.205159e+09		4.524591e+08		6.905992e+08
4.524591e+08		2.367328e+09		-2.795110e+09
6.905992e+08		-2.795110e+09		1.424930e+10
1.978576e-04		-4.772170e+08		2.435753e+08
-4.772170e+08		1.117438e-04		8.885935e-05
2.435753e+08		8.885935e-05		5.034804e-04
1.118183e-04		-3.485559e+08		3.567178e+09
-3.485559e+08		8.626282e-05		7.191848e-05
3.567178e+09		7.191848e-05		2.905726e-04
6.386638e-05		1.415610e-06		3.956382e+09
1.415610e-06		6.699562e-05		5.340506e-05
3.956382e+09		5.340506e-05		1.696348e-04
1.889467e-05		3.485559e+08		3.567178e+09
3.485559e+08		1.539290e-05		3.412645e-05
3.567178e+09		3.412645e-05		5.184114e-05
-2.247095e-05		4.772170e+08		2.435753e+08
4.772170e+08		-9.685755e-06		2.051797e-05
2.435753e+08		2.051797e-05		-6.699562e-05
-3.205159e+09		-4.524591e+08		6.905992e+08
-4.524591e+08		-2.367328e+09		-2.795110e+09
6.905992e+08		-2.795110e+09		-1.424930e+10
-3.446112e+09		-2.065728e+08		3.902018e+09
-2.065728e+08		-3.715200e+09		-1.382144e+09
3.902018e+09		-1.382144e+09		-1.311672e+10
-3.612888e+09		2.279878e-06		4.346080e+09
2.279878e-06		-4.609487e+09		-1.210719e-05
4.346080e+09		-1.210719e-05		-1.311269e+10
-3.446112e+09		2.065728e+08		3.902018e+09
2.065728e+08		-3.715200e+09		1.382144e+09
3.902018e+09		1.382144e+09		-1.311672e+10
-3.205159e+09		4.524591e+08		6.905992e+08
4.524591e+08		-2.367328e+09		2.795110e+09
6.905992e+08		2.795110e+09		-1.424930e+10
-5.522716e+09		-5.637649e+08		3.015738e+09
-5.637649e+08		-5.671664e+09		-5.865282e+09
3.015738e+09		-5.865282e+09		-3.187625e+10
-5.516959e+09		-2.141117e+07		5.393952e+09
-2.141117e+07		-8.516471e+09		-3.219753e+09
5.393952e+09		-3.219753e+09		-3.091540e+10
-5.998012e+09		2.752524e-05		5.627118e+09
2.752524e-05		-1.038314e+10		-1.349449e-04
5.627118e+09		-1.349449e-04		-3.146299e+10
-5.516959e+09		2.141117e+07		5.393952e+09
2.141117e+07		-8.516471e+09		3.219753e+09
5.393952e+09		3.219753e+09		-3.091540e+10
-5.522716e+09		5.637649e+08		3.015738e+09
5.637649e+08		-5.671664e+09		5.865282e+09
3.015738e+09		5.865282e+09		-3.187625e+10
-2.085232e+09		3.283319e+08		-1.627790e+09
3.283319e+08		-1.970407e+09		-7.156574e+08
-1.627790e+09		-7.156574e+08		2.280041e+10
-1.136261e+09		3.892859e+08		-7.820599e+08
3.892859e+08		1.542932e+09		1.662213e+09
-7.820599e+08		1.662213e+09		2.502757e+10
-8.924265e+08		-6.424945e+07		-8.542000e+08
-6.424945e+07		4.049369e+09		3.178250e+09
-8.542000e+08		3.178250e+09		2.655609e+10
-1.374029e+09		-8.713675e+06		-6.357199e+08
-8.713675e+06		4.018863e+09		1.215325e+09
-6.357199e+08		1.215325e+09		2.577692e+10
-1.318299e+09		-1.890119e-05		-6.759185e+08
-1.890119e-05		4.869918e+09		1.365319e-04
-6.759185e+08		1.365319e-04		2.545986e+10
-1.374029e+09		8.713675e+06		-6.357199e+08
8.713675e+06		4.018863e+09		-1.215325e+09
-6.357199e+08		-1.215325e+09		2.577692e+10
-8.924265e+08		6.424945e+07		-8.542000e+08
6.424945e+07		4.049369e+09		-3.178250e+09
-8.542000e+08		-3.178250e+09		2.655609e+10
-1.136261e+09		-3.892859e+08		-7.820599e+08
-3.892859e+08		1.542932e+09		-1.662213e+09
-7.820599e+08		-1.662213e+09		2.502757e+10
-2.085232e+09		-3.283319e+08		-1.627790e+09
-3.283319e+08		-1.970407e+09		7.156574e+08
-1.627790e+09		7.156574e+08		2.280041e+10
-1.936224e+07		2.305315e+07		6.755187e+08
2.305315e+07		-1.078930e+09		-1.032249e+09
6.755187e+08		-1.032249e+09		1.739828e+10
1.786964e+09		-4.333925e+08		2.491742e+09
-4.333925e+08		4.039650e+09		1.998005e+09
2.491742e+09		1.998005e+09		2.094685e+10
1.545680e+09		-1.970679e-06		3.016379e+09
-1.970679e-06		4.794902e+09		1.386795e-04
3.016379e+09		1.386795e-04		2.013586e+10
1.786964e+09		4.333925e+08		2.491742e+09
4.333925e+08		4.039650e+09		-1.998005e+09
2.491742e+09		-1.998005e+09		2.094685e+10
-1.936224e+07		-2.305315e+07		6.755187e+08
-2.305315e+07		-1.078930e+09		1.032249e+09
6.755187e+08		1.032249e+09		1.739828e+10
1.235417e+09		-1.359549e+08		2.845057e+09
-1.359549e+08		-4.095906e+08		-5.314500e+08
2.845057e+09		-5.314500e+08		1.213558e+10
2.656169e+09		-2.663709e+08		4.602690e+09
-2.663709e+08		1.959401e+09		6.173662e+08
4.602690e+09		6.173662e+08		1.402266e+10
3.551043e+09		-6.484759e+08		5.364906e+09
-6.484759e+08		3.739057e+09		1.335458e+09
5.364906e+09		1.335458e+09		1.539782e+10
3.335583e+09		-1.290746e+08		5.896836e+09
-1.290746e+08		3.845801e+09		5.007594e+08
5.896836e+09		5.007594e+08		1.500437e+10
3.417034e+09		-1.090346e-05		6.162150e+09
-1.090346e-05		4.394779e+09		1.165438e-04
6.162150e+09		1.165438e-04		1.487728e+10
3.335583e+09		1.290746e+08		5.896836e+09
1.290746e+08		3.845801e+09		-5.007594e+08
5.896836e+09		-5.007594e+08		1.500437e+10
3.551043e+09		6.484759e+08		5.364906e+09
6.484759e+08		3.739057e+09		-1.335458e+09
5.364906e+09		-1.335458e+09		1.539782e+10
2.656169e+09		2.663709e+08		4.602690e+09
2.663709e+08		1.959401e+09		-6.173662e+08
4.602690e+09		-6.173662e+08		1.402266e+10
1.235417e+09		1.359549e+08		2.845057e+09
1.359549e+08		-4.095906e+08		5.314500e+08
2.845057e+09		5.314500e+08		1.213558e+10
-4.394308e+07		-3.777661e+08		2.343404e+09
-3.777661e+08		-5.774200e+08		-2.616135e+08
2.343404e+09		-2.616135e+08		5.644993e+09
1.152091e+09		-8.765319e+08		4.564812e+09
-8.765319e+08		1.522014e+09		6.613558e+08
4.564812e+09		6.613558e+08		7.290501e+09
1.067293e+09		-2.430752e-06		5.227407e+09
-2.430752e-06		1.848307e+09		9.523332e-05
5.227407e+09		9.523332e-05		7.014566e+09
1.152091e+09		8.765319e+08		4.564812e+09
8.765319e+08		1.522014e+09		-6.613558e+08
4.564812e+09		-6.613558e+08		7.290501e+09
-4.394308e+07		3.777661e+08		2.343404e+09
3.777661e+08		-5.774200e+08		2.616135e+08
2.343404e+09		2.616135e+08		5.644993e+09
1.357459e-04		-3.718356e+08		2.555082e+09
-3.718356e+08		1.138076e-06		-2.408761e-05
2.555082e+09		-2.408761e-05		3.640354e-04
1.247078e-04		-5.857259e+08		4.287394e+09
-5.857259e+08		4.831702e-05		5.038525e-05
4.287394e+09		5.038525e-05		3.490672e-04
1.165513e-04		-1.011982e+09		4.907442e+09
-1.011982e+09		7.819198e-05		9.686676e-05
4.907442e+09		9.686676e-05		3.264770e-04
8.517876e-05		-2.701249e+08		5.394696e+09
-2.701249e+08		6.115064e-05		7.869829e-05
5.394696e+09		7.869829e-05		2.527013e-04
5.629659e-05		-1.638569e-05		5.553131e+09
-1.638569e-05		5.651452e-05		7.451044e-05
5.553131e+09		7.451044e-05		1.939237e-04
3.100932e-05		2.701249e+08		5.394696e+09
2.701249e+08		2.806261e-05		4.702080e-05
5.394696e+09		4.702080e-05		1.185834e-04
1.366623e-05		1.011982e+09		4.907442e+09
1.011982e+09		-8.754432e-07		5.465019e-05
4.907442e+09		5.465019e-05		5.025789e-05
9.067357e-06		5.857259e+08		4.287394e+09
5.857259e+08		1.266599e-05		2.514780e-05
4.287394e+09		2.514780e-05		1.611188e-05
-1.385435e-05		3.718356e+08		2.555082e+09
3.718356e+08		1.739990e-05		1.079496e-05
2.555082e+09		1.079496e-05		-1.779199e-05
4.394308e+07		-3.777661e+08		2.343404e+09
-3.777661e+08		5.774200e+08		2.616135e+08
2.343404e+09		2.616135e+08		-5.644993e+09
-1.152091e+09		-8.765319e+08		4.564812e+09
-8.765319e+08		-1.522014e+09		-6.613558e+08
4.564812e+09		-6.613558e+08		-7.290501e+09
-1.067293e+09		-2.887100e-06		5.227407e+09
-2.887100e-06		-1.848307e+09		4.187319e-05
5.227407e+09		4.187319e-05		-7.014566e+09
-1.152091e+09		8.765319e+08		4.564812e+09
8.765319e+08		-1.522014e+09		6.613558e+08
4.564812e+09		6.613558e+08		-7.290501e+09
4.394308e+07		3.777661e+08		2.343404e+09
3.777661e+08		5.774200e+08		-2.616135e+08
2.343404e+09		-2.616135e+08		-5.644993e+09
-1.235417e+09		-1.359549e+08		2.845057e+09
-1.359549e+08		4.095906e+08		5.314500e+08
2.845057e+09		5.314500e+08		-1.213558e+10
-2.656169e+09		-2.663709e+08		4.602690e+09
-2.663709e+08		-1.959401e+09		-6.173662e+08
4.602690e+09		-6.173662e+08		-1.402266e+10
-3.551043e+09		-6.484759e+08		5.364906e+09
-6.484759e+08		-3.739057e+09		-1.335458e+09
5.364906e+09		-1.335458e+09		-1.539782e+10
-3.335583e+09		-1.290746e+08		5.896836e+09
-1.290746e+08		-3.845801e+09		-5.007594e+08
5.896836e+09		-5.007594e+08		-1.500437e+10
-3.417034e+09		-1.015002e-05		6.162150e+09
-1.015002e-05		-4.394779e+09		1.530163e-05
6.162150e+09		1.530163e-05		-1.487728e+10
-3.335583e+09		1.290746e+08		5.896836e+09
1.290746e+08		-3.845801e+09		5.007594e+08
5.896836e+09		5.007594e+08		-1.500437e+10
-3.551043e+09		6.484759e+08		5.364906e+09
6.484759e+08		-3.739057e+09		1.335458e+09
5.364906e+09		1.335458e+09		-1.539782e+10
-2.656169e+09		2.663709e+08		4.602690e+09
2.663709e+08		-1.959401e+09		6.173662e+08
4.602690e+09		6.173662e+08		-1.402266e+10
-1.235417e+09		1.359549e+08		2.845057e+09
1.359549e+08		4.095906e+08		-5.314500e+08
2.845057e+09		-5.314500e+08		-1.213558e+10
1.936224e+07		2.305315e+07		6.755187e+08
2.305315e+07		1.078930e+09		1.032249e+09
6.755187e+08		1.032249e+09		-1.739828e+10
-1.786964e+09		-4.333925e+08		2.491742e+09
-4.333925e+08		-4.039650e+09		-1.998005e+09
2.491742e+09		-1.998005e+09		-2.094685e+10
-1.545680e+09		-8.348376e-06		3.016379e+09
-8.348376e-06		-4.794902e+09		-3.292505e-05
3.016379e+09		-3.292505e-05		-2.013586e+10
-1.786964e+09		4.333925e+08		2.491742e+09
4.333925e+08		-4.039650e+09		1.998005e+09
2.491742e+09		1.998005e+09		-2.094685e+10
1.936224e+07		-2.305315e+07		6.755187e+08
-2.305315e+07		1.078930e+09		-1.032249e+09
6.755187e+08		-1.032249e+09		-1.739828e+10
2.085232e+09		3.283319e+08		-1.627790e+09
3.283319e+08		1.970407e+09		7.156574e+08
-1.627790e+09		7.156574e+08		-2.280041e+10
1.136261e+09		3.892859e+08		-7.820599e+08
3.892859e+08		-1.542932e+09		-1.662213e+09
-7.820599e+08		-1.662213e+09		-2.502757e+10
8.924265e+08		-6.424945e+07		-8.542000e+08
-6.424945e+07		-4.049369e+09		-3.178250e+09
-8.542000e+08		-3.178250e+09		-2.655609e+10
1.374029e+09		-8.713675e+06		-6.357199e+08
-8.713675e+06		-4.018863e+09		-1.215325e+09
-6.357199e+08		-1.215325e+09		-2.577692e+10
1.318299e+09		1.871493e-05		-6.759185e+08
1.871493e-05		-4.869918e+09		-1.149997e-04
-6.759185e+08		-1.149997e-04		-2.545986e+10
1.374029e+09		8.713675e+06		-6.357199e+08
8.713675e+06		-4.018863e+09		1.215325e+09
-6.357199e+08		1.215325e+09		-2.577692e+10
8.924265e+08		6.424945e+07		-8.542000e+08
6.424945e+07		-4.049369e+09		3.178250e+09
-8.542000e+08		3.178250e+09		-2.655609e+10
1.136261e+09		-3.892859e+08		-7.820599e+08
-3.892859e+08		-1.542932e+09		1.662213e+09
-7.820599e+08		1.662213e+09		-2.502757e+10
2.085232e+09		-3.283319e+08		-1.627790e+09
-3.283319e+08		1.970407e+09		-7.156574e+08
-1.627790e+09		-7.156574e+08		-2.280041e+10
-1.999905e+09		2.482249e+08		-9.177045e+08
2.482249e+08		-2.073002e+09		-5.841934e+08
-9.177045e+08		-5.841934e+08		1.932860e+10
-1.779114e+09		7.467092e+07		-9.802942e+08
7.467092e+07		1.112523e+09		1.118811e+09
-9.802942e+08		1.118811e+09		2.178673e+10
-1.624911e+09		-2.289563e-05		-9.537944e+08
-2.289563e-05		2.577118e+09		2.174359e-04
-9.537944e+08		2.174359e-04		2.228076e+10
-1.779114e+09		-7.467092e+07		-9.802942e+08
-7.467092e+07		1.112523e+09		-1.118811e+09
-9.802942e+08		-1.118811e+09		2.178673e+10
-1.999905e+09		-2.482249e+08		-9.177045e+08
-2.482249e+08		-2.073002e+09		5.841934e+08
-9.177045e+08		5.841934e+08		1.932860e+10
-5.347785e+08		-2.890368e+08		2.642202e+09
-2.890368e+08		-1.036381e+09		-6.617677e+08
2.642202e+09		-6.617677e+08		9.706473e+09
8.083521e+08		-6.231438e+08		4.233930e+09
-6.231438e+08		1.291485e+09		2.812321e+08
4.233930e+09		2.812321e+08		1.218347e+10
9.737548e+08		-4.188344e-05		4.648769e+09
-4.188344e-05		2.292794e+09		1.231388e-04
4.648769e+09		1.231388e-04		1.268558e+10
8.083521e+08		6.231438e+08		4.233930e+09
6.231438e+08		1.291485e+09		-2.812321e+08
4.233930e+09		-2.812321e+08		1.218347e+10
-5.347785e+08		2.890368e+08		2.642202e+09
2.890368e+08		-1.036381e+09		6.617677e+08
2.642202e+09		6.617677e+08		9.706473e+09
5.379319e-05		-4.757915e+08		3.911697e+09
-4.757915e+08		-1.919270e-05		-3.344356e-05
3.911697e+09		-3.344356e-05		3.013611e-04
5.969219e-05		-1.028700e+09		5.456756e+09
-1.028700e+09		2.931058e-05		5.926415e-05
5.456756e+09		5.926415e-05		2.512187e-04
4.229927e-05		-2.088025e-05		5.949007e+09
-2.088025e-05		1.917826e-05		8.478241e-05
5.949007e+09		8.478241e-05		1.753271e-04
-3.861263e-06		1.028700e+09		5.456756e+09
1.028700e+09		1.150277e-05		5.269322e-05
5.456756e+09		5.269322e-05		9.123608e-05
-9.253621e-06		4.757915e+08		3.911697e+09
4.757915e+08		-4.760921e-06		7.133931e-07
3.911697e+09		7.133931e-07		-5.573034e-06
5.347785e+08		-2.890368e+08		2.642202e+09
-2.890368e+08		1.036381e+09		6.617677e+08
2.642202e+09		6.617677e+08		-9.706473e+09
-8.083521e+08		-6.231438e+08		4.233930e+09
-6.231438e+08		-1.291485e+09		-2.812321e+08
4.233930e+09		-2.812321e+08		-1.218347e+10
-9.737548e+08		-1.090579e-05		4.648769e+09
-1.090579e-05		-2.292794e+09		1.286785e-05
4.648769e+09		1.286785e-05		-1.268558e+10
-8.083521e+08		6.231438e+08		4.233930e+09
6.231438e+08		-1.291485e+09		2.812321e+08
4.233930e+09		2.812321e+08		-1.218347e+10
5.347785e+08		2.890368e+08		2.642202e+09
2.890368e+08		1.036381e+09		-6.617677e+08
2.642202e+09		-6.617677e+08		-9.706473e+09
1.999905e+09		2.482249e+08		-9.177045e+08
2.482249e+08		2.073002e+09		5.841934e+08
-9.177045e+08		5.841934e+08		-1.932860e+10
1.779114e+09		7.467092e+07		-9.802942e+08
7.467092e+07		-1.112523e+09		-1.118811e+09
-9.802942e+08		-1.118811e+09		-2.178673e+10
1.624911e+09		-1.152977e-05		-9.537944e+08
-1.152977e-05		-2.577118e+09		-8.346885e-05
-9.537944e+08		-8.346885e-05		-2.228076e+10
1.779114e+09		-7.467092e+07		-9.802942e+08
-7.467092e+07		-1.112523e+09		1.118811e+09
-9.802942e+08		1.118811e+09		-2.178673e+10
1.999905e+09		-2.482249e+08		-9.177045e+08
-2.482249e+08		2.073002e+09		-5.841934e+08
-9.177045e+08		-5.841934e+08		-1.932860e+10
1.612847e+08		1.367985e+08		-9.114824e+05
1.367985e+08		8.105996e+07		-3.876623e+08
-9.114824e+05		-3.876623e+08		1.877953e+10
4.517309e+08		1.201650e+08		-8.715549e+07
1.201650e+08		5.407797e+08		-9.323592e+07
-8.715549e+07		-9.323592e+07		2.057525e+10
1.430915e+08		8.575279e+07		-1.207919e+08
8.575279e+07		8.507407e+08		-5.612568e+07
-1.207919e+08		-5.612568e+07		2.092026e+10
2.627521e+08		4.486688e+07		-1.321868e+08
4.486688e+07		1.798882e+09		1.641878e+08
-1.321868e+08		1.641878e+08		2.126575e+10
2.728707e+08		-2.469495e-05		-1.920299e+08
-2.469495e-05		2.130230e+09		2.717413e-04
-1.920299e+08		2.717413e-04		2.129782e+10
2.627521e+08		-4.486688e+07		-1.321868e+08
-4.486688e+07		1.798882e+09		-1.641878e+08
-1.321868e+08		-1.641878e+08		2.126575e+10
1.430915e+08		-8.575279e+07		-1.207919e+08
-8.575279e+07		8.507407e+08		5.612568e+07
-1.207919e+08		5.612568e+07		2.092026e+10
4.517309e+08		-1.201650e+08		-8.715549e+07
-1.201650e+08		5.407797e+08		9.323592e+07
-8.715549e+07		9.323592e+07		2.057525e+10
1.612847e+08		-1.367985e+08		-9.114824e+05
-1.367985e+08		8.105996e+07		3.876623e+08
-9.114824e+05		3.876623e+08		1.877953e+10
-4.016887e+08		-8.227762e+07		1.890140e+09
-8.227762e+07		-2.411492e+07		-3.125805e+08
1.890140e+09		-3.125805e+08		1.419337e+10
3.781173e+07		-2.322520e+08		2.112960e+09
-2.322520e+08		8.457556e+08		-1.374832e+08
2.112960e+09		-1.374832e+08		1.668974e+10
2.033138e+08		-1.813285e-05		2.238446e+09
-1.813285e-05		1.975636e+09		1.705959e-04
2.238446e+09		1.705959e-04		1.727805e+10
3.781173e+07		2.322520e+08		2.112960e+09
2.322520e+08		8.457556e+08		1.374832e+08
2.112960e+09		1.374832e+08		1.668974e+10
-4.016887e+08		8.227762e+07		1.890140e+09
8.227762e+07		-2.411492e+07		3.125805e+08
1.890140e+09		3.125805e+08		1.419337e+10
-7.755313e+08		-1.819389e+08		3.590780e+09
-1.819389e+08		-8.374514e+07		-2.886555e+08
3.590780e+09		-2.886555e+08		9.536697e+09
-2.774518e+08		-3.845868e+08		3.709503e+09
-3.845868e+08		2.465095e+08		-2.117867e+08
3.709503e+09		-2.117867e+08		1.086341e+10
-2.063737e+08		-5.183453e+08		4.037175e+09
-5.183453e+08		4.697430e+08		-2.386532e+08
4.037175e+09		-2.386532e+08		1.139415e+10
-1.046569e+08		-2.375689e+08		4.237513e+09
-2.375689e+08		1.096077e+09		2.164836e+07
4.237513e+09		2.164836e+07		1.180365e+10
-8.883963e+07		-2.556387e-05		4.331969e+09
-2.556387e-05		1.338805e+09		1.241569e-04
4.331969e+09		1.241569e-04		1.193936e+10
-1.046569e+08		2.375689e+08		4.237513e+09
2.375689e+08		1.096077e+09		-2.164836e+07
4.237513e+09		-2.164836e+07		1.180365e+10
-2.063737e+08		5.183453e+08		4.037175e+09
5.183453e+08		4.697430e+08		2.386532e+08
4.037175e+09		2.386532e+08		1.139415e+10
-2.774518e+08		3.845868e+08		3.709503e+09
3.845868e+08		2.465095e+08		2.117867e+08
3.709503e+09		2.117867e+08		1.086341e+10
-7.755313e+08		1.819389e+08		3.590780e+09
1.819389e+08		-8.374514e+07		2.886555e+08
3.590780e+09		2.886555e+08		9.536697e+09
-3.024817e+08		-2.500331e+08		4.528083e+09
-2.500331e+08		-2.854274e+07		-1.689791e+08
4.528083e+09		-1.689791e+08		4.850736e+09
1.545795e+08		-7.731942e+08		5.022521e+09
-7.731942e+08		3.408848e+08		-1.303858e+08
5.022521e+09		-1.303858e+08		5.888796e+09
2.914734e+08		-1.270697e-05		5.377781e+09
-1.270697e-05		8.195324e+08		1.196275e-04
5.377781e+09		1.196275e-04		6.208420e+09
1.545795e+08		7.731942e+08		5.022521e+09
7.731942e+08		3.408848e+08		1.303858e+08
5.022521e+09		1.303858e+08		5.888796e+09
-3.024817e+08		2.500331e+08		4.528083e+09
2.500331e+08		-2.854274e+07		1.689791e+08
4.528083e+09		1.689791e+08		4.850736e+09
8.699298e-05		-2.825988e+08		5.130487e+09
-2.825988e+08		3.989786e-05		-2.637552e-05
5.130487e+09		-2.637552e-05		3.021136e-04
3.194809e-05		-7.013943e+08		5.179598e+09
-7.013943e+08		6.709248e-06		2.008490e-05
5.179598e+09		2.008490e-05		2.540238e-04
1.434609e-05		-9.447715e+08		5.607562e+09
-9.447715e+08		5.079433e-06		4.790803e-05
5.607562e+09		4.790803e-05		1.993179e-04
4.189834e-05		-4.163372e+08		5.886251e+09
-4.163372e+08		2.859812e-05		9.199588e-05
5.886251e+09		9.199588e-05		2.122335e-04
1.342185e-04		1.827721e-05		6.022986e+09
1.827721e-05		4.175585e-05		1.038530e-04
6.022986e+09		1.038530e-04		2.427213e-04
3.778189e-05		4.163372e+08		5.886251e+09
4.163372e+08		1.390278e-05		8.098055e-05
5.886251e+09		8.098055e-05		1.815297e-04
-2.859998e-05		9.447715e+08		5.607562e+09
9.447715e+08		1.662713e-05		6.363280e-05
5.607562e+09		6.363280e-05		1.254398e-04
-5.081296e-06		7.013943e+08		5.179598e+09
7.013943e+08		3.997236e-06		3.280421e-05
5.179598e+09		3.280421e-05		7.798523e-05
5.166978e-05		2.825988e+08		5.130487e+09
2.825988e+08		-1.862645e-06		3.087451e-06
5.130487e+09		3.087451e-06		5.711615e-05
3.024817e+08		-2.500331e+08		4.528083e+09
-2.500331e+08		2.854274e+07		1.689791e+08
4.528083e+09		1.689791e+08		-4.850736e+09
-1.545795e+08		-7.731942e+08		5.022521e+09
-7.731942e+08		-3.408848e+08		1.303858e+08
5.022521e+09		1.303858e+08		-5.888796e+09
-2.914734e+08		-7.890165e-06		5.377781e+09
-7.890165e-06		-8.195324e+08		6.786641e-05
5.377781e+09		6.786641e-05		-6.208420e+09
-1.545795e+08		7.731942e+08		5.022521e+09
7.731942e+08		-3.408848e+08		-1.303858e+08
5.022521e+09		-1.303858e+08		-5.888796e+09
3.024817e+08		2.500331e+08		4.528083e+09
2.500331e+08		2.854274e+07		-1.689791e+08
4.528083e+09		-1.689791e+08		-4.850736e+09
7.755313e+08		-1.819389e+08		3.590780e+09
-1.819389e+08		8.374514e+07		2.886555e+08
3.590780e+09		2.886555e+08		-9.536697e+09
2.774518e+08		-3.845868e+08		3.709503e+09
-3.845868e+08		-2.465095e+08		2.117867e+08
3.709503e+09		2.117867e+08		-1.086341e+10
2.063737e+08		-5.183453e+08		4.037175e+09
-5.183453e+08		-4.697430e+08		2.386532e+08
4.037175e+09		2.386532e+08		-1.139415e+10
1.046569e+08		-2.375689e+08		4.237513e+09
-2.375689e+08		-1.096077e+09		-2.164836e+07
4.237513e+09		-2.164836e+07		-1.180365e+10
8.883963e+07		2.555456e-05		4.331969e+09
2.555456e-05		-1.338805e+09		1.758011e-05
4.331969e+09		1.758011e-05		-1.193936e+10
1.046569e+08		2.375689e+08		4.237513e+09
2.375689e+08		-1.096077e+09		2.164836e+07
4.237513e+09		2.164836e+07		-1.180365e+10
2.063737e+08		5.183453e+08		4.037175e+09
5.183453e+08		-4.697430e+08		-2.386532e+08
4.037175e+09		-2.386532e+08		-1.139415e+10
2.774518e+08		3.845868e+08		3.709503e+09
3.845868e+08		-2.465095e+08		-2.117867e+08
3.709503e+09		-2.117867e+08		-1.086341e+10
7.755313e+08		1.819389e+08		3.590780e+09
1.819389e+08		8.374514e+07		-2.886555e+08
3.590780e+09		-2.886555e+08		-9.536697e+09
4.016887e+08		-8.227762e+07		1.890140e+09
-8.227762e+07		2.411492e+07		3.125805e+08
1.890140e+09		3.125805e+08		-1.419337e+10
-3.781173e+07		-2.322520e+08		2.112960e+09
-2.322520e+08		-8.457556e+08		1.374832e+08
2.112960e+09		1.374832e+08		-1.668974e+10
-2.033138e+08		4.500151e-06		2.238446e+09
4.500151e-06		-1.975636e+09		-1.842156e-05
2.238446e+09		-1.842156e-05		-1.727805e+10
-3.781173e+07		2.322520e+08		2.112960e+09
2.322520e+08		-8.457556e+08		-1.374832e+08
2.112960e+09		-1.374832e+08		-1.668974e+10
4.016887e+08		8.227762e+07		1.890140e+09
8.227762e+07		2.411492e+07		-3.125805e+08
1.890140e+09		-3.125805e+08		-1.419337e+10
-1.612847e+08		1.367985e+08		-9.114824e+05
1.367985e+08		-8.105996e+07		3.876623e+08
-9.114824e+05		3.876623e+08		-1.877953e+10
-4.517309e+08		1.201650e+08		-8.715549e+07
1.201650e+08		-5.407797e+08		9.323592e+07
-8.715549e+07		9.323592e+07		-2.057525e+10
-1.430915e+08		8.575279e+07		-1.207919e+08
8.575279e+07		-8.507407e+08		5.612568e+07
-1.207919e+08		5.612568e+07		-2.092026e+10
-2.627521e+08		4.486688e+07		-1.321868e+08
4.486688e+07		-1.798882e+09		-1.641878e+08
-1.321868e+08		-1.641878e+08		-2.126575e+10
-2.728707e+08		-1.951493e-05		-1.920299e+08
-1.951493e-05		-2.130230e+09		-9.118207e-05
-1.920299e+08		-9.118207e-05		-2.129782e+10
-2.627521e+08		-4.486688e+07		-1.321868e+08
-4.486688e+07		-1.798882e+09		1.641878e+08
-1.321868e+08		1.641878e+08		-2.126575e+10
-1.430915e+08		-8.575279e+07		-1.207919e+08
-8.575279e+07		-8.507407e+08		-5.612568e+07
-1.207919e+08		-5.612568e+07		-2.092026e+10
-4.517309e+08		-1.201650e+08		-8.715549e+07
-1.201650e+08		-5.407797e+08		-9.323592e+07
-8.715549e+07		-9.323592e+07		-2.057525e+10
-1.612847e+08		-1.367985e+08		-9.114824e+05
-1.367985e+08		-8.105996e+07		-3.876623e+08
-9.114824e+05		-3.876623e+08		-1.877953e+10
1.868641e+08		1.669816e+07		3.292490e+08
1.669816e+07		1.369169e+08		-1.318305e+08
3.292490e+08		-1.318305e+08		1.810529e+10
1.892729e+08		2.345663e+07		1.796809e+08
2.345663e+07		7.131587e+08		-3.935542e+08
1.796809e+08		-3.935542e+08		1.949176e+10
2.146788e+08		1.692679e-06		1.659539e+08
1.692679e-06		1.470240e+09		2.413988e-04
1.659539e+08		2.413988e-04		1.983977e+10
1.892729e+08		-2.345663e+07		1.796809e+08
-2.345663e+07		7.131587e+08		3.935542e+08
1.796809e+08		3.935542e+08		1.949176e+10
1.868641e+08		-1.669816e+07		3.292490e+08
-1.669816e+07		1.369169e+08		1.318305e+08
3.292490e+08		1.318305e+08		1.810529e+10
-4.285207e+08		-1.131019e+08		4.026956e+09
-1.131019e+08		6.691499e+07		4.632365e+06
4.026956e+09		4.632365e+06		9.084319e+09
-1.605416e+08		-4.485842e+08		3.798016e+09
-4.485842e+08		2.989303e+08		-2.459444e+08
3.798016e+09		-2.459444e+08		1.011630e+10
-1.482765e+08		3.246497e-05		3.948672e+09
3.246497e-05		7.540951e+08		1.546070e-04
3.948672e+09		1.546070e-04		1.046823e+10
-1.605416e+08		4.485842e+08		3.798016e+09
4.485842e+08		2.989303e+08		2.459444e+08
3.798016e+09		2.459444e+08		1.011630e+10
-4.285207e+08		1.131019e+08		4.026956e+09
1.131019e+08		6.691499e+07		-4.632365e+06
4.026956e+09		-4.632365e+06		9.084319e+09
1.513958e-05		-1.721267e+08		5.512647e+09
-1.721267e+08		-1.281500e-06		-1.510838e-05
5.512647e+09		-1.510838e-05		2.494678e-04
5.713105e-05		-7.754554e+08		5.278348e+09
-7.754554e+08		4.225969e-05		7.060578e-05
5.278348e+09		7.060578e-05		2.340861e-04
2.484489e-05		8.446164e-06		5.504772e+09
8.446164e-06		-1.737149e-05		1.043021e-04
5.504772e+09		1.043021e-04		1.732148e-04
3.401935e-05		7.754554e+08		5.278348e+09
7.754554e+08		3.309920e-06		6.763125e-05
5.278348e+09		6.763125e-05		1.062639e-04
1.016259e-05		1.721267e+08		5.512647e+09
1.721267e+08		-9.544194e-06		1.529744e-05
5.512647e+09		1.529744e-05		6.130338e-05
4.285207e+08		-1.131019e+08		4.026956e+09
-1.131019e+08		-6.691499e+07		-4.632365e+06
4.026956e+09		-4.632365e+06		-9.084319e+09
1.605416e+08		-4.485842e+08		3.798016e+09
-4.485842e+08		-2.989303e+08		2.459444e+08
3.798016e+09		2.459444e+08		-1.011630e+10
1.482765e+08		4.244130e-05		3.948672e+09
4.244130e-05		-7.540951e+08		9.110197e-06
3.948672e+09		9.110197e-06		-1.046823e+10
1.605416e+08		4.485842e+08		3.798016e+09
4.485842e+08		-2.989303e+08		-2.459444e+08
3.798016e+09		-2.459444e+08		-1.011630e+10
4.285207e+08		1.131019e+08		4.026956e+09
1.131019e+08		-6.691499e+07		4.632365e+06
4.026956e+09		4.632365e+06		-9.084319e+09
-1.868641e+08		1.669816e+07		3.292490e+08
1.669816e+07		-1.369169e+08		1.318305e+08
3.292490e+08		1.318305e+08		-1.810529e+10
-1.892729e+08		2.345663e+07		1.796809e+08
2.345663e+07		-7.131587e+08		3.935542e+08
1.796809e+08		3.935542e+08		-1.949176e+10
-2.146788e+08		1.795264e-05		1.659539e+08
1.795264e-05		-1.470240e+09		-1.301393e-04
1.659539e+08		-1.301393e-04		-1.983977e+10
-1.892729e+08		-2.345663e+07		1.796809e+08
-2.345663e+07		-7.131587e+08		-3.935542e+08
1.796809e+08		-3.935542e+08		-1.949176e+10
-1.868641e+08		-1.669816e+07		3.292490e+08
-1.669816e+07		-1.369169e+08		-1.318305e+08
3.292490e+08		-1.318305e+08		-1.810529e+10
-1.299588e+08		-2.953066e+05		5.243998e+08
-2.953066e+05		-1.519886e+08		-3.644875e+08
5.243998e+08		-3.644875e+08		1.652177e+10
-1.084428e+07		3.306335e+07		2.362236e+08
3.306335e+07		2.062597e+08		-6.503122e+08
2.362236e+08		-6.503122e+08		1.707940e+10
-7.007781e+07		9.481833e+06		2.373224e+08
9.481833e+06		4.562827e+08		-8.238482e+08
2.373224e+08		-8.238482e+08		1.738614e+10
-6.733336e+07		2.324574e+07		1.981420e+08
2.324574e+07		7.040391e+08		-3.578718e+08
1.981420e+08		-3.578718e+08		1.765465e+10
-3.332249e+07		7.854309e-06		2.055715e+08
7.854309e-06		9.118011e+08		3.374927e-04
2.055715e+08		3.374927e-04		1.784299e+10
-6.733336e+07		-2.324574e+07		1.981420e+08
-2.324574e+07		7.040391e+08		3.578718e+08
1.981420e+08		3.578718e+08		1.765465e+10
-7.007781e+07		-9.481833e+06		2.373224e+08
-9.481833e+06		4.562827e+08		8.238482e+08
2.373224e+08		8.238482e+08		1.738614e+10
-1.084428e+07		-3.306335e+07		2.362236e+08
-3.306335e+07		2.062597e+08		6.503122e+08
2.362236e+08		6.503122e+08		1.707940e+10
-1.299588e+08		2.953066e+05		5.243998e+08
2.953066e+05		-1.519886e+08		3.644875e+08
5.243998e+08		3.644875e+08		1.652177e+10
-1.981173e+08		-5.615565e+07		2.609987e+09
-5.615565e+07		-1.252521e+08		-1.283731e+08
2.609987e+09		-1.283731e+08		1.217355e+10
-6.008556e+07		-1.891695e+08		2.065896e+09
-1.891695e+08		3.091969e+08		-5.217731e+08
2.065896e+09		-5.217731e+08		1.302108e+10
3.821895e+06		6.436650e-05		2.033200e+09
6.436650e-05		6.757521e+08		2.234399e-04
2.033200e+09		2.234399e-04		1.349012e+10
-6.008556e+07		1.891695e+08		2.065896e+09
1.891695e+08		3.091969e+08		5.217731e+08
2.065896e+09		5.217731e+08		1.302108e+10
-1.981173e+08		5.615565e+07		2.609987e+09
5.615565e+07		-1.252521e+08		1.283731e+08
2.609987e+09		1.283731e+08		1.217355e+10
-2.497061e+08		-6.421114e+07		4.643478e+09
-6.421114e+07		-4.598720e+07		-7.080836e+07
4.643478e+09		-7.080836e+07		8.105816e+09
-1.443122e+08		-2.121218e+08		4.085282e+09
-2.121218e+08		6.213465e+07		-2.304035e+08
4.085282e+09		-2.304035e+08		8.406966e+09
-1.053563e+08		-3.584184e+08		3.849656e+09
-3.584184e+08		1.537252e+08		-3.413845e+08
3.849656e+09		-3.413845e+08		8.703440e+09
-8.449422e+07		-1.721913e+08		3.833448e+09
-1.721913e+08		3.036420e+08		-1.575189e+08
3.833448e+09		-1.575189e+08		8.941485e+09
-6.215025e+07		1.535751e-05		3.820223e+09
1.535751e-05		4.134628e+08		1.611267e-04
3.820223e+09		1.611267e-04		9.066494e+09
-8.449422e+07		1.721913e+08		3.833448e+09
1.721913e+08		3.036420e+08		1.575189e+08
3.833448e+09		1.575189e+08		8.941485e+09
-1.053563e+08		3.584184e+08		3.849656e+09
3.584184e+08		1.537252e+08		3.413845e+08
3.849656e+09		3.413845e+08		8.703440e+09
-1.443122e+08		2.121218e+08		4.085282e+09
2.121218e+08		6.213465e+07		2.304035e+08
4.085282e+09		2.304035e+08		8.406966e+09
-2.497061e+08		6.421114e+07		4.643478e+09
6.421114e+07		-4.598720e+07		7.080836e+07
4.643478e+09		7.080836e+07		8.105816e+09
-2.013711e+08		-9.466943e+07		5.443372e+09
-9.466943e+07		-5.535566e+07		-5.252146e+07
5.443372e+09		-5.252146e+07		4.023230e+09
-7.583295e+07		-4.760621e+08		4.694088e+09
-4.760621e+08		6.550981e+07		-1.752888e+08
4.694088e+09		-1.752888e+08		4.363013e+09
-4.224689e+07		-2.169050e-05		4.712181e+09
-2.169050e-05		1.979161e+08		1.355251e-04
4.712181e+09		1.355251e-04		4.567305e+09
-7.583295e+07		4.760621e+08		4.694088e+09
4.760621e+08		6.550981e+07		1.752888e+08
4.694088e+09		1.752888e+08		4.363013e+09
-2.013711e+08		9.466943e+07		5.443372e+09
9.466943e+07		-5.535566e+07		5.252146e+07
5.443372e+09		5.252146e+07		4.023230e+09
-1.990423e-05		-9.525650e+07		6.149458e+09
-9.525650e+07		-2.450123e-05		-1.444505e-05
6.149458e+09		-1.444505e-05		1.907125e-04
-2.284069e-05		-3.438860e+08		5.559482e+09
-3.438860e+08		-1.181755e-05		3.289094e-05
5.559482e+09		3.289094e-05		1.915544e-04
-1.742272e-05		-5.583700e+08		5.364221e+09
-5.583700e+08		2.602814e-05		8.281106e-05
5.364221e+09		8.281106e-05		2.216585e-04
-1.373328e-05		-2.790739e+08		5.375926e+09
-2.790739e+08		-1.276680e-05		1.048601e-04
5.375926e+09		1.048601e-04		1.646653e-04
-3.570132e-05		-5.169958e-05		5.391722e+09
-5.169958e-05		-5.984353e-05		1.123398e-04
5.391722e+09		1.123398e-04		1.054313e-04
3.001094e-05		2.790739e+08		5.375926e+09
2.790739e+08		-1.779059e-05		8.386292e-05
5.375926e+09		8.386292e-05		1.095645e-04
1.033861e-04		5.583700e+08		5.364221e+09
5.583700e+08		9.764917e-06		6.631689e-05
5.364221e+09		6.631689e-05		1.277719e-04
2.147816e-05		3.438860e+08		5.559482e+09
3.438860e+08		-1.807464e-05		4.947712e-05
5.559482e+09		4.947712e-05		7.575378e-05
-8.492917e-05		9.525650e+07		6.149458e+09
9.525650e+07		-5.010515e-05		1.366256e-05
6.149458e+09		1.366256e-05		3.344938e-05
2.013711e+08		-9.466943e+07		5.443372e+09
-9.466943e+07		5.535566e+07		5.252146e+07
5.443372e+09		5.252146e+07		-4.023230e+09
7.583295e+07		-4.760621e+08		4.694088e+09
-4.760621e+08		-6.550981e+07		1.752888e+08
4.694088e+09		1.752888e+08		-4.363013e+09
4.224689e+07		4.749745e-07		4.712181e+09
4.749745e-07		-1.979161e+08		9.216694e-05
4.712181e+09		9.216694e-05		-4.567305e+09
7.583295e+07		4.760621e+08		4.694088e+09
4.760621e+08		-6.550981e+07		-1.752888e+08
4.694088e+09		-1.752888e+08		-4.363013e+09
2.013711e+08		9.466943e+07		5.443372e+09
9.466943e+07		5.535566e+07		-5.252146e+07
5.443372e+09		-5.252146e+07		-4.023230e+09
2.497061e+08		-6.421114e+07		4.643478e+09
-6.421114e+07		4.598720e+07		7.080836e+07
4.643478e+09		7.080836e+07		-8.105816e+09
1.443122e+08		-2.121218e+08		4.085282e+09
-2.121218e+08		-6.213465e+07		2.304035e+08
4.085282e+09		2.304035e+08		-8.406966e+09
1.053563e+08		-3.584184e+08		3.849656e+09
-3.584184e+08		-1.537252e+08		3.413845e+08
3.849656e+09		3.413845e+08		-8.703440e+09
8.449422e+07		-1.721913e+08		3.833448e+09
-1.721913e+08		-3.036420e+08		1.575189e+08
3.833448e+09		1.575189e+08		-8.941485e+09
6.215025e+07		2.958253e-05		3.820223e+09
2.958253e-05		-4.134628e+08		2.089329e-05
3.820223e+09		2.089329e-05		-9.066494e+09
8.449422e+07		1.721913e+08		3.833448e+09
1.721913e+08		-3.036420e+08		-1.575189e+08
3.833448e+09		-1.575189e+08		-8.941485e+09
1.053563e+08		3.584184e+08		3.849656e+09
3.584184e+08		-1.537252e+08		-3.413845e+08
3.849656e+09		-3.413845e+08		-8.703440e+09
1.443122e+08		2.121218e+08		4.085282e+09
2.121218e+08		-6.213465e+07		-2.304035e+08
4.085282e+09		-2.304035e+08		-8.406966e+09
2.497061e+08		6.421114e+07		4.643478e+09
6.421114e+07		4.598720e+07		-7.080836e+07
4.643478e+09		-7.080836e+07		-8.105816e+09
1.981173e+08		-5.615565e+07		2.609987e+09
-5.615565e+07		1.252521e+08		1.283731e+08
2.609987e+09		1.283731e+08		-1.217355e+10
6.008556e+07		-1.891695e+08		2.065896e+09
-1.891695e+08		-3.091969e+08		5.217731e+08
2.065896e+09		5.217731e+08		-1.302108e+10
-3.821895e+06		5.581044e-05		2.033200e+09
5.581044e-05		-6.757521e+08		-2.834480e-05
2.033200e+09		-2.834480e-05		-1.349012e+10
6.008556e+07		1.891695e+08		2.065896e+09
1.891695e+08		-3.091969e+08		-5.217731e+08
2.065896e+09		-5.217731e+08		-1.302108e+10
1.981173e+08		5.615565e+07		2.609987e+09
5.615565e+07		1.252521e+08		-1.283731e+08
2.609987e+09		-1.283731e+08		-1.217355e+10
1.299588e+08		-2.953066e+05		5.243998e+08
-2.953066e+05		1.519886e+08		3.644875e+08
5.243998e+08		3.644875e+08		-1.652177e+10
1.084428e+07		3.306335e+07		2.362236e+08
3.306335e+07		-2.062597e+08		6.503122e+08
2.362236e+08		6.503122e+08		-1.707940e+10
7.007781e+07		9.481833e+06		2.373224e+08
9.481833e+06		-4.562827e+08		8.238482e+08
2.373224e+08		8.238482e+08		-1.738614e+10
6.733336e+07		2.324574e+07		1.981420e+08
2.324574e+07		-7.040391e+08		3.578718e+08
1.981420e+08		3.578718e+08		-1.765465e+10
3.332249e+07		2.934609e-05		2.055715e+08
2.934609e-05		-9.118011e+08		-1.356946e-04
2.055715e+08		-1.356946e-04		-1.784299e+10
6.733336e+07		-2.324574e+07		1.981420e+08
-2.324574e+07		-7.040391e+08		-3.578718e+08
1.981420e+08		-3.578718e+08		-1.765465e+10
7.007781e+07		-9.481833e+06		2.373224e+08
-9.481833e+06		-4.562827e+08		-8.238482e+08
2.373224e+08		-8.238482e+08		-1.738614e+10
1.084428e+07		-3.306335e+07		2.362236e+08
-3.306335e+07		-2.062597e+08		-6.503122e+08
2.362236e+08		-6.503122e+08		-1.707940e+10
1.299588e+08		2.953066e+05		5.243998e+08
2.953066e+05		1.519886e+08		-3.644875e+08
5.243998e+08		-3.644875e+08		-1.652177e+10
-5.404257e+07		1.790192e+06		4.259753e+08
1.790192e+06		-8.683877e+07		-4.020942e+08
4.259753e+08		-4.020942e+08		1.462554e+10
-4.024182e+07		-2.812574e+06		7.724432e+07
-2.812574e+06		2.651888e+08		-8.665215e+08
7.724432e+07		-8.665215e+08		1.518562e+10
-3.299822e+07		6.473111e-05		5.133763e+07
6.473111e-05		5.318526e+08		3.278442e-04
5.133763e+07		3.278442e-04		1.543701e+10
-4.024182e+07		2.812574e+06		7.724432e+07
2.812574e+06		2.651888e+08		8.665215e+08
7.724432e+07		8.665215e+08		1.518562e+10
-5.404257e+07		-1.790192e+06		4.259753e+08
-1.790192e+06		-8.683877e+07		4.020942e+08
4.259753e+08		4.020942e+08		1.462554e+10
-1.618984e+08		-4.408686e+07		4.763146e+09
-4.408686e+07		-3.737053e+07		-5.640491e+07
4.763146e+09		-5.640491e+07		7.139639e+09
-6.062607e+07		-2.603229e+08		3.693070e+09
-2.603229e+08		7.594223e+07		-2.830470e+08
3.693070e+09		-2.830470e+08		7.558148e+09
-4.742991e+07		1.995917e-05		3.540867e+09
1.995917e-05		2.104338e+08		2.067834e-04
3.540867e+09		2.067834e-04		7.765210e+09
-6.062607e+07		2.603229e+08		3.693070e+09
2.603229e+08		7.594223e+07		2.830470e+08
3.693070e+09		2.830470e+08		7.558148e+09
-1.618984e+08		4.408686e+07		4.763146e+09
4.408686e+07		-3.737053e+07		5.640491e+07
4.763146e+09		5.640491e+07		7.139639e+09
-1.176465e-04		-5.999416e+07		6.131573e+09
-5.999416e+07		-1.534913e-05		-1.842482e-05
6.131573e+09		-1.842482e-05		1.100078e-04
-1.591770e-05		-3.952239e+08		5.033740e+09
-3.952239e+08		-3.628433e-06		9.201805e-05
5.033740e+09		9.201805e-05		1.654066e-04
-1.734216e-05		4.803902e-05		4.877707e+09
4.803902e-05		-6.296672e-06		1.065350e-04
4.877707e+09		1.065350e-04		2.139024e-04
1.068190e-04		3.952239e+08		5.033740e+09
3.952239e+08		5.210284e-06		4.652722e-05
5.033740e+09		4.652722e-05		1.967922e-04
5.949289e-05		5.999416e+07		6.131573e+09
5.999416e+07		6.305054e-07		3.220653e-05
6.131573e+09		3.220653e-05		4.763901e-05
1.618984e+08		-4.408686e+07		4.763146e+09
-4.408686e+07		3.737053e+07		5.640491e+07
4.763146e+09		5.640491e+07		-7.139639e+09
6.062607e+07		-2.603229e+08		3.693070e+09
-2.603229e+08		-7.594223e+07		2.830470e+08
3.693070e+09		2.830470e+08		-7.558148e+09
4.742991e+07		2.597785e-05		3.540867e+09
2.597785e-05		-2.104338e+08		2.203509e-05
3.540867e+09		2.203509e-05		-7.765210e+09
6.062607e+07		2.603229e+08		3.693070e+09
2.603229e+08		-7.594223e+07		-2.830470e+08
3.693070e+09		-2.830470e+08		-7.558148e+09
1.618984e+08		4.408686e+07		4.763146e+09
4.408686e+07		3.737053e+07		-5.640491e+07
4.763146e+09		-5.640491e+07		-7.139639e+09
5.404257e+07		1.790192e+06		4.259753e+08
1.790192e+06		8.683877e+07		4.020942e+08
4.259753e+08		4.020942e+08		-1.462554e+10
4.024182e+07		-2.812574e+06		7.724432e+07
-2.812574e+06		-2.651888e+08		8.665215e+08
7.724432e+07		8.665215e+08		-1.518562e+10
3.299822e+07		4.662853e-05		5.133763e+07
4.662853e-05		-5.318526e+08		-7.840246e-05
5.133763e+07		-7.840246e-05		-1.543701e+10
4.024182e+07		2.812574e+06		7.724432e+07
2.812574e+06		-2.651888e+08		-8.665215e+08
7.724432e+07		-8.665215e+08		-1.518562e+10
5.404257e+07		-1.790192e+06		4.259753e+08
-1.790192e+06		8.683877e+07		-4.020942e+08
4.259753e+08		-4.020942e+08		-1.462554e+10
2.265687e+07		1.405785e+07		6.501872e+08
1.405785e+07		1.395941e+07		-4.623071e+08
6.501872e+08		-4.623071e+08		1.272879e+10
3.777566e+07		1.251129e+07		2.657729e+08
1.251129e+07		9.276125e+07		-7.613302e+08
2.657729e+08		-7.613302e+08		1.293244e+10
7.809988e+06		-1.480137e+06		2.683638e+08
-1.480137e+06		1.736397e+08		-9.572017e+08
2.683638e+08		-9.572017e+08		1.305026e+10
2.315109e+07		3.631381e+06		2.083739e+08
3.631381e+06		2.935084e+08		-4.428737e+08
2.083739e+08		-4.428737e+08		1.317763e+10
6.171128e+06		1.388057e-04		2.491373e+08
1.388057e-04		3.253551e+08		3.348440e-04
2.491373e+08		3.348440e-04		1.319098e+10
2.315109e+07		-3.631381e+06		2.083739e+08
-3.631381e+06		2.935084e+08		4.428737e+08
2.083739e+08		4.428737e+08		1.317763e+10
7.809988e+06		1.480137e+06		2.683638e+08
1.480137e+06		1.736397e+08		9.572017e+08
2.683638e+08		9.572017e+08		1.305026e+10
3.777566e+07		-1.251129e+07		2.657729e+08
-1.251129e+07		9.276125e+07		7.613302e+08
2.657729e+08		7.613302e+08		1.293244e+10
2.265687e+07		-1.405785e+07		6.501872e+08
-1.405785e+07		1.395941e+07		4.623071e+08
6.501872e+08		4.623071e+08		1.272879e+10
-4.742948e+07		-2.434041e+07		3.023631e+09
-2.434041e+07		-1.189703e+07		-1.179506e+08
3.023631e+09		-1.179506e+08		9.404602e+09
-1.083390e+07		-9.367072e+07		2.133979e+09
-9.367072e+07		1.043049e+08		-5.287645e+08
2.133979e+09		-5.287645e+08		9.746434e+09
-1.134408e+07		6.330339e-05		1.996597e+09
6.330339e-05		2.015176e+08		2.532881e-04
1.996597e+09		2.532881e-04		9.890016e+09
-1.083390e+07		9.367072e+07		2.133979e+09
9.367072e+07		1.043049e+08		5.287645e+08
2.133979e+09		5.287645e+08		9.746434e+09
-4.742948e+07		2.434041e+07		3.023631e+09
2.434041e+07		-1.189703e+07		1.179506e+08
3.023631e+09		1.179506e+08		9.404602e+09
-6.162111e+07		-3.805490e+07		5.192188e+09
-3.805490e+07		5.247540e+06		-6.437548e+07
5.192188e+09		-6.437548e+07		6.226738e+09
-2.504917e+07		-1.079118e+08		4.336604e+09
-1.079118e+08		2.447572e+07		-1.809006e+08
4.336604e+09		-1.809006e+08		6.353718e+09
-1.371459e+07		-1.731034e+08		3.867171e+09
-1.731034e+08		4.589493e+07		-2.729179e+08
3.867171e+09		-2.729179e+08		6.460410e+09
-6.673600e+06		-8.927634e+07		3.679419e+09
-8.927634e+07		9.467686e+07		-1.443189e+08
3.679419e+09		-1.443189e+08		6.556492e+09
-2.252295e+07		2.512615e-05		3.613112e+09
2.512615e-05		9.315347e+07		2.291454e-04
3.613112e+09		2.291454e-04		6.565783e+09
-6.673600e+06		8.927634e+07		3.679419e+09
8.927634e+07		9.467686e+07		1.443189e+08
3.679419e+09		1.443189e+08		6.556492e+09
-1.371459e+07		1.731034e+08		3.867171e+09
1.731034e+08		4.589493e+07		2.729179e+08
3.867171e+09		2.729179e+08		6.460410e+09
-2.504917e+07		1.079118e+08		4.336604e+09
1.079118e+08		2.447572e+07		1.809006e+08
4.336604e+09		1.809006e+08		6.353718e+09
-6.162111e+07		3.805490e+07		5.192188e+09
3.805490e+07		5.247540e+06		6.437548e+07
5.192188e+09		6.437548e+07		6.226738e+09
-5.684393e+07		-4.534732e+07		5.885712e+09
-4.534732e+07		-7.318386e+06		-2.141160e+07
5.885712e+09		-2.141160e+07		3.104669e+09
-1.736685e+07		-2.175621e+08		4.602330e+09
-2.175621e+08		1.830985e+07		-1.282987e+08
4.602330e+09		-1.282987e+08		3.235273e+09
-1.472705e+07		4.934147e-06		4.335179e+09
4.934147e-06		4.457150e+07		1.634774e-04
4.335179e+09		1.634774e-04		3.301588e+09
-1.736685e+07		2.175621e+08		4.602330e+09
2.175621e+08		1.830985e+07		1.282987e+08
4.602330e+09		1.282987e+08		3.235273e+09
-5.684393e+07		4.534732e+07		5.885712e+09
4.534732e+07		-7.318386e+06		2.141160e+07
5.885712e+09		2.141160e+07		3.104669e+09
-8.781627e-05		-4.788226e+07		6.485195e+09
-4.788226e+07		5.254149e-05		1.293153e-05
6.485195e+09		1.293153e-05		8.346513e-05
-4.492234e-05		-1.600535e+08		5.618381e+09
-1.600535e+08		2.440857e-05		5.748367e-05
5.618381e+09		5.748367e-05		1.258310e-04
-1.522899e-04		-2.514122e+08		5.131806e+09
-2.514122e+08		-8.365093e-05		1.107291e-04
5.131806e+09		1.107291e-04		8.589588e-05
-7.344410e-05		-1.336057e+08		4.899288e+09
-1.336057e+08		-2.453756e-05		1.532701e-04
4.899288e+09		1.532701e-04		1.971740e-04
6.482936e-06		8.585723e-05		4.824017e+09
8.585723e-05		4.293793e-05		1.169145e-04
4.824017e+09		1.169145e-04		3.040219e-04
-4.712492e-07		1.336057e+08		4.899288e+09
1.336057e+08		-1.930818e-05		5.581230e-05
4.899288e+09		5.581230e-05		2.252720e-04
9.735767e-05		2.514122e+08		5.131806e+09
2.514122e+08		-3.985595e-06		5.284628e-05
5.131806e+09		5.284628e-05		2.061315e-04
1.042122e-04		1.600535e+08		5.618381e+09
1.600535e+08		5.141925e-05		4.742917e-05
5.618381e+09		4.742917e-05		1.670700e-04
5.692244e-06		4.788226e+07		6.485195e+09
4.788226e+07		4.149508e-05		3.299263e-05
6.485195e+09		3.299263e-05		1.201276e-04
5.684393e+07		-4.534732e+07		5.885712e+09
-4.534732e+07		7.318386e+06		2.141160e+07
5.885712e+09		2.141160e+07		-3.104669e+09
1.736685e+07		-2.175621e+08		4.602330e+09
-2.175621e+08		-1.830985e+07		1.282987e+08
4.602330e+09		1.282987e+08		-3.235273e+09
1.472705e+07		-7.874332e-06		4.335179e+09
-7.874332e-06		-4.457150e+07		6.309664e-05
4.335179e+09		6.309664e-05		-3.301588e+09
1.736685e+07		2.175621e+08		4.602330e+09
2.175621e+08		-1.830985e+07		-1.282987e+08
4.602330e+09		-1.282987e+08		-3.235273e+09
5.684393e+07		4.534732e+07		5.885712e+09
4.534732e+07		7.318386e+06		-2.141160e+07
5.885712e+09		-2.141160e+07		-3.104669e+09
6.162111e+07		-3.805490e+07		5.192188e+09
-3.805490e+07		-5.247540e+06		6.437548e+07
5.192188e+09		6.437548e+07		-6.226738e+09
2.504917e+07		-1.079118e+08		4.336604e+09
-1.079118e+08		-2.447572e+07		1.809006e+08
4.336604e+09		1.809006e+08		-6.353718e+09
1.371459e+07		-1.731034e+08		3.867171e+09
-1.731034e+08		-4.589493e+07		2.729179e+08
3.867171e+09		2.729179e+08		-6.460410e+09
6.673600e+06		-8.927634e+07		3.679419e+09
-8.927634e+07		-9.467686e+07		1.443189e+08
3.679419e+09		1.443189e+08		-6.556492e+09
2.252295e+07		-8.081552e-06		3.613112e+09
-8.081552e-06		-9.315347e+07		4.967675e-06
3.613112e+09		4.967675e-06		-6.565783e+09
6.673600e+06		8.927634e+07		3.679419e+09
8.927634e+07		-9.467686e+07		-1.443189e+08
3.679419e+09		-1.443189e+08		-6.556492e+09
1.371459e+07		1.731034e+08		3.867171e+09
1.731034e+08		-4.589493e+07		-2.729179e+08
3.867171e+09		-2.729179e+08		-6.460410e+09
2.504917e+07		1.079118e+08		4.336604e+09
1.079118e+08		-2.447572e+07		-1.809006e+08
4.336604e+09		-1.809006e+08		-6.353718e+09
6.162111e+07		3.805490e+07		5.192188e+09
3.805490e+07		-5.247540e+06		-6.437548e+07
5.192188e+09		-6.437548e+07		-6.226738e+09
4.742948e+07		-2.434041e+07		3.023631e+09
-2.434041e+07		1.189703e+07		1.179506e+08
3.023631e+09		1.179506e+08		-9.404602e+09
1.083390e+07		-9.367072e+07		2.133979e+09
-9.367072e+07		-1.043049e+08		5.287645e+08
2.133979e+09		5.287645e+08		-9.746434e+09
1.134408e+07		3.632670e-05		1.996597e+09
3.632670e-05		-2.015176e+08		-5.896203e-06
1.996597e+09		-5.896203e-06		-9.890016e+09
1.083390e+07		9.367072e+07		2.133979e+09
9.367072e+07		-1.043049e+08		-5.287645e+08
2.133979e+09		-5.287645e+08		-9.746434e+09
4.742948e+07		2.434041e+07		3.023631e+09
2.434041e+07		1.189703e+07		-1.179506e+08
3.023631e+09		-1.179506e+08		-9.404602e+09
-2.265687e+07		1.405785e+07		6.501872e+08
1.405785e+07		-1.395941e+07		4.623071e+08
6.501872e+08		4.623071e+08		-1.272879e+10
-3.777566e+07		1.251129e+07		2.657729e+08
1.251129e+07		-9.276125e+07		7.613302e+08
2.657729e+08		7.613302e+08		-1.293244e+10
-7.809988e+06		-1.480137e+06		2.683638e+08
-1.480137e+06		-1.736397e+08		9.572017e+08
2.683638e+08		9.572017e+08		-1.305026e+10
-2.315109e+07		3.631381e+06		2.083739e+08
3.631381e+06		-2.935084e+08		4.428737e+08
2.083739e+08		4.428737e+08		-1.317763e+10
-6.171128e+06		6.923871e-05		2.491373e+08
6.923871e-05		-3.253551e+08		4.958361e-06
2.491373e+08		4.958361e-06		-1.319098e+10
-2.315109e+07		-3.631381e+06		2.083739e+08
-3.631381e+06		-2.935084e+08		-4.428737e+08
2.083739e+08		-4.428737e+08		-1.317763e+10
-7.809988e+06		1.480137e+06		2.683638e+08
1.480137e+06		-1.736397e+08		-9.572017e+08
2.683638e+08		-9.572017e+08		-1.305026e+10
-3.777566e+07		-1.251129e+07		2.657729e+08
-1.251129e+07		-9.276125e+07		-7.613302e+08
2.657729e+08		-7.613302e+08		-1.293244e+10
-2.265687e+07		-1.405785e+07		6.501872e+08
-1.405785e+07		-1.395941e+07		-4.623071e+08
6.501872e+08		-4.623071e+08		-1.272879e+10
-4.699445e+06		6.099987e+06		5.002998e+08
6.099987e+06		-1.571229e+07		-4.395176e+08
5.002998e+08		-4.395176e+08		1.063145e+10
2.982974e+06		-3.106127e+06		1.016132e+08
-3.106127e+06		1.016139e+08		-9.535026e+08
1.016132e+08		-9.535026e+08		1.086140e+10
9.814925e+06		-4.010007e-05		8.238596e+07
-4.010007e-05		2.083076e+08		3.878921e-04
8.238596e+07		3.878921e-04		1.096248e+10
2.982974e+06		3.106127e+06		1.016132e+08
3.106127e+06		1.016139e+08		9.535026e+08
1.016132e+08		9.535026e+08		1.086140e+10
-4.699445e+06		-6.099987e+06		5.002998e+08
-6.099987e+06		-1.571229e+07		4.395176e+08
5.002998e+08		4.395176e+08		1.063145e+10
-3.610082e+07		-2.039799e+07		5.135998e+09
-2.039799e+07		-1.114052e+06		-4.225264e+07
5.135998e+09		-4.225264e+07		5.233955e+09
8.380727e+06		-1.167580e+08		3.692380e+09
-1.167580e+08		3.326914e+07		-2.410050e+08
3.692380e+09		-2.410050e+08		5.403314e+09
1.251495e+07		1.150649e-05		3.385918e+09
1.150649e-05		7.063447e+07		1.921169e-04
3.385918e+09		1.921169e-04		5.483201e+09
8.380727e+06		1.167580e+08		3.692380e+09
1.167580e+08		3.326914e+07		2.410050e+08
3.692380e+09		2.410050e+08		5.403314e+09
-3.610082e+07		2.039799e+07		5.135998e+09
2.039799e+07		-1.114052e+06		4.225264e+07
5.135998e+09		4.225264e+07		5.233955e+09
-1.850780e-04		-2.640703e+07		6.434858e+09
-2.640703e+07		-4.997710e-05		2.875039e-05
6.434858e+09		2.875039e-05		3.278255e-06
-9.210338e-05		-1.685118e+08		4.952514e+09
-1.685118e+08		-1.468183e-05		8.096574e-05
4.952514e+09		8.096574e-05		1.239218e-04
4.576705e-05		3.828201e-06		4.569150e+09
3.828201e-06		-7.804949e-06		9.742963e-05
4.569150e+09		9.742963e-05		1.515020e-04
2.417946e-05		1.685118e+08		4.952514e+09
1.685118e+08		-4.459638e-06		2.287887e-05
4.952514e+09		2.287887e-05		1.560654e-04
8.177385e-05		2.640703e+07		6.434858e+09
2.640703e+07		5.222112e-05		1.053954e-05
6.434858e+09		1.053954e-05		2.317429e-04
3.610082e+07		-2.039799e+07		5.135998e+09
-2.039799e+07		1.114052e+06		4.225264e+07
5.135998e+09		4.225264e+07		-5.233955e+09
-8.380727e+06		-1.167580e+08		3.692380e+09
-1.167580e+08		-3.326914e+07		2.410050e+08
3.692380e+09		2.410050e+08		-5.403314e+09
-1.251495e+07		3.237254e-05		3.385918e+09
3.237254e-05		-7.063447e+07		2.882071e-05
3.385918e+09		2.882071e-05		-5.483201e+09
-8.380727e+06		1.167580e+08		3.692380e+09
1.167580e+08		-3.326914e+07		-2.410050e+08
3.692380e+09		-2.410050e+08		-5.403314e+09
3.610082e+07		2.039799e+07		5.135998e+09
2.039799e+07		1.114052e+06		-4.225264e+07
5.135998e+09		-4.225264e+07		-5.233955e+09
4.699445e+06		6.099987e+06		5.002998e+08
6.099987e+06		1.571229e+07		4.395176e+08
5.002998e+08		4.395176e+08		-1.063145e+10
-2.982974e+06		-3.106127e+06		1.016132e+08
-3.106127e+06		-1.016139e+08		9.535026e+08
1.016132e+08		9.535026e+08		-1.086140e+10
-9.814925e+06		-6.867805e-06		8.238596e+07
-6.867805e-06		-2.083076e+08		-4.410744e-06
8.238596e+07		-4.410744e-06		-1.096248e+10
-2.982974e+06		3.106127e+06		1.016132e+08
3.106127e+06		-1.016139e+08		-9.535026e+08
1.016132e+08		-9.535026e+08		-1.086140e+10
4.699445e+06		-6.099987e+06		5.002998e+08
-6.099987e+06		1.571229e+07		-4.395176e+08
5.002998e+08		-4.395176e+08		-1.063145e+10
-2.807688e+06		2.254927e+06		6.837434e+08
2.254927e+06		-7.950323e+06		-4.649818e+08
6.837434e+08		-4.649818e+08		8.565626e+09
8.331557e+06		4.335719e+06		2.691587e+08
4.335719e+06		2.762083e+07		-7.927343e+08
2.691587e+08		-7.927343e+08		8.637240e+09
-2.856361e+06		-1.530589e+06		2.708663e+08
-1.530589e+06		5.834440e+07		-9.915974e+08
2.708663e+08		-9.915974e+08		8.676152e+09
-7.071274e+05		5.966398e+05		2.012979e+08
5.966398e+05		9.993403e+07		-4.636149e+08
2.012979e+08		-4.636149e+08		8.712275e+09
-4.362259e+06		-1.613266e-04		2.506344e+08
-1.613266e-04		1.199218e+08		4.013292e-04
2.506344e+08		4.013292e-04		8.723913e+09
-7.071274e+05		-5.966398e+05		2.012979e+08
-5.966398e+05		9.993403e+07		4.636149e+08
2.012979e+08		4.636149e+08		8.712275e+09
-2.856361e+06		1.530589e+06		2.708663e+08
1.530589e+06		5.834440e+07		9.915974e+08
2.708663e+08		9.915974e+08		8.676152e+09
8.331557e+06		-4.335719e+06		2.691587e+08
-4.335719e+06		2.762083e+07		7.927343e+08
2.691587e+08		7.927343e+08		8.637240e+09
-2.807688e+06		-2.254927e+06		6.837434e+08
-2.254927e+06		-7.950323e+06		4.649818e+08
6.837434e+08		4.649818e+08		8.565626e+09
-1.533734e+07		-9.428091e+06		3.156047e+09
-9.428091e+06		-9.473332e+06		-9.817141e+07
3.156047e+09		-9.817141e+07		6.374786e+09
2.030898e+06		-3.910475e+07		2.127159e+09
-3.910475e+07		3.667845e+07		-5.149230e+08
2.127159e+09		-5.149230e+08		6.494106e+09
3.174883e+06		3.333343e-05		1.934434e+09
3.333343e-05		7.546438e+07		2.261624e-04
1.934434e+09		2.261624e-04		6.545117e+09
2.030898e+06		3.910475e+07		2.127159e+09
3.910475e+07		3.667845e+07		5.149230e+08
2.127159e+09		5.149230e+08		6.494106e+09
-1.533734e+07		9.428091e+06		3.156047e+09
9.428091e+06		-9.473332e+06		9.817141e+07
3.156047e+09		9.817141e+07		6.374786e+09
-1.329030e+07		-1.424290e+07		5.407813e+09
-1.424290e+07		4.463937e+05		-5.050655e+07
5.407813e+09		-5.050655e+07		4.233676e+09
4.277746e+06		-4.392829e+07		4.438263e+09
-4.392829e+07		1.150498e+07		-1.548955e+08
4.438263e+09		-1.548955e+08		4.281111e+09
8.608188e+06		-7.175440e+07		3.857632e+09
-7.175440e+07		1.874704e+07		-2.365384e+08
3.857632e+09		-2.365384e+08		4.319358e+09
1.009136e+07		-3.726707e+07		3.597113e+09
-3.726707e+07		3.336266e+07		-1.294340e+08
3.597113e+09		-1.294340e+08		4.347969e+09
7.005691e+06		-4.665228e-06		3.499541e+09
-4.665228e-06		3.651969e+07		1.585912e-04
3.499541e+09		1.585912e-04		4.354299e+09
1.009136e+07		3.726707e+07		3.597113e+09
3.726707e+07		3.336266e+07		1.294340e+08
3.597113e+09		1.294340e+08		4.347969e+09
8.608188e+06		7.175440e+07		3.857632e+09
7.175440e+07		1.874704e+07		2.365384e+08
3.857632e+09		2.365384e+08		4.319358e+09
4.277746e+06		4.392829e+07		4.438263e+09
4.392829e+07		1.150498e+07		1.548955e+08
4.438263e+09		1.548955e+08		4.281111e+09
-1.329030e+07		1.424290e+07		5.407813e+09
1.424290e+07		4.463937e+05		5.050655e+07
5.407813e+09		5.050655e+07		4.233676e+09
-1.416987e+07		-1.824370e+07		6.092072e+09
-1.824370e+07		-5.250759e+06		-7.832969e+06
6.092072e+09		-7.832969e+06		2.104597e+09
3.170766e+06		-8.910002e+07		4.574203e+09
-8.910002e+07		5.773230e+06		-1.041519e+08
4.574203e+09		-1.041519e+08		2.152953e+09
4.269311e+06		-8.896459e-06		4.177493e+09
-8.896459e-06		1.440759e+07		1.280478e-04
4.177493e+09		1.280478e-04		2.173572e+09
3.170766e+06		8.910002e+07		4.574203e+09
8.910002e+07		5.773230e+06		1.041519e+08
4.574203e+09		1.041519e+08		2.152953e+09
-1.416987e+07		1.824370e+07		6.092072e+09
1.824370e+07		-5.250759e+06		7.832969e+06
6.092072e+09		7.832969e+06		2.104597e+09
-9.626732e-06		-1.859820e+07		6.711205e+09
-1.859820e+07		-4.768213e-05		-5.295593e-05
6.711205e+09		-5.295593e-05		3.244728e-06
-1.684576e-04		-6.456088e+07		5.732251e+09
-6.456088e+07		-7.627648e-05		-8.768402e-07
5.732251e+09		-8.768402e-07		8.061528e-06
-1.391270e-04		-1.025557e+08		5.115464e+09
-1.025557e+08		-6.597838e-07		6.945871e-05
5.115464e+09		6.945871e-05		6.149802e-05
-5.556829e-05		-5.408013e+07		4.782030e+09
-5.408013e+07		-4.107715e-06		8.695776e-05
4.782030e+09		8.695776e-05		6.979890e-05
2.590651e-04		3.427500e-06		4.664137e+09
3.427500e-06		4.350697e-05		8.959655e-05
4.664137e+09		8.959655e-05		1.415405e-04
1.288343e-04		5.408013e+07		4.782030e+09
5.408013e+07		1.681782e-05		3.149529e-05
4.782030e+09		3.149529e-05		1.655687e-04
1.190576e-04		1.025557e+08		5.115464e+09
1.025557e+08		7.635512e-05		-3.131407e-06
5.115464e+09		-3.131407e-06		2.264213e-04
-4.349696e-05		6.456088e+07		5.732251e+09
6.456088e+07		-8.803792e-06		4.020358e-05
5.732251e+09		4.020358e-05		1.758104e-04
6.199177e-05		1.859820e+07		6.711205e+09
1.859820e+07		-1.010720e-05		3.905767e-05
6.711205e+09		3.905767e-05		2.158759e-04
1.416987e+07		-1.824370e+07		6.092072e+09
-1.824370e+07		5.250759e+06		7.832969e+06
6.092072e+09		7.832969e+06		-2.104597e+09
-3.170766e+06		-8.910002e+07		4.574203e+09
-8.910002e+07		-5.773230e+06		1.041519e+08
4.574203e+09		1.041519e+08		-2.152953e+09
-4.269311e+06		6.422773e-05		4.177493e+09
6.422773e-05		-1.440759e+07		3.255554e-05
4.177493e+09		3.255554e-05		-2.173572e+09
-3.170766e+06		8.910002e+07		4.574203e+09
8.910002e+07		-5.773230e+06		-1.041519e+08
4.574203e+09		-1.041519e+08		-2.152953e+09
1.416987e+07		1.824370e+07		6.092072e+09
1.824370e+07		5.250759e+06		-7.832969e+06
6.092072e+09		-7.832969e+06		-2.104597e+09
1.329030e+07		-1.424290e+07		5.407813e+09
-1.424290e+07		-4.463937e+05		5.050655e+07
5.407813e+09		5.050655e+07		-4.233676e+09
-4.277746e+06		-4.392829e+07		4.438263e+09
-4.392829e+07		-1.150498e+07		1.548955e+08
4.438263e+09		1.548955e+08		-4.281111e+09
-8.608188e+06		-7.175440e+07		3.857632e+09
-7.175440e+07		-1.874704e+07		2.365384e+08
3.857632e+09		2.365384e+08		-4.319358e+09
-1.009136e+07		-3.726707e+07		3.597113e+09
-3.726707e+07		-3.336266e+07		1.294340e+08
3.597113e+09		1.294340e+08		-4.347969e+09
-7.005691e+06		1.114865e-04		3.499541e+09
1.114865e-04		-3.651969e+07		4.614331e-05
3.499541e+09		4.614331e-05		-4.354299e+09
-1.009136e+07		3.726707e+07		3.597113e+09
3.726707e+07		-3.336266e+07		-1.294340e+08
3.597113e+09		-1.294340e+08		-4.347969e+09
-8.608188e+06		7.175440e+07		3.857632e+09
7.175440e+07		-1.874704e+07		-2.365384e+08
3.857632e+09		-2.365384e+08		-4.319358e+09
-4.277746e+06		4.392829e+07		4.438263e+09
4.392829e+07		-1.150498e+07		-1.548955e+08
4.438263e+09		-1.548955e+08		-4.281111e+09
1.329030e+07		1.424290e+07		5.407813e+09
1.424290e+07		-4.463937e+05		-5.050655e+07
5.407813e+09		-5.050655e+07		-4.233676e+09
1.533734e+07		-9.428091e+06		3.156047e+09
-9.428091e+06		9.473332e+06		9.817141e+07
3.156047e+09		9.817141e+07		-6.374786e+09
-2.030898e+06		-3.910475e+07		2.127159e+09
-3.910475e+07		-3.667845e+07		5.149230e+08
2.127159e+09		5.149230e+08		-6.494106e+09
-3.174883e+06		-5.273614e-07		1.934434e+09
-5.273614e-07		-7.546438e+07		1.612073e-05
1.934434e+09		1.612073e-05		-6.545117e+09
-2.030898e+06		3.910475e+07		2.127159e+09
3.910475e+07		-3.667845e+07		-5.149230e+08
2.127159e+09		-5.149230e+08		-6.494106e+09
1.533734e+07		9.428091e+06		3.156047e+09
9.428091e+06		9.473332e+06		-9.817141e+07
3.156047e+09		-9.817141e+07		-6.374786e+09
2.807688e+06		2.254927e+06		6.837434e+08
2.254927e+06		7.950323e+06		4.649818e+08
6.837434e+08		4.649818e+08		-8.565626e+09
-8.331557e+06		4.335719e+06		2.691587e+08
4.335719e+06		-2.762083e+07		7.927343e+08
2.691587e+08		7.927343e+08		-8.637240e+09
2.856361e+06		-1.530589e+06		2.708663e+08
-1.530589e+06		-5.834440e+07		9.915974e+08
2.708663e+08		9.915974e+08		-8.676152e+09
7.071274e+05		5.966398e+05		2.012979e+08
5.966398e+05		-9.993403e+07		4.636149e+08
2.012979e+08		4.636149e+08		-8.712275e+09
4.362259e+06		-2.410356e-05		2.506344e+08
-2.410356e-05		-1.199218e+08		4.464388e-05
2.506344e+08		4.464388e-05		-8.723913e+09
7.071274e+05		-5.966398e+05		2.012979e+08
-5.966398e+05		-9.993403e+07		-4.636149e+08
2.012979e+08		-4.636149e+08		-8.712275e+09
2.856361e+06		1.530589e+06		2.708663e+08
1.530589e+06		-5.834440e+07		-9.915974e+08
2.708663e+08		-9.915974e+08		-8.676152e+09
-8.331557e+06		-4.335719e+06		2.691587e+08
-4.335719e+06		-2.762083e+07		-7.927343e+08
2.691587e+08		-7.927343e+08		-8.637240e+09
2.807688e+06		-2.254927e+06		6.837434e+08
-2.254927e+06		7.950323e+06		-4.649818e+08
6.837434e+08		-4.649818e+08		-8.565626e+09
-5.942070e+06		2.272094e+06		5.118928e+08
2.272094e+06		-9.505995e+06		-4.578715e+08
5.118928e+08		-4.578715e+08		6.427334e+09
-2.779981e+06		-1.030805e+06		9.475390e+07
-1.030805e+06		3.233193e+07		-9.916275e+08
9.475390e+07		-9.916275e+08		6.498632e+09
-1.736485e+06		-5.773123e-05		7.466839e+07
-5.773123e-05		7.235177e+07		3.409535e-04
7.466839e+07		3.409535e-04		6.529151e+09
-2.779981e+06		1.030805e+06		9.475390e+07
1.030805e+06		3.233193e+07		9.916275e+08
9.475390e+07		9.916275e+08		6.498632e+09
-5.942070e+06		-2.272094e+06		5.118928e+08
-2.272094e+06		-9.505995e+06		4.578715e+08
5.118928e+08		4.578715e+08		6.427334e+09
-1.058666e+07		-6.396750e+06		5.267778e+09
-6.396750e+06		-2.471304e+06		-4.352936e+07
5.267778e+09		-4.352936e+07		3.183246e+09
7.594083e+06		-4.505702e+07		3.676959e+09
-4.505702e+07		1.088382e+07		-2.246382e+08
3.676959e+09		-2.246382e+08		3.240548e+09
9.623397e+06		2.955692e-05		3.298032e+09
2.955692e-05		2.428178e+07		1.956727e-04
3.298032e+09		1.956727e-04		3.266027e+09
7.594083e+06		4.505702e+07		3.676959e+09
4.505702e+07		1.088382e+07		2.246382e+08
3.676959e+09		2.246382e+08		3.240548e+09
-1.058666e+07		6.396750e+06		5.267778e+09
6.396750e+06		-2.471304e+06		4.352936e+07
5.267778e+09		4.352936e+07		3.183246e+09
2.209493e-05		-9.151669e+06		6.585293e+09
-9.151669e+06		-2.392277e-05		1.788908e-05
6.585293e+09		1.788908e-05		-1.328550e-04
-1.757038e-04		-6.463734e+07		4.942038e+09
-6.463734e+07		-2.377026e-05		3.946253e-05
4.942038e+09		3.946253e-05		-7.274188e-05
1.906794e-04		-7.397844e-06		4.464218e+09
-7.397844e-06		3.377278e-05		5.294915e-05
4.464218e+09		5.294915e-05		1.201108e-04
8.453382e-06		6.463734e+07		4.942038e+09
6.463734e+07		7.893506e-05		5.430286e-05
4.942038e+09		5.430286e-05		2.258075e-04
-8.191704e-05		9.151669e+06		6.585293e+09
9.151669e+06		-7.451171e-05		2.100154e-05
6.585293e+09		2.100154e-05		2.214462e-04
1.058666e+07		-6.396750e+06		5.267778e+09
-6.396750e+06		2.471304e+06		4.352936e+07
5.267778e+09		4.352936e+07		-3.183246e+09
-7.594083e+06		-4.505702e+07		3.676959e+09
-4.505702e+07		-1.088382e+07		2.246382e+08
3.676959e+09		2.246382e+08		-3.240548e+09
-9.623397e+06		9.015680e-05		3.298032e+09
9.015680e-05		-2.428178e+07		8.267723e-05
3.298032e+09		8.267723e-05		-3.266027e+09
-7.594083e+06		4.505702e+07		3.676959e+09
4.505702e+07		-1.088382e+07		-2.246382e+08
3.676959e+09		-2.246382e+08		-3.240548e+09
1.058666e+07		6.396750e+06		5.267778e+09
6.396750e+06		2.471304e+06		-4.352936e+07
5.267778e+09		-4.352936e+07		-3.183246e+09
5.942070e+06		2.272094e+06		5.118928e+08
2.272094e+06		9.505995e+06		4.578715e+08
5.118928e+08		4.578715e+08		-6.427334e+09
2.779981e+06		-1.030805e+06		9.475390e+07
-1.030805e+06		-3.233193e+07		9.916275e+08
9.475390e+07		9.916275e+08		-6.498632e+09
1.736485e+06		3.633596e-05		7.466839e+07
3.633596e-05		-7.235177e+07		2.939999e-05
7.466839e+07		2.939999e-05		-6.529151e+09
2.779981e+06		1.030805e+06		9.475390e+07
1.030805e+06		-3.233193e+07		-9.916275e+08
9.475390e+07		-9.916275e+08		-6.498632e+09
5.942070e+06		-2.272094e+06		5.118928e+08
-2.272094e+06		9.505995e+06		-4.578715e+08
5.118928e+08		-4.578715e+08		-6.427334e+09
9.719567e+05		1.238761e+06		6.878989e+08
1.238761e+06		-5.326810e+05		-4.656826e+08
6.878989e+08		-4.656826e+08		4.299144e+09
3.481093e+06		1.494980e+06		2.675279e+08
1.494980e+06		8.491619e+06		-7.996895e+08
2.675279e+08		-7.996895e+08		4.317858e+09
-3.768485e+05		-4.223123e+05		2.666801e+08
-4.223123e+05		1.733417e+07		-1.003151e+09
2.666801e+08		-1.003151e+09		4.328019e+09
7.101279e+05		8.415794e+04		1.923505e+08
8.415794e+04		3.197978e+07		-4.715776e+08
1.923505e+08		-4.715776e+08		4.339426e+09
-1.061631e+06		1.530821e-05		2.455327e+08
1.530821e-05		3.807402e+07		2.638549e-04
2.455327e+08		2.638549e-04		4.340440e+09
7.101279e+05		-8.415794e+04		1.923505e+08
-8.415794e+04		3.197978e+07		4.715776e+08
1.923505e+08		4.715776e+08		4.339426e+09
-3.768485e+05		4.223123e+05		2.666801e+08
4.223123e+05		1.733417e+07		1.003151e+09
2.666801e+08		1.003151e+09		4.328019e+09
3.481093e+06		-1.494980e+06		2.675279e+08
-1.494980e+06		8.491619e+06		7.996895e+08
2.675279e+08		7.996895e+08		4.317858e+09
9.719567e+05		-1.238761e+06		6.878989e+08
-1.238761e+06		-5.326810e+05		4.656826e+08
6.878989e+08		4.656826e+08		4.299144e+09
-4.135624e+06		-3.014104e+06		3.196230e+09
-3.014104e+06		-1.841482e+06		-9.027185e+07
3.196230e+09		-9.027185e+07		3.210361e+09
1.326015e+06		-1.292245e+07		2.119025e+09
-1.292245e+07		1.104840e+07		-5.064867e+08
2.119025e+09		-5.064867e+08		3.244205e+09
1.706813e+06		-2.838101e-05		1.903731e+09
-2.838101e-05		2.409487e+07		2.510683e-04
1.903731e+09		2.510683e-04		3.259261e+09
1.326015e+06		1.292245e+07		2.119025e+09
1.292245e+07		1.104840e+07		5.064867e+08
2.119025e+09		5.064867e+08		3.244205e+09
-4.135624e+06		3.014104e+06		3.196230e+09
3.014104e+06		-1.841482e+06		9.027185e+07
3.196230e+09		9.027185e+07		3.210361e+09
-2.564557e+06		-4.949024e+06		5.476551e+09
-4.949024e+06		1.591256e+06		-4.582433e+07
5.476551e+09		-4.582433e+07		2.137460e+09
3.791532e+06		-1.463355e+07		4.468174e+09
-1.463355e+07		4.737139e+06		-1.424316e+08
4.468174e+09		-1.424316e+08		2.151040e+09
5.546558e+06		-2.410893e+07		3.847357e+09
-2.410893e+07		6.804224e+06		-2.209690e+08
3.847357e+09		-2.209690e+08		2.162028e+09
6.424309e+06		-1.274149e+07		3.555783e+09
-1.274149e+07		1.183463e+07		-1.222131e+08
3.555783e+09		-1.222131e+08		2.171608e+09
5.088039e+06		2.951041e-05		3.447560e+09
2.951041e-05		1.231022e+07		2.247458e-04
3.447560e+09		2.247458e-04		2.172421e+09
6.424309e+06		1.274149e+07		3.555783e+09
1.274149e+07		1.183463e+07		1.222131e+08
3.555783e+09		1.222131e+08		2.171608e+09
5.546558e+06		2.410893e+07		3.847357e+09
2.410893e+07		6.804224e+06		2.209690e+08
3.847357e+09		2.209690e+08		2.162028e+09
3.791532e+06		1.463355e+07		4.468174e+09
1.463355e+07		4.737139e+06		1.424316e+08
4.468174e+09		1.424316e+08		2.151040e+09
-2.564557e+06		4.949024e+06		5.476551e+09
4.949024e+06		1.591256e+06		4.582433e+07
5.476551e+09		4.582433e+07		2.137460e+09
-3.887376e+06		-6.315954e+06		6.175263e+09
-6.315954e+06		-1.374188e+06		-3.509904e+06
6.175263e+09		-3.509904e+06		1.064693e+09
2.387780e+06		-3.017344e+07		4.573542e+09
-3.017344e+07		1.998160e+06		-9.423663e+07
4.573542e+09		-9.423663e+07		1.078843e+09
3.026481e+06		-1.207192e-05		4.128730e+09
-1.207192e-05		4.893115e+06		1.261255e-04
4.128730e+09		1.261255e-04		1.085244e+09
2.387780e+06		3.017344e+07		4.573542e+09
3.017344e+07		1.998160e+06		9.423663e+07
4.573542e+09		9.423663e+07		1.078843e+09
-3.887376e+06		6.315954e+06		6.175263e+09
6.315954e+06		-1.374188e+06		3.509904e+06
6.175263e+09		3.509904e+06		1.064693e+09
-1.579883e-04		-7.067373e+06		6.805332e+09
-7.067373e+06		-1.027168e-04		8.536212e-05
6.805332e+09		8.536212e-05		-2.559223e-04
-3.338035e-05		-2.231742e+07		5.786004e+09
-2.231742e+07		4.985835e-06		2.609065e-05
5.786004e+09		2.609065e-05		-1.164433e-04
-1.408248e-04		-3.504139e+07		5.120955e+09
-3.504139e+07		-1.677928e-05		9.620941e-06
5.120955e+09		9.620941e-06		-1.302147e-04
2.308714e-05		-1.857610e+07		4.748396e+09
-1.857610e+07		3.315559e-05		5.383283e-05
4.748396e+09		5.383283e-05		3.897701e-06
3.143650e-07		-1.468492e-05		4.617334e+09
-1.468492e-05		-2.649871e-05		5.224839e-05
4.617334e+09		5.224839e-05		4.347734e-05
3.045844e-05		1.857610e+07		4.748396e+09
1.857610e+07		2.961173e-05		6.692496e-05
4.748396e+09		6.692496e-05		1.105099e-04
-1.529901e-05		3.504139e+07		5.120955e+09
3.504139e+07		1.198039e-04		1.098338e-04
5.120955e+09		1.098338e-04		1.928587e-04
1.309783e-05		2.231742e+07		5.786004e+09
2.231742e+07		9.451731e-05		7.142598e-05
5.786004e+09		7.142598e-05		3.187255e-04
-3.252275e-04		7.067373e+06		6.805332e+09
7.067373e+06		-1.211009e-04		2.607971e-06
6.805332e+09		2.607971e-06		2.492432e-04
3.887376e+06		-6.315954e+06		6.175263e+09
-6.315954e+06		1.374188e+06		3.509904e+06
6.175263e+09		3.509904e+06		-1.064693e+09
-2.387780e+06		-3.017344e+07		4.573542e+09
-3.017344e+07		-1.998160e+06		9.423663e+07
4.573542e+09		9.423663e+07		-1.078843e+09
-3.026481e+06		3.412517e-05		4.128730e+09
3.412517e-05		-4.893115e+06		3.364962e-05
4.128730e+09		3.364962e-05		-1.085244e+09
-2.387780e+06		3.017344e+07		4.573542e+09
3.017344e+07		-1.998160e+06		-9.423663e+07
4.573542e+09		-9.423663e+07		-1.078843e+09
3.887376e+06		6.315954e+06		6.175263e+09
6.315954e+06		1.374188e+06		-3.509904e+06
6.175263e+09		-3.509904e+06		-1.064693e+09
2.564557e+06		-4.949024e+06		5.476551e+09
-4.949024e+06		-1.591256e+06		4.582433e+07
5.476551e+09		4.582433e+07		-2.137460e+09
-3.791532e+06		-1.463355e+07		4.468174e+09
-1.463355e+07		-4.737139e+06		1.424316e+08
4.468174e+09		1.424316e+08		-2.151040e+09
-5.546558e+06		-2.410893e+07		3.847357e+09
-2.410893e+07		-6.804224e+06		2.209690e+08
3.847357e+09		2.209690e+08		-2.162028e+09
-6.424309e+06		-1.274149e+07		3.555783e+09
-1.274149e+07		-1.183463e+07		1.222131e+08
3.555783e+09		1.222131e+08		-2.171608e+09
-5.088039e+06		1.943505e-04		3.447560e+09
1.943505e-04		-1.231022e+07		3.707502e-05
3.447560e+09		3.707502e-05		-2.172421e+09
-6.424309e+06		1.274149e+07		3.555783e+09
1.274149e+07		-1.183463e+07		-1.222131e+08
3.555783e+09		-1.222131e+08		-2.171608e+09
-5.546558e+06		2.410893e+07		3.847357e+09
2.410893e+07		-6.804224e+06		-2.209690e+08
3.847357e+09		-2.209690e+08		-2.162028e+09
-3.791532e+06		1.463355e+07		4.468174e+09
1.463355e+07		-4.737139e+06		-1.424316e+08
4.468174e+09		-1.424316e+08		-2.151040e+09
2.564557e+06		4.949024e+06		5.476551e+09
4.949024e+06		-1.591256e+06		-4.582433e+07
5.476551e+09		-4.582433e+07		-2.137460e+09
4.135624e+06		-3.014104e+06		3.196230e+09
-3.014104e+06		1.841482e+06		9.027185e+07
3.196230e+09		9.027185e+07		-3.210361e+09
-1.326015e+06		-1.292245e+07		2.119025e+09
-1.292245e+07		-1.104840e+07		5.064867e+08
2.119025e+09		5.064867e+08		-3.244205e+09
-1.706813e+06		8.778716e-05		1.903731e+09
8.778716e-05		-2.409487e+07		1.396285e-05
1.903731e+09		1.396285e-05		-3.259261e+09
-1.326015e+06		1.292245e+07		2.119025e+09
1.292245e+07		-1.104840e+07		-5.064867e+08
2.119025e+09		-5.064867e+08		-3.244205e+09
4.135624e+06		3.014104e+06		3.196230e+09
3.014104e+06		1.841482e+06		-9.027185e+07
3.196230e+09		-9.027185e+07		-3.210361e+09
-9.719567e+05		1.238761e+06		6.878989e+08
1.238761e+06		5.326810e+05		4.656826e+08
6.878989e+08		4.656826e+08		-4.299144e+09
-3.481093e+06		1.494980e+06		2.675279e+08
1.494980e+06		-8.491619e+06		7.996895e+08
2.675279e+08		7.996895e+08		-4.317858e+09
3.768485e+05		-4.223123e+05		2.666801e+08
-4.223123e+05		-1.733417e+07		1.003151e+09
2.666801e+08		1.003151e+09		-4.328019e+09
-7.101279e+05		8.415794e+04		1.923505e+08
8.415794e+04		-3.197978e+07		4.715776e+08
1.923505e+08		4.715776e+08		-4.339426e+09
1.061631e+06		-9.436376e-05		2.455327e+08
-9.436376e-05		-3.807402e+07		7.126108e-05
2.455327e+08		7.126108e-05		-4.340440e+09
-7.101279e+05		-8.415794e+04		1.923505e+08
-8.415794e+04		-3.197978e+07		-4.715776e+08
1.923505e+08		-4.715776e+08		-4.339426e+09
3.768485e+05		4.223123e+05		2.666801e+08
4.223123e+05		-1.733417e+07		-1.003151e+09
2.666801e+08		-1.003151e+09		-4.328019e+09
-3.481093e+06		-1.494980e+06		2.675279e+08
-1.494980e+06		-8.491619e+06		-7.996895e+08
2.675279e+08		-7.996895e+08		-4.317858e+09
-9.719567e+05		-1.238761e+06		6.878989e+08
-1.238761e+06		5.326810e+05		-4.656826e+08
6.878989e+08		-4.656826e+08		-4.299144e+09
-1.266734e+06		7.826440e+05		5.158873e+08
7.826440e+05		-1.912895e+06		-4.621455e+08
5.158873e+08		-4.621455e+08		2.147672e+09
-2.994333e+05		-1.573975e+05		9.438658e+07
-1.573975e+05		7.651338e+06		-1.002405e+09
9.438658e+07		-1.002405e+09		2.163842e+09
2.718478e+05		2.080691e-04		7.407673e+07
2.080691e-04		1.817627e+07		1.337081e-04
7.407673e+07		1.337081e-04		2.170978e+09
-2.994333e+05		1.573975e+05		9.438658e+07
1.573975e+05		7.651338e+06		1.002405e+09
9.438658e+07		1.002405e+09		2.163842e+09
-1.266734e+06		-7.826440e+05		5.158873e+08
-7.826440e+05		-1.912895e+06		4.621455e+08
5.158873e+08		4.621455e+08		2.147672e+09
-2.619165e+06		-1.572183e+06		5.310177e+09
-1.572183e+06		-5.390905e+05		-4.280814e+07
5.310177e+09		-4.280814e+07		1.067296e+09
2.531184e+06		-1.122087e+07		3.671708e+09
-1.122087e+07		2.801417e+06		-2.172467e+08
3.671708e+09		-2.172467e+08		1.080722e+09
3.206891e+06		9.097328e-05		3.267221e+09
9.097328e-05		6.185733e+06		1.433901e-04
3.267221e+09		1.433901e-04		1.086920e+09
2.531184e+06		1.122087e+07		3.671708e+09
1.122087e+07		2.801417e+06		2.172467e+08
3.671708e+09		2.172467e+08		1.080722e+09
-2.619165e+06		1.572183e+06		5.310177e+09
1.572183e+06		-5.390905e+05		4.280814e+07
5.310177e+09		4.280814e+07		1.067296e+09
8.415512e-05		-2.496917e+06		6.641030e+09
-2.496917e+06		9.563705e-05		-2.756063e-05
6.641030e+09		-2.756063e-05		-1.341158e-04
-2.147694e-04		-1.634678e+07		4.945315e+09
-1.634678e+07		-1.358276e-07		-2.869826e-05
4.945315e+09		-2.869826e-05		-9.785371e-05
-8.818571e-05		1.496428e-04		4.435443e+09
1.496428e-04		-4.886382e-05		5.401418e-05
4.435443e+09		5.401418e-05		-3.967178e-05
-1.043264e-04		1.634678e+07		4.945315e+09
1.634678e+07		9.382773e-05		6.643024e-05
4.945315e+09		6.643024e-05		1.956122e-04
-4.047237e-05		2.496917e+06		6.641030e+09
2.496917e+06		6.096170e-05		5.219373e-05
6.641030e+09		5.219373e-05		3.794320e-04
2.619165e+06		-1.572183e+06		5.310177e+09
-1.572183e+06		5.390905e+05		4.280814e+07
5.310177e+09		4.280814e+07		-1.067296e+09
-2.531184e+06		-1.122087e+07		3.671708e+09
-1.122087e+07		-2.801417e+06		2.172467e+08
3.671708e+09		2.172467e+08		-1.080722e+09
-3.206891e+06		1.765162e-04		3.267221e+09
1.765162e-04		-6.185733e+06		-2.383813e-05
3.267221e+09		-2.383813e-05		-1.086920e+09
-2.531184e+06		1.122087e+07		3.671708e+09
1.122087e+07		-2.801417e+06		-2.172467e+08
3.671708e+09		-2.172467e+08		-1.080722e+09
2.619165e+06		1.572183e+06		5.310177e+09
1.572183e+06		5.390905e+05		-4.280814e+07
5.310177e+09		-4.280814e+07		-1.067296e+09
1.266734e+06		7.826440e+05		5.158873e+08
7.826440e+05		1.912895e+06		4.621455e+08
5.158873e+08		4.621455e+08		-2.147672e+09
2.994333e+05		-1.573975e+05		9.438658e+07
-1.573975e+05		-7.651338e+06		1.002405e+09
9.438658e+07		1.002405e+09		-2.163842e+09
-2.718478e+05		2.675862e-05		7.407673e+07
2.675862e-05		-1.817627e+07		-8.367747e-05
7.407673e+07		-8.367747e-05		-2.170978e+09
2.994333e+05		1.573975e+05		9.438658e+07
1.573975e+05		-7.651338e+06		-1.002405e+09
9.438658e+07		-1.002405e+09		-2.163842e+09
1.266734e+06		-7.826440e+05		5.158873e+08
-7.826440e+05		1.912895e+06		-4.621455e+08
5.158873e+08		-4.621455e+08		-2.147672e+09
8.340823e-04		1.017658e-04		6.893685e+08
1.017658e-04		4.685540e-04		-4.654792e+08
6.893685e+08		-4.654792e+08		-1.694076e-04
-8.183904e-05		1.211997e-04		2.677521e+08
1.211997e-04		-2.355129e-05		-8.016162e+08
2.677521e+08		-8.016162e+08		-9.052455e-04
-7.317676e-04		-1.859437e-04		2.663214e+08
-1.859437e-04		-4.009199e-04		-1.006499e+09
2.663214e+08		-1.006499e+09		-1.284417e-03
-6.392607e-04		6.061362e-05		1.907148e+08
6.061362e-05		-5.580410e-04		-4.737877e+08
1.907148e+08		-4.737877e+08		-1.255184e-03
-8.998956e-04		2.367581e-04		2.451085e+08
2.367581e-04		-5.767206e-04		4.315004e-05
2.451085e+08		4.315004e-05		-1.295991e-03
-7.175710e-04		-2.139263e-04		1.907148e+08
-2.139263e-04		-1.644511e-04		4.737877e+08
1.907148e+08		4.737877e+08		-9.278022e-04
-7.715574e-04		1.618602e-05		2.663214e+08
1.618602e-05		-7.214956e-06		1.006499e+09
2.663214e+08		1.006499e+09		-7.902682e-04
-4.403563e-04		-2.306307e-04		2.677521e+08
-2.306307e-04		8.054264e-05		8.016162e+08
2.677521e+08		8.016162e+08		-8.758642e-04
-3.409870e-04		-3.607183e-04		6.893685e+08
-3.607183e-04		5.317014e-05		4.654792e+08
6.893685e+08		4.654792e+08		-7.645153e-04
-1.092460e-04		7.736526e-07		3.204872e+09
7.736526e-07		-4.663970e-05		-8.821076e+07
3.204872e+09		-8.821076e+07		-7.503349e-04
-1.032078e-04		1.093563e-04		2.116155e+09
1.093563e-04		-4.033744e-05		-5.043506e+08
2.116155e+09		-5.043506e+08		-6.456692e-04
-6.324465e-04		-2.577758e-05		1.895027e+09
-2.577758e-05		-2.542299e-04		1.994455e-04
1.895027e+09		1.994455e-04		-8.246154e-04
-9.450340e-05		1.036910e-04		2.116155e+09
1.036910e-04		1.230678e-04		5.043506e+08
2.116155e+09		5.043506e+08		-2.429336e-04
-4.335782e-04		-6.300957e-06		3.204872e+09
-6.300957e-06		-3.280351e-05		8.821076e+07
3.204872e+09		8.821076e+07		-1.839250e-04
-1.942363e-04		4.213197e-04		5.493093e+09
4.213197e-04		-5.187117e-06		-4.439345e+07
5.493093e+09		-4.439345e+07		-7.371926e-04
-5.923212e-07		3.849050e-04		4.476078e+09
3.849050e-04		1.130687e-04		-1.391625e+08
4.476078e+09		-1.391625e+08		-5.147289e-04
2.498701e-04		2.173148e-04		3.845065e+09
2.173148e-04		1.153409e-04		-2.170465e+08
3.845065e+09		-2.170465e+08		-3.582593e-04
-3.552868e-05		-4.110256e-06		3.545974e+09
-4.110256e-06		-2.669799e-05		-1.203115e+08
3.545974e+09		-1.203115e+08		-4.097484e-04
-4.691258e-04		-1.158543e-04		3.434636e+09
-1.158543e-04		-6.291270e-05		1.160372e-04
3.434636e+09		1.160372e-04		-4.947037e-04
-3.723789e-05		-2.504401e-05		3.545974e+09
-2.504401e-05		1.107919e-04		1.203115e+08
3.545974e+09		1.203115e+08		-2.039038e-04
6.853655e-05		-6.102455e-05		3.845065e+09
-6.102455e-05		9.224372e-05		2.170465e+08
3.845065e+09		2.170465e+08		-1.086667e-05
-1.870800e-04		2.190259e-05		4.476078e+09
2.190259e-05		5.103054e-05		1.391625e+08
4.476078e+09		1.391625e+08		1.008329e-04
-4.259268e-04		6.717482e-05		5.493093e+09
6.717482e-05		4.569837e-05		4.439345e+07
5.493093e+09		4.439345e+07		2.596607e-04
3.351233e-04		1.349684e-04		6.195305e+09
1.349684e-04		2.520415e-04		-2.551693e+06
6.195305e+09		-2.551693e+06		-2.448203e-04
-2.543809e-05		2.007708e-04		4.573343e+09
2.007708e-04		5.577540e-05		-9.169743e+07
4.573343e+09		-9.169743e+07		-2.252189e-04
-1.894706e-05		5.185870e-05		4.116347e+09
5.185870e-05		9.226869e-05		6.674579e-05
4.116347e+09		6.674579e-05		-1.013307e-04
-4.210874e-04		-8.635313e-05		4.573343e+09
-8.635313e-05		-5.526625e-05		9.169743e+07
4.573343e+09		9.169743e+07		-1.859339e-05
-2.897542e-05		-2.008354e-04		6.195305e+09
-2.008354e-04		1.919274e-04		2.551693e+06
6.195305e+09		2.551693e+06		3.899690e-04
1.320079e-04		-8.683786e-05		6.828817e+09
-8.683786e-05		2.275360e-04		-6.634218e-06
6.828817e+09		-6.634218e-06		-8.046045e-06
-1.692034e-04		2.018645e-04		5.800243e+09
2.018645e-04		4.016088e-05		7.344817e-06
5.800243e+09		7.344817e-06		-1.829453e-04
-5.366383e-04		2.145696e-04		5.123141e+09
2.145696e-04		-1.184353e-04		-5.773771e-05
5.123141e+09		-5.773771e-05		-2.880207e-04
-2.064857e-04		3.201439e-05		4.741103e+09
3.201439e-05		2.497048e-05		-6.234991e-05
4.741103e+09		-6.234991e-05		-9.600492e-05
1.236053e-04		1.767274e-04		4.606529e+09
1.767274e-04		1.006117e-04		-1.473656e-06
4.606529e+09		-1.473656e-06		1.216349e-04
-6.425710e-05		-1.964327e-04		4.741103e+09
-1.964327e-04		1.222271e-05		7.685338e-05
4.741103e+09		7.685338e-05		1.185546e-04
-1.603733e-04		-7.686798e-06		5.123141e+09
-7.686798e-06		6.754249e-05		4.916197e-05
5.123141e+09		4.916197e-05		1.963723e-04
-2.270211e-04		2.036707e-04		5.800243e+09
2.036707e-04		4.271697e-05		2.108355e-05
5.800243e+09		2.108355e-05		1.972639e-04
1.533978e-05		-2.966319e-04		6.828817e+09
-2.966319e-04		1.330854e-04		8.545231e-05
6.828817e+09		8.545231e-05		3.763707e-04
-3.596388e-04		1.944738e-05		6.195305e+09
1.944738e-05		-6.774743e-05		2.551693e+06
6.195305e+09		2.551693e+06		-1.788195e-04
-3.235368e-05		2.365049e-04		4.573343e+09
2.365049e-04		-3.527349e-05		9.169743e+07
4.573343e+09		9.169743e+07		2.528727e-05
7.624715e-05		1.660949e-04		4.116347e+09
1.660949e-04		1.556320e-04		6.032595e-05
4.116347e+09		6.032595e-05		1.710076e-04
1.808989e-04		-2.866827e-05		4.573343e+09
-2.866827e-05		7.482717e-05		-9.169743e+07
4.573343e+09		-9.169743e+07		3.304640e-04
-1.601990e-04		-8.828267e-05		6.195305e+09
-8.828267e-05		1.083275e-04		-2.551693e+06
6.195305e+09		-2.551693e+06		4.120916e-04
-2.342191e-04		1.418191e-05		5.493093e+09
1.418191e-05		9.100314e-05		4.439345e+07
5.493093e+09		4.439345e+07		-3.076158e-06
2.010592e-04		2.135543e-04		4.476078e+09
2.135543e-04		1.217050e-04		1.391625e+08
4.476078e+09		1.391625e+08		2.159812e-04
2.391445e-04		2.346704e-04		3.845065e+09
2.346704e-04		5.518767e-05		2.170465e+08
3.845065e+09		2.170465e+08		2.959413e-04
5.140039e-05		1.070480e-04		3.545974e+09
1.070480e-04		8.647726e-05		1.203115e+08
3.545974e+09		1.203115e+08		2.962444e-04
1.874812e-04		1.550735e-04		3.434636e+09
1.550735e-04		3.171347e-04		-3.300048e-05
3.434636e+09		-3.300048e-05		4.075654e-04
7.126096e-05		-7.399092e-05		3.545974e+09
-7.399092e-05		1.119607e-04		-1.203115e+08
3.545974e+09		-1.203115e+08		3.331397e-04
3.666613e-04		-9.520824e-05		3.845065e+09
-9.520824e-05		3.659108e-05		-2.170465e+08
3.845065e+09		-2.170465e+08		3.589047e-04
-3.006402e-05		-7.644969e-05		4.476078e+09
-7.644969e-05		1.541493e-04		-1.391625e+08
4.476078e+09		-1.391625e+08		4.326776e-04
-2.595130e-06		5.089191e-06		5.493093e+09
5.089191e-06		3.740198e-04		-4.439345e+07
5.493093e+09		-4.439345e+07		7.252675e-04
3.280924e-04		-8.202948e-05		3.204872e+09
-8.202948e-05		1.186957e-04		8.821076e+07
3.204872e+09		8.821076e+07		5.759411e-04
-1.755573e-04		1.760592e-04		2.116155e+09
1.760592e-04		1.102502e-04		5.043506e+08
2.116155e+09		5.043506e+08		4.646145e-04
-1.601253e-04		4.400479e-05		1.895027e+09
4.400479e-05		9.377976e-05		-4.241243e-06
1.895027e+09		-4.241243e-06		4.152376e-04
3.942063e-04		6.672764e-05		2.116155e+09
6.672764e-05		2.451532e-04		-5.043506e+08
2.116155e+09		-5.043506e+08		7.307269e-04
-2.776817e-04		-8.375700e-05		3.204872e+09
-8.375700e-05		-8.924073e-05		-8.821076e+07
3.204872e+09		-8.821076e+07		5.932748e-04
2.839752e-04		-3.114763e-04		6.893685e+08
-3.114763e-04		-1.068311e-04		4.654792e+08
6.893685e+08		4.654792e+08		8.552559e-04
2.861768e-04		-1.392120e-04		2.677521e+08
-1.392120e-04		2.465639e-04		8.016162e+08
2.677521e+08		8.016162e+08		1.005381e-03
6.603217e-05		8.726611e-05		2.663214e+08
8.726611e-05		4.575956e-04		1.006499e+09
2.663214e+08		1.006499e+09		9.422433e-04
1.507541e-04		8.154767e-05		1.907148e+08
8.154767e-05		3.539408e-04		4.737877e+08
1.907148e+08		4.737877e+08		9.308010e-04
-2.499856e-04		1.467144e-04		2.451085e+08
1.467144e-04		5.012238e-05		-7.249415e-05
2.451085e+08		-7.249415e-05		7.619709e-04
2.473947e-04		2.514943e-04		1.907148e+08
2.514943e-04		4.031174e-04		-4.737877e+08
1.907148e+08		-4.737877e+08		9.834915e-04
5.164049e-04		1.890405e-04		2.663214e+08
1.890405e-04		6.828336e-04		-1.006499e+09
2.663214e+08		-1.006499e+09		1.257233e-03
5.948432e-04		-6.869288e-05		2.677521e+08
-6.869288e-05		5.274229e-04		-8.016162e+08
2.677521e+08		-8.016162e+08		1.311079e-03
-1.982991e-04		-5.162998e-05		6.893685e+08
-5.162998e-05		-6.518327e-05		-4.654792e+08
6.893685e+08		-4.654792e+08		8.052588e-04
1.266734e+06		-7.826440e+05		5.158873e+08
-7.826440e+05		1.912895e+06		-4.621455e+08
5.158873e+08		-4.621455e+08		-2.147672e+09
2.994333e+05		1.573975e+05		9.438658e+07
1.573975e+05		-7.651338e+06		-1.002405e+09
9.438658e+07		-1.002405e+09		-2.163842e+09
-2.718478e+05		8.394718e-05		7.407673e+07
8.394718e-05		-1.817627e+07		2.287328e-05
7.407673e+07		2.287328e-05		-2.170978e+09
2.994333e+05		-1.573975e+05		9.438658e+07
-1.573975e+05		-7.651338e+06		1.002405e+09
9.438658e+07		1.002405e+09		-2.163842e+09
1.266734e+06		7.826440e+05		5.158873e+08
7.826440e+05		1.912895e+06		4.621455e+08
5.158873e+08		4.621455e+08		-2.147672e+09
2.619165e+06		1.572183e+06		5.310177e+09
1.572183e+06		5.390905e+05		-4.280814e+07
5.310177e+09		-4.280814e+07		-1.067296e+09
-2.531184e+06		1.122087e+07		3.671708e+09
1.122087e+07		-2.801417e+06		-2.172467e+08
3.671708e+09		-2.172467e+08		-1.080722e+09
-3.206891e+06		1.985088e-05		3.267221e+09
1.985088e-05		-6.185733e+06		3.155321e-05
3.267221e+09		3.155321e-05		-1.086920e+09
-2.531184e+06		-1.122087e+07		3.671708e+09
-1.122087e+07		-2.801417e+06		2.172467e+08
3.671708e+09		2.172467e+08		-1.080722e+09
2.619165e+06		-1.572183e+06		5.310177e+09
-1.572183e+06		5.390905e+05		4.280814e+07
5.310177e+09		4.280814e+07		-1.067296e+09
-7.319520e-05		2.496917e+06		6.641030e+09
2.496917e+06		9.951554e-05		-2.010679e-05
6.641030e+09		-2.010679e-05		-1.252852e-04
-7.798820e-05		1.634678e+07		4.945315e+09
1.634678e+07		4.591851e-05		-2.650324e-05
4.945315e+09		-2.650324e-05		-1.054499e-04
-1.428495e-04		1.205232e-04		4.435443e+09
1.205232e-04		4.996457e-05		-1.544446e-05
4.435443e+09		-1.544446e-05		8.434895e-05
-8.586197e-05		-1.634678e+07		4.945315e+09
-1.634678e+07		7.222500e-05		3.367581e-05
4.945315e+09		3.367581e-05		9.443238e-05
1.639887e-04		-2.496917e+06		6.641030e+09
-2.496917e+06		2.590714e-04		8.736990e-05
6.641030e+09		8.736990e-05		4.684627e-04
-2.619165e+06		1.572183e+06		5.310177e+09
1.572183e+06		-5.390905e+05		4.280814e+07
5.310177e+09		4.280814e+07		1.067296e+09
2.531184e+06		1.122087e+07		3.671708e+09
1.122087e+07		2.801417e+06		2.172467e+08
3.671708e+09		2.172467e+08		1.080722e+09
3.206891e+06		8.878228e-05		3.267221e+09
8.878228e-05		6.185733e+06		-4.771352e-05
3.267221e+09		-4.771352e-05		1.086920e+09
2.531184e+06		-1.122087e+07		3.671708e+09
-1.122087e+07		2.801417e+06		-2.172467e+08
3.671708e+09		-2.172467e+08		1.080722e+09
-2.619165e+06		-1.572183e+06		5.310177e+09
-1.572183e+06		-5.390905e+05		-4.280814e+07
5.310177e+09		-4.280814e+07		1.067296e+09
-1.266734e+06		-7.826440e+05		5.158873e+08
-7.826440e+05		-1.912895e+06		4.621455e+08
5.158873e+08		4.621455e+08		2.147672e+09
-2.994333e+05		1.573975e+05		9.438658e+07
1.573975e+05		7.651338e+06		1.002405e+09
9.438658e+07		1.002405e+09		2.163842e+09
2.718478e+05		2.578412e-04		7.407673e+07
2.578412e-04		1.817627e+07		7.352978e-05
7.407673e+07		7.352978e-05		2.170978e+09
-2.994333e+05		-1.573975e+05		9.438658e+07
-1.573975e+05		7.651338e+06		-1.002405e+09
9.438658e+07		-1.002405e+09		2.163842e+09
-1.266734e+06		7.826440e+05		5.158873e+08
7.826440e+05		-1.912895e+06		-4.621455e+08
5.158873e+08		-4.621455e+08		2.147672e+09
-9.719567e+05		-1.238761e+06		6.878989e+08
-1.238761e+06		5.326810e+05		-4.656826e+08
6.878989e+08		-4.656826e+08		-4.299144e+09
-3.481093e+06		-1.494980e+06		2.675279e+08
-1.494980e+06		-8.491619e+06		-7.996895e+08
2.675279e+08		-7.996895e+08		-4.317858e+09
3.768485e+05		4.223123e+05		2.666801e+08
4.223123e+05		-1.733417e+07		-1.003151e+09
2.666801e+08		-1.003151e+09		-4.328019e+09
-7.101279e+05		-8.415794e+04		1.923505e+08
-8.415794e+04		-3.197978e+07		-4.715776e+08
1.923505e+08		-4.715776e+08		-4.339426e+09
1.061631e+06		-1.755202e-04		2.455327e+08
-1.755202e-04		-3.807402e+07		5.855039e-05
2.455327e+08		5.855039e-05		-4.340440e+09
-7.101279e+05		8.415794e+04		1.923505e+08
8.415794e+04		-3.197978e+07		4.715776e+08
1.923505e+08		4.715776e+08		-4.339426e+09
3.768485e+05		-4.223123e+05		2.666801e+08
-4.223123e+05		-1.733417e+07		1.003151e+09
2.666801e+08		1.003151e+09		-4.328019e+09
-3.481093e+06		1.494980e+06		2.675279e+08
1.494980e+06		-8.491619e+06		7.996895e+08
2.675279e+08		7.996895e+08		-4.317858e+09
-9.719567e+05		1.238761e+06		6.878989e+08
1.238761e+06		5.326810e+05		4.656826e+08
6.878989e+08		4.656826e+08		-4.299144e+09
4.135624e+06		3.014104e+06		3.196230e+09
3.014104e+06		1.841482e+06		-9.027185e+07
3.196230e+09		-9.027185e+07		-3.210361e+09
-1.326015e+06		1.292245e+07		2.119025e+09
1.292245e+07		-1.104840e+07		-5.064867e+08
2.119025e+09		-5.064867e+08		-3.244205e+09
-1.706813e+06		-1.639520e-04		1.903731e+09
-1.639520e-04		-2.409487e+07		-9.665918e-05
1.903731e+09		-9.665918e-05		-3.259261e+09
-1.326015e+06		-1.292245e+07		2.119025e+09
-1.292245e+07		-1.104840e+07		5.064867e+08
2.119025e+09		5.064867e+08		-3.244205e+09
4.135624e+06		-3.014104e+06		3.196230e+09
-3.014104e+06		1.841482e+06		9.027185e+07
3.196230e+09		9.027185e+07		-3.210361e+09
2.564557e+06		4.949024e+06		5.476551e+09
4.949024e+06		-1.591256e+06		-4.582433e+07
5.476551e+09		-4.582433e+07		-2.137460e+09
-3.791532e+06		1.463355e+07		4.468174e+09
1.463355e+07		-4.737139e+06		-1.424316e+08
4.468174e+09		-1.424316e+08		-2.151040e+09
-5.546558e+06		2.410893e+07		3.847357e+09
2.410893e+07		-6.804224e+06		-2.209690e+08
3.847357e+09		-2.209690e+08		-2.162028e+09
-6.424309e+06		1.274149e+07		3.555783e+09
1.274149e+07		-1.183463e+07		-1.222131e+08
3.555783e+09		-1.222131e+08		-2.171608e+09
-5.088039e+06		2.174109e-05		3.447560e+09
2.174109e-05		-1.231022e+07		-1.109894e-04
3.447560e+09		-1.109894e-04		-2.172421e+09
-6.424309e+06		-1.274149e+07		3.555783e+09
-1.274149e+07		-1.183463e+07		1.222131e+08
3.555783e+09		1.222131e+08		-2.171608e+09
-5.546558e+06		-2.410893e+07		3.847357e+09
-2.410893e+07		-6.804224e+06		2.209690e+08
3.847357e+09		2.209690e+08		-2.162028e+09
-3.791532e+06		-1.463355e+07		4.468174e+09
-1.463355e+07		-4.737139e+06		1.424316e+08
4.468174e+09		1.424316e+08		-2.151040e+09
2.564557e+06		-4.949024e+06		5.476551e+09
-4.949024e+06		-1.591256e+06		4.582433e+07
5.476551e+09		4.582433e+07		-2.137460e+09
3.887376e+06		6.315954e+06		6.175263e+09
6.315954e+06		1.374188e+06		-3.509904e+06
6.175263e+09		-3.509904e+06		-1.064693e+09
-2.387780e+06		3.017344e+07		4.573542e+09
3.017344e+07		-1.998160e+06		-9.423663e+07
4.573542e+09		-9.423663e+07		-1.078843e+09
-3.026481e+06		1.123408e-07		4.128730e+09
1.123408e-07		-4.893115e+06		-4.513748e-05
4.128730e+09		-4.513748e-05		-1.085244e+09
-2.387780e+06		-3.017344e+07		4.573542e+09
-3.017344e+07		-1.998160e+06		9.423663e+07
4.573542e+09		9.423663e+07		-1.078843e+09
3.887376e+06		-6.315954e+06		6.175263e+09
-6.315954e+06		1.374188e+06		3.509904e+06
6.175263e+09		3.509904e+06		-1.064693e+09
-1.134733e-04		7.067373e+06		6.805332e+09
7.067373e+06		5.518500e-05		-8.747628e-05
6.805332e+09		-8.747628e-05		-2.537025e-04
-1.118963e-04		2.231742e+07		5.786004e+09
2.231742e+07		3.140516e-05		-8.377596e-06
5.786004e+09		-8.377596e-06		-1.679249e-04
4.456153e-04		3.504139e+07		5.120955e+09
3.504139e+07		2.525992e-04		4.064919e-05
5.120955e+09		4.064919e-05		1.093592e-04
-2.221102e-04		1.857610e+07		4.748396e+09
1.857610e+07		-3.060755e-05		6.306763e-05
4.748396e+09		6.306763e-05		-1.349244e-04
-1.933061e-04		2.310273e-04		4.617334e+09
2.310273e-04		-5.391630e-06		4.334238e-05
4.617334e+09		4.334238e-05		-1.191171e-04
-3.315992e-04		-1.857610e+07		4.748396e+09
-1.857610e+07		-4.029000e-05		-3.629964e-05
4.748396e+09		-3.629964e-05		-8.983910e-05
1.022598e-05		-3.504139e+07		5.120955e+09
-3.504139e+07		1.308794e-04		7.092506e-06
5.120955e+09		7.092506e-06		1.459331e-04
-1.024753e-04		-2.231742e+07		5.786004e+09
-2.231742e+07		1.756328e-04		5.180235e-05
5.786004e+09		5.180235e-05		2.909992e-04
4.874889e-04		-7.067373e+06		6.805332e+09
-7.067373e+06		5.312214e-04		7.479064e-05
6.805332e+09		7.479064e-05		7.670708e-04
-3.887376e+06		6.315954e+06		6.175263e+09
6.315954e+06		-1.374188e+06		3.509904e+06
6.175263e+09		3.509904e+06		1.064693e+09
2.387780e+06		3.017344e+07		4.573542e+09
3.017344e+07		1.998160e+06		9.423663e+07
4.573542e+09		9.423663e+07		1.078843e+09
3.026481e+06		1.397548e-04		4.128730e+09
1.397548e-04		4.893115e+06		5.742512e-05
4.128730e+09		5.742512e-05		1.085244e+09
2.387780e+06		-3.017344e+07		4.573542e+09
-3.017344e+07		1.998160e+06		-9.423663e+07
4.573542e+09		-9.423663e+07		1.078843e+09
-3.887376e+06		-6.315954e+06		6.175263e+09
-6.315954e+06		-1.374188e+06		-3.509904e+06
6.175263e+09		-3.509904e+06		1.064693e+09
-2.564557e+06		4.949024e+06		5.476551e+09
4.949024e+06		1.591256e+06		4.582433e+07
5.476551e+09		4.582433e+07		2.137460e+09
3.791532e+06		1.463355e+07		4.468174e+09
1.463355e+07		4.737139e+06		1.424316e+08
4.468174e+09		1.424316e+08		2.151040e+09
5.546558e+06		2.410893e+07		3.847357e+09
2.410893e+07		6.804224e+06		2.209690e+08
3.847357e+09		2.209690e+08		2.162028e+09
6.424309e+06		1.274149e+07		3.555783e+09
1.274149e+07		1.183463e+07		1.222131e+08
3.555783e+09		1.222131e+08		2.171608e+09
5.088039e+06		8.548697e-05		3.447560e+09
8.548697e-05		1.231022e+07		1.471955e-05
3.447560e+09		1.471955e-05		2.172421e+09
6.424309e+06		-1.274149e+07		3.555783e+09
-1.274149e+07		1.183463e+07		-1.222131e+08
3.555783e+09		-1.222131e+08		2.171608e+09
5.546558e+06		-2.410893e+07		3.847357e+09
-2.410893e+07		6.804224e+06		-2.209690e+08
3.847357e+09		-2.209690e+08		2.162028e+09
3.791532e+06		-1.463355e+07		4.468174e+09
-1.463355e+07		4.737139e+06		-1.424316e+08
4.468174e+09		-1.424316e+08		2.151040e+09
-2.564557e+06		-4.949024e+06		5.476551e+09
-4.949024e+06		1.591256e+06		-4.582433e+07
5.476551e+09		-4.582433e+07		2.137460e+09
-4.135624e+06		3.014104e+06		3.196230e+09
3.014104e+06		-1.841482e+06		9.027185e+07
3.196230e+09		9.027185e+07		3.210361e+09
1.326015e+06		1.292245e+07		2.119025e+09
1.292245e+07		1.104840e+07		5.064867e+08
2.119025e+09		5.064867e+08		3.244205e+09
1.706813e+06		1.644185e-04		1.903731e+09
1.644185e-04		2.409487e+07		-5.279901e-05
1.903731e+09		-5.279901e-05		3.259261e+09
1.326015e+06		-1.292245e+07		2.119025e+09
-1.292245e+07		1.104840e+07		-5.064867e+08
2.119025e+09		-5.064867e+08		3.244205e+09
-4.135624e+06		-3.014104e+06		3.196230e+09
-3.014104e+06		-1.841482e+06		-9.027185e+07
3.196230e+09		-9.027185e+07		3.210361e+09
9.719567e+05		-1.238761e+06		6.878989e+08
-1.238761e+06		-5.326810e+05		4.656826e+08
6.878989e+08		4.656826e+08		4.299144e+09
3.481093e+06		-1.494980e+06		2.675279e+08
-1.494980e+06		8.491619e+06		7.996895e+08
2.675279e+08		7.996895e+08		4.317858e+09
-3.768485e+05		4.223123e+05		2.666801e+08
4.223123e+05		1.733417e+07		1.003151e+09
2.666801e+08		1.003151e+09		4.328019e+09
7.101279e+05		-8.415794e+04		1.923505e+08
-8.415794e+04		3.197978e+07		4.715776e+08
1.923505e+08		4.715776e+08		4.339426e+09
-1.061631e+06		2.226473e-04		2.455327e+08
2.226473e-04		3.807402e+07		1.435578e-04
2.455327e+08		1.435578e-04		4.340440e+09
7.101279e+05		8.415794e+04		1.923505e+08
8.415794e+04		3.197978e+07		-4.715776e+08
1.923505e+08		-4.715776e+08		4.339426e+09
-3.768485e+05		-4.223123e+05		2.666801e+08
-4.223123e+05		1.733417e+07		-1.003151e+09
2.666801e+08		-1.003151e+09		4.328019e+09
3.481093e+06		1.494980e+06		2.675279e+08
1.494980e+06		8.491619e+06		-7.996895e+08
2.675279e+08		-7.996895e+08		4.317858e+09
9.719567e+05		1.238761e+06		6.878989e+08
1.238761e+06		-5.326810e+05		-4.656826e+08
6.878989e+08		-4.656826e+08		4.299144e+09
5.942070e+06		-2.272094e+06		5.118928e+08
-2.272094e+06		9.505995e+06		-4.578715e+08
5.118928e+08		-4.578715e+08		-6.427334e+09
2.779981e+06		1.030805e+06		9.475390e+07
1.030805e+06		-3.233193e+07		-9.916275e+08
9.475390e+07		-9.916275e+08		-6.498632e+09
1.736485e+06		-1.019441e-04		7.466839e+07
-1.019441e-04		-7.235177e+07		-8.536130e-05
7.466839e+07		-8.536130e-05		-6.529151e+09
2.779981e+06		-1.030805e+06		9.475390e+07
-1.030805e+06		-3.233193e+07		9.916275e+08
9.475390e+07		9.916275e+08		-6.498632e+09
5.942070e+06		2.272094e+06		5.118928e+08
2.272094e+06		9.505995e+06		4.578715e+08
5.118928e+08		4.578715e+08		-6.427334e+09
1.058666e+07		6.396750e+06		5.267778e+09
6.396750e+06		2.471304e+06		-4.352936e+07
5.267778e+09		-4.352936e+07		-3.183246e+09
-7.594083e+06		4.505702e+07		3.676959e+09
4.505702e+07		-1.088382e+07		-2.246382e+08
3.676959e+09		-2.246382e+08		-3.240548e+09
-9.623397e+06		1.372480e-04		3.298032e+09
1.372480e-04		-2.428178e+07		-9.472109e-05
3.298032e+09		-9.472109e-05		-3.266027e+09
-7.594083e+06		-4.505702e+07		3.676959e+09
-4.505702e+07		-1.088382e+07		2.246382e+08
3.676959e+09		2.246382e+08		-3.240548e+09
1.058666e+07		-6.396750e+06		5.267778e+09
-6.396750e+06		2.471304e+06		4.352936e+07
5.267778e+09		4.352936e+07		-3.183246e+09
-4.430238e-04		9.151669e+06		6.585293e+09
9.151669e+06		-2.716662e-04		1.015723e-04
6.585293e+09		1.015723e-04		-5.388968e-04
-1.497902e-04		6.463734e+07		4.942038e+09
6.463734e+07		1.312923e-04		2.067978e-05
4.942038e+09		2.067978e-05		-2.936274e-05
-3.797412e-04		6.887084e-05		4.464218e+09
6.887084e-05		-1.370334e-04		3.656601e-05
4.464218e+09		3.656601e-05		-1.945049e-04
-1.178156e-04		-6.463734e+07		4.942038e+09
-6.463734e+07		7.384026e-05		2.408028e-05
4.942038e+09		2.408028e-05		1.533069e-04
-1.270329e-04		-9.151669e+06		6.585293e+09
-9.151669e+06		2.033825e-04		7.785152e-05
6.585293e+09		7.785152e-05		4.156232e-04
-1.058666e+07		6.396750e+06		5.267778e+09
6.396750e+06		-2.471304e+06		4.352936e+07
5.267778e+09		4.352936e+07		3.183246e+09
7.594083e+06		4.505702e+07		3.676959e+09
4.505702e+07		1.088382e+07		2.246382e+08
3.676959e+09		2.246382e+08		3.240548e+09
9.623397e+06		7.721118e-05		3.298032e+09
7.721118e-05		2.428178e+07		4.643574e-05
3.298032e+09		4.643574e-05		3.266027e+09
7.594083e+06		-4.505702e+07		3.676959e+09
-4.505702e+07		1.088382e+07		-2.246382e+08
3.676959e+09		-2.246382e+08		3.240548e+09
-1.058666e+07		-6.396750e+06		5.267778e+09
-6.396750e+06		-2.471304e+06		-4.352936e+07
5.267778e+09		-4.352936e+07		3.183246e+09
-5.942070e+06		-2.272094e+06		5.118928e+08
-2.272094e+06		-9.505995e+06		4.578715e+08
5.118928e+08		4.578715e+08		6.427334e+09
-2.779981e+06		1.030805e+06		9.475390e+07
1.030805e+06		3.233193e+07		9.916275e+08
9.475390e+07		9.916275e+08		6.498632e+09
-1.736485e+06		5.327974e-05		7.466839e+07
5.327974e-05		7.235177e+07		7.307529e-05
7.466839e+07		7.307529e-05		6.529151e+09
-2.779981e+06		-1.030805e+06		9.475390e+07
-1.030805e+06		3.233193e+07		-9.916275e+08
9.475390e+07		-9.916275e+08		6.498632e+09
-5.942070e+06		2.272094e+06		5.118928e+08
2.272094e+06		-9.505995e+06		-4.578715e+08
5.118928e+08		-4.578715e+08		6.427334e+09
2.807688e+06		-2.254927e+06		6.837434e+08
-2.254927e+06		7.950323e+06		-4.649818e+08
6.837434e+08		-4.649818e+08		-8.565626e+09
-8.331557e+06		-4.335719e+06		2.691587e+08
-4.335719e+06		-2.762083e+07		-7.927343e+08
2.691587e+08		-7.927343e+08		-8.637240e+09
2.856361e+06		1.530589e+06		2.708663e+08
1.530589e+06		-5.834440e+07		-9.915974e+08
2.708663e+08		-9.915974e+08		-8.676152e+09
7.071274e+05		-5.966398e+05		2.012979e+08
-5.966398e+05		-9.993403e+07		-4.636149e+08
2.012979e+08		-4.636149e+08		-8.712275e+09
4.362259e+06		-2.514918e-04		2.506344e+08
-2.514918e-04		-1.199218e+08		-2.580546e-04
2.506344e+08		-2.580546e-04		-8.723913e+09
7.071274e+05		5.966398e+05		2.012979e+08
5.966398e+05		-9.993403e+07		4.636149e+08
2.012979e+08		4.636149e+08		-8.712275e+09
2.856361e+06		-1.530589e+06		2.708663e+08
-1.530589e+06		-5.834440e+07		9.915974e+08
2.708663e+08		9.915974e+08		-8.676152e+09
-8.331557e+06		4.335719e+06		2.691587e+08
4.335719e+06		-2.762083e+07		7.927343e+08
2.691587e+08		7.927343e+08		-8.637240e+09
2.807688e+06		2.254927e+06		6.837434e+08
2.254927e+06		7.950323e+06		4.649818e+08
6.837434e+08		4.649818e+08		-8.565626e+09
1.533734e+07		9.428091e+06		3.156047e+09
9.428091e+06		9.473332e+06		-9.817141e+07
3.156047e+09		-9.817141e+07		-6.374786e+09
-2.030898e+06		3.910475e+07		2.127159e+09
3.910475e+07		-3.667845e+07		-5.149230e+08
2.127159e+09		-5.149230e+08		-6.494106e+09
-3.174883e+06		-2.328469e-05		1.934434e+09
-2.328469e-05		-7.546438e+07		-1.548072e-04
1.934434e+09		-1.548072e-04		-6.545117e+09
-2.030898e+06		-3.910475e+07		2.127159e+09
-3.910475e+07		-3.667845e+07		5.149230e+08
2.127159e+09		5.149230e+08		-6.494106e+09
1.533734e+07		-9.428091e+06		3.156047e+09
-9.428091e+06		9.473332e+06		9.817141e+07
3.156047e+09		9.817141e+07		-6.374786e+09
1.329030e+07		1.424290e+07		5.407813e+09
1.424290e+07		-4.463937e+05		-5.050655e+07
5.407813e+09		-5.050655e+07		-4.233676e+09
-4.277746e+06		4.392829e+07		4.438263e+09
4.392829e+07		-1.150498e+07		-1.548955e+08
4.438263e+09		-1.548955e+08		-4.281111e+09
-8.608188e+06		7.175440e+07		3.857632e+09
7.175440e+07		-1.874704e+07		-2.365384e+08
3.857632e+09		-2.365384e+08		-4.319358e+09
-1.009136e+07		3.726707e+07		3.597113e+09
3.726707e+07		-3.336266e+07		-1.294340e+08
3.597113e+09		-1.294340e+08		-4.347969e+09
-7.005691e+06		1.950734e-04		3.499541e+09
1.950734e-04		-3.651969e+07		-1.157392e-04
3.499541e+09		-1.157392e-04		-4.354299e+09
-1.009136e+07		-3.726707e+07		3.597113e+09
-3.726707e+07		-3.336266e+07		1.294340e+08
3.597113e+09		1.294340e+08		-4.347969e+09
-8.608188e+06		-7.175440e+07		3.857632e+09
-7.175440e+07		-1.874704e+07		2.365384e+08
3.857632e+09		2.365384e+08		-4.319358e+09
-4.277746e+06		-4.392829e+07		4.438263e+09
-4.392829e+07		-1.150498e+07		1.548955e+08
4.438263e+09		1.548955e+08		-4.281111e+09
1.329030e+07		-1.424290e+07		5.407813e+09
-1.424290e+07		-4.463937e+05		5.050655e+07
5.407813e+09		5.050655e+07		-4.233676e+09
1.416987e+07		1.824370e+07		6.092072e+09
1.824370e+07		5.250759e+06		-7.832969e+06
6.092072e+09		-7.832969e+06		-2.104597e+09
-3.170766e+06		8.910002e+07		4.574203e+09
8.910002e+07		-5.773230e+06		-1.041519e+08
4.574203e+09		-1.041519e+08		-2.152953e+09
-4.269311e+06		3.657769e-06		4.177493e+09
3.657769e-06		-1.440759e+07		-4.149158e-05
4.177493e+09		-4.149158e-05		-2.173572e+09
-3.170766e+06		-8.910002e+07		4.574203e+09
-8.910002e+07		-5.773230e+06		1.041519e+08
4.574203e+09		1.041519e+08		-2.152953e+09
1.416987e+07		-1.824370e+07		6.092072e+09
-1.824370e+07		5.250759e+06		7.832969e+06
6.092072e+09		7.832969e+06		-2.104597e+09
3.680063e-06		1.859820e+07		6.711205e+09
1.859820e+07		-2.322797e-04		1.775842e-04
6.711205e+09		1.775842e-04		-2.171583e-04
6.445218e-06		6.456088e+07		5.732251e+09
6.456088e+07		5.160552e-05		7.803412e-05
5.732251e+09		7.803412e-05		-7.862225e-05
-5.926492e-04		1.025557e+08		5.115464e+09
1.025557e+08		3.294041e-05		1.239660e-05
5.115464e+09		1.239660e-05		-2.022032e-04
-3.484548e-04		5.408013e+07		4.782030e+09
5.408013e+07		-1.969014e-05		-1.046757e-04
4.782030e+09		-1.046757e-04		-3.691018e-05
-4.558749e-04		1.869840e-04		4.664137e+09
1.869840e-04		-1.392682e-04		-1.284887e-04
4.664137e+09		-1.284887e-04		-1.664460e-05
3.433367e-05		-5.408013e+07		4.782030e+09
-5.408013e+07		9.711366e-05		-1.638895e-06
4.782030e+09		-1.638895e-06		2.096705e-04
-2.394513e-04		-1.025557e+08		5.115464e+09
-1.025557e+08		5.862268e-06		1.165112e-05
5.115464e+09		1.165112e-05		1.409641e-04
1.273020e-04		-6.456088e+07		5.732251e+09
-6.456088e+07		1.983624e-04		6.333800e-05
5.732251e+09		6.333800e-05		2.704263e-04
-3.436261e-04		-1.859820e+07		6.711205e+09
-1.859820e+07		-2.070058e-05		1.094054e-04
6.711205e+09		1.094054e-04		4.275143e-05
-1.416987e+07		1.824370e+07		6.092072e+09
1.824370e+07		-5.250759e+06		7.832969e+06
6.092072e+09		7.832969e+06		2.104597e+09
3.170766e+06		8.910002e+07		4.574203e+09
8.910002e+07		5.773230e+06		1.041519e+08
4.574203e+09		1.041519e+08		2.152953e+09
4.269311e+06		-3.415905e-05		4.177493e+09
-3.415905e-05		1.440759e+07		-5.851034e-05
4.177493e+09		-5.851034e-05		2.173572e+09
3.170766e+06		-8.910002e+07		4.574203e+09
-8.910002e+07		5.773230e+06		-1.041519e+08
4.574203e+09		-1.041519e+08		2.152953e+09
-1.416987e+07		-1.824370e+07		6.092072e+09
-1.824370e+07		-5.250759e+06		-7.832969e+06
6.092072e+09		-7.832969e+06		2.104597e+09
-1.329030e+07		1.424290e+07		5.407813e+09
1.424290e+07		4.463937e+05		5.050655e+07
5.407813e+09		5.050655e+07		4.233676e+09
4.277746e+06		4.392829e+07		4.438263e+09
4.392829e+07		1.150498e+07		1.548955e+08
4.438263e+09		1.548955e+08		4.281111e+09
8.608188e+06		7.175440e+07		3.857632e+09
7.175440e+07		1.874704e+07		2.365384e+08
3.857632e+09		2.365384e+08		4.319358e+09
1.009136e+07		3.726707e+07		3.597113e+09
3.726707e+07		3.336266e+07		1.294340e+08
3.597113e+09		1.294340e+08		4.347969e+09
7.005691e+06		-9.001535e-05		3.499541e+09
-9.001535e-05		3.651969e+07		4.042964e-05
3.499541e+09		4.042964e-05		4.354299e+09
1.009136e+07		-3.726707e+07		3.597113e+09
-3.726707e+07		3.336266e+07		-1.294340e+08
3.597113e+09		-1.294340e+08		4.347969e+09
8.608188e+06		-7.175440e+07		3.857632e+09
-7.175440e+07		1.874704e+07		-2.365384e+08
3.857632e+09		-2.365384e+08		4.319358e+09
4.277746e+06		-4.392829e+07		4.438263e+09
-4.392829e+07		1.150498e+07		-1.548955e+08
4.438263e+09		-1.548955e+08		4.281111e+09
-1.329030e+07		-1.424290e+07		5.407813e+09
-1.424290e+07		4.463937e+05		-5.050655e+07
5.407813e+09		-5.050655e+07		4.233676e+09
-1.533734e+07		9.428091e+06		3.156047e+09
9.428091e+06		-9.473332e+06		9.817141e+07
3.156047e+09		9.817141e+07		6.374786e+09
2.030898e+06		3.910475e+07		2.127159e+09
3.910475e+07		3.667845e+07		5.149230e+08
2.127159e+09		5.149230e+08		6.494106e+09
3.174883e+06		1.196344e-04		1.934434e+09
1.196344e-04		7.546438e+07		9.100605e-05
1.934434e+09		9.100605e-05		6.545117e+09
2.030898e+06		-3.910475e+07		2.127159e+09
-3.910475e+07		3.667845e+07		-5.149230e+08
2.127159e+09		-5.149230e+08		6.494106e+09
-1.533734e+07		-9.428091e+06		3.156047e+09
-9.428091e+06		-9.473332e+06		-9.817141e+07
3.156047e+09		-9.817141e+07		6.374786e+09
-2.807688e+06		-2.254927e+06		6.837434e+08
-2.254927e+06		-7.950323e+06		4.649818e+08
6.837434e+08		4.649818e+08		8.565626e+09
8.331557e+06		-4.335719e+06		2.691587e+08
-4.335719e+06		2.762083e+07		7.927343e+08
2.691587e+08		7.927343e+08		8.637240e+09
-2.856361e+06		1.530589e+06		2.708663e+08
1.530589e+06		5.834440e+07		9.915974e+08
2.708663e+08		9.915974e+08		8.676152e+09
-7.071274e+05		-5.966398e+05		2.012979e+08
-5.966398e+05		9.993403e+07		4.636149e+08
2.012979e+08		4.636149e+08		8.712275e+09
-4.362259e+06		1.184767e-04		2.506344e+08
1.184767e-04		1.199218e+08		-1.499057e-05
2.506344e+08		-1.499057e-05		8.723913e+09
-7.071274e+05		5.966398e+05		2.012979e+08
5.966398e+05		9.993403e+07		-4.636149e+08
2.012979e+08		-4.636149e+08		8.712275e+09
-2.856361e+06		-1.530589e+06		2.708663e+08
-1.530589e+06		5.834440e+07		-9.915974e+08
2.708663e+08		-9.915974e+08		8.676152e+09
8.331557e+06		4.335719e+06		2.691587e+08
4.335719e+06		2.762083e+07		-7.927343e+08
2.691587e+08		-7.927343e+08		8.637240e+09
-2.807688e+06		2.254927e+06		6.837434e+08
2.254927e+06		-7.950323e+06		-4.649818e+08
6.837434e+08		-4.649818e+08		8.565626e+09
4.699445e+06		-6.099987e+06		5.002998e+08
-6.099987e+06		1.571229e+07		-4.395176e+08
5.002998e+08		-4.395176e+08		-1.063145e+10
-2.982974e+06		3.106127e+06		1.016132e+08
3.106127e+06		-1.016139e+08		-9.535026e+08
1.016132e+08		-9.535026e+08		-1.086140e+10
-9.814925e+06		2.879160e-05		8.238596e+07
2.879160e-05		-2.083076e+08		-3.473386e-04
8.238596e+07		-3.473386e-04		-1.096248e+10
-2.982974e+06		-3.106127e+06		1.016132e+08
-3.106127e+06		-1.016139e+08		9.535026e+08
1.016132e+08		9.535026e+08		-1.086140e+10
4.699445e+06		6.099987e+06		5.002998e+08
6.099987e+06		1.571229e+07		4.395176e+08
5.002998e+08		4.395176e+08		-1.063145e+10
3.610082e+07		2.039799e+07		5.135998e+09
2.039799e+07		1.114052e+06		-4.225264e+07
5.135998e+09		-4.225264e+07		-5.233955e+09
-8.380727e+06		1.167580e+08		3.692380e+09
1.167580e+08		-3.326914e+07		-2.410050e+08
3.692380e+09		-2.410050e+08		-5.403314e+09
-1.251495e+07		2.571200e-04		3.385918e+09
2.571200e-04		-7.063447e+07		-2.250392e-04
3.385918e+09		-2.250392e-04		-5.483201e+09
-8.380727e+06		-1.167580e+08		3.692380e+09
-1.167580e+08		-3.326914e+07		2.410050e+08
3.692380e+09		2.410050e+08		-5.403314e+09
3.610082e+07		-2.039799e+07		5.135998e+09
-2.039799e+07		1.114052e+06		4.225264e+07
5.135998e+09		4.225264e+07		-5.233955e+09
-5.995110e-05		2.640703e+07		6.434858e+09
2.640703e+07		-6.073061e-05		-4.089577e-05
6.434858e+09		-4.089577e-05		-2.451986e-05
-5.335389e-04		1.685118e+08		4.952514e+09
1.685118e+08		-5.217979e-05		-1.640472e-05
4.952514e+09		-1.640472e-05		-3.029443e-04
-1.659782e-04		1.107671e-04		4.569150e+09
1.107671e-04		1.370185e-05		-1.457419e-04
4.569150e+09		-1.457419e-04		3.609806e-05
-2.518995e-04		-1.685118e+08		4.952514e+09
-1.685118e+08		-4.687335e-05		-7.230703e-05
4.952514e+09		-7.230703e-05		4.908070e-05
-8.913688e-05		-2.640703e+07		6.434858e+09
-2.640703e+07		1.594564e-05		3.381795e-05
6.434858e+09		3.381795e-05		-7.581711e-05
-3.610082e+07		2.039799e+07		5.135998e+09
2.039799e+07		-1.114052e+06		4.225264e+07
5.135998e+09		4.225264e+07		5.233955e+09
8.380727e+06		1.167580e+08		3.692380e+09
1.167580e+08		3.326914e+07		2.410050e+08
3.692380e+09		2.410050e+08		5.403314e+09
1.251495e+07		1.635612e-04		3.385918e+09
1.635612e-04		7.063447e+07		-6.621704e-06
3.385918e+09		-6.621704e-06		5.483201e+09
8.380727e+06		-1.167580e+08		3.692380e+09
-1.167580e+08		3.326914e+07		-2.410050e+08
3.692380e+09		-2.410050e+08		5.403314e+09
-3.610082e+07		-2.039799e+07		5.135998e+09
-2.039799e+07		-1.114052e+06		-4.225264e+07
5.135998e+09		-4.225264e+07		5.233955e+09
-4.699445e+06		-6.099987e+06		5.002998e+08
-6.099987e+06		-1.571229e+07		4.395176e+08
5.002998e+08		4.395176e+08		1.063145e+10
2.982974e+06		3.106127e+06		1.016132e+08
3.106127e+06		1.016139e+08		9.535026e+08
1.016132e+08		9.535026e+08		1.086140e+10
9.814925e+06		7.971248e-05		8.238596e+07
7.971248e-05		2.083076e+08		1.928955e-05
8.238596e+07		1.928955e-05		1.096248e+10
2.982974e+06		-3.106127e+06		1.016132e+08
-3.106127e+06		1.016139e+08		-9.535026e+08
1.016132e+08		-9.535026e+08		1.086140e+10
-4.699445e+06		6.099987e+06		5.002998e+08
6.099987e+06		-1.571229e+07		-4.395176e+08
5.002998e+08		-4.395176e+08		1.063145e+10
-2.265687e+07		-1.405785e+07		6.501872e+08
-1.405785e+07		-1.395941e+07		-4.623071e+08
6.501872e+08		-4.623071e+08		-1.272879e+10
-3.777566e+07		-1.251129e+07		2.657729e+08
-1.251129e+07		-9.276125e+07		-7.613302e+08
2.657729e+08		-7.613302e+08		-1.293244e+10
-7.809988e+06		1.480137e+06		2.683638e+08
1.480137e+06		-1.736397e+08		-9.572017e+08
2.683638e+08		-9.572017e+08		-1.305026e+10
-2.315109e+07		-3.631381e+06		2.083739e+08
-3.631381e+06		-2.935084e+08		-4.428737e+08
2.083739e+08		-4.428737e+08		-1.317763e+10
-6.171128e+06		-5.247770e-05		2.491373e+08
-5.247770e-05		-3.253551e+08		-3.645830e-04
2.491373e+08		-3.645830e-04		-1.319098e+10
-2.315109e+07		3.631381e+06		2.083739e+08
3.631381e+06		-2.935084e+08		4.428737e+08
2.083739e+08		4.428737e+08		-1.317763e+10
-7.809988e+06		-1.480137e+06		2.683638e+08
-1.480137e+06		-1.736397e+08		9.572017e+08
2.683638e+08		9.572017e+08		-1.305026e+10
-3.777566e+07		1.251129e+07		2.657729e+08
1.251129e+07		-9.276125e+07		7.613302e+08
2.657729e+08		7.613302e+08		-1.293244e+10
-2.265687e+07		1.405785e+07		6.501872e+08
1.405785e+07		-1.395941e+07		4.623071e+08
6.501872e+08		4.623071e+08		-1.272879e+10
4.742948e+07		2.434041e+07		3.023631e+09
2.434041e+07		1.189703e+07		-1.179506e+08
3.023631e+09		-1.179506e+08		-9.404602e+09
1.083390e+07		9.367072e+07		2.133979e+09
9.367072e+07		-1.043049e+08		-5.287645e+08
2.133979e+09		-5.287645e+08		-9.746434e+09
1.134408e+07		-5.395385e-05		1.996597e+09
-5.395385e-05		-2.015176e+08		-2.577668e-04
1.996597e+09		-2.577668e-04		-9.890016e+09
1.083390e+07		-9.367072e+07		2.133979e+09
-9.367072e+07		-1.043049e+08		5.287645e+08
2.133979e+09		5.287645e+08		-9.746434e+09
4.742948e+07		-2.434041e+07		3.023631e+09
-2.434041e+07		1.189703e+07		1.179506e+08
3.023631e+09		1.179506e+08		-9.404602e+09
6.162111e+07		3.805490e+07		5.192188e+09
3.805490e+07		-5.247540e+06		-6.437548e+07
5.192188e+09		-6.437548e+07		-6.226738e+09
2.504917e+07		1.079118e+08		4.336604e+09
1.079118e+08		-2.447572e+07		-1.809006e+08
4.336604e+09		-1.809006e+08		-6.353718e+09
1.371459e+07		1.731034e+08		3.867171e+09
1.731034e+08		-4.589493e+07		-2.729179e+08
3.867171e+09		-2.729179e+08		-6.460410e+09
6.673600e+06		8.927634e+07		3.679419e+09
8.927634e+07		-9.467686e+07		-1.443189e+08
3.679419e+09		-1.443189e+08		-6.556492e+09
2.252295e+07		7.867860e-05		3.613112e+09
7.867860e-05		-9.315347e+07		-1.931265e-04
3.613112e+09		-1.931265e-04		-6.565783e+09
6.673600e+06		-8.927634e+07		3.679419e+09
-8.927634e+07		-9.467686e+07		1.443189e+08
3.679419e+09		1.443189e+08		-6.556492e+09
1.371459e+07		-1.731034e+08		3.867171e+09
-1.731034e+08		-4.589493e+07		2.729179e+08
3.867171e+09		2.729179e+08		-6.460410e+09
2.504917e+07		-1.079118e+08		4.336604e+09
-1.079118e+08		-2.447572e+07		1.809006e+08
4.336604e+09		1.809006e+08		-6.353718e+09
6.162111e+07		-3.805490e+07		5.192188e+09
-3.805490e+07		-5.247540e+06		6.437548e+07
5.192188e+09		6.437548e+07		-6.226738e+09
5.684393e+07		4.534732e+07		5.885712e+09
4.534732e+07		7.318386e+06		-2.141160e+07
5.885712e+09		-2.141160e+07		-3.104669e+09
1.736685e+07		2.175621e+08		4.602330e+09
2.175621e+08		-1.830985e+07		-1.282987e+08
4.602330e+09		-1.282987e+08		-3.235273e+09
1.472705e+07		1.047775e-04		4.335179e+09
1.047775e-04		-4.457150e+07		-9.575346e-05
4.335179e+09		-9.575346e-05		-3.301588e+09
1.736685e+07		-2.175621e+08		4.602330e+09
-2.175621e+08		-1.830985e+07		1.282987e+08
4.602330e+09		1.282987e+08		-3.235273e+09
5.684393e+07		-4.534732e+07		5.885712e+09
-4.534732e+07		7.318386e+06		2.141160e+07
5.885712e+09		2.141160e+07		-3.104669e+09
3.890023e-04		4.788226e+07		6.485195e+09
4.788226e+07		1.414046e-04		-1.676520e-05
6.485195e+09		-1.676520e-05		3.869087e-05
2.290448e-04		1.600535e+08		5.618381e+09
1.600535e+08		1.202719e-04		3.567839e-05
5.618381e+09		3.567839e-05		-6.191805e-05
-1.148311e-04		2.514122e+08		5.131806e+09
2.514122e+08		-1.143618e-05		-4.643037e-05
5.131806e+09		-4.643037e-05		-2.424177e-04
9.278022e-05		1.336057e+08		4.899288e+09
1.336057e+08		2.050027e-05		-3.747281e-05
4.899288e+09		-3.747281e-05		-1.365133e-04
-1.422074e-04		3.141025e-05		4.824017e+09
3.141025e-05		-1.139077e-05		-2.436698e-05
4.824017e+09		-2.436698e-05		-1.921784e-04
9.488501e-05		-1.336057e+08		4.899288e+09
-1.336057e+08		9.448174e-05		-6.055576e-05
4.899288e+09		-6.055576e-05		-5.680695e-05
2.169106e-04		-2.514122e+08		5.131806e+09
-2.514122e+08		4.604645e-05		-1.409167e-04
5.131806e+09		-1.409167e-04		-1.490489e-05
-3.101351e-04		-1.600535e+08		5.618381e+09
-1.600535e+08		-1.423238e-04		-2.235804e-04
5.618381e+09		-2.235804e-04		-2.181195e-04
-1.063887e-04		-4.788226e+07		6.485195e+09
-4.788226e+07		1.296401e-05		-9.771902e-05
6.485195e+09		-9.771902e-05		-7.182732e-05
-5.684393e+07		4.534732e+07		5.885712e+09
4.534732e+07		-7.318386e+06		2.141160e+07
5.885712e+09		2.141160e+07		3.104669e+09
-1.736685e+07		2.175621e+08		4.602330e+09
2.175621e+08		1.830985e+07		1.282987e+08
4.602330e+09		1.282987e+08		3.235273e+09
-1.472705e+07		1.447117e-04		4.335179e+09
1.447117e-04		4.457150e+07		1.149718e-05
4.335179e+09		1.149718e-05		3.301588e+09
-1.736685e+07		-2.175621e+08		4.602330e+09
-2.175621e+08		1.830985e+07		-1.282987e+08
4.602330e+09		-1.282987e+08		3.235273e+09
-5.684393e+07		-4.534732e+07		5.885712e+09
-4.534732e+07		-7.318386e+06		-2.141160e+07
5.885712e+09		-2.141160e+07		3.104669e+09
-6.162111e+07		3.805490e+07		5.192188e+09
3.805490e+07		5.247540e+06		6.437548e+07
5.192188e+09		6.437548e+07		6.226738e+09
-2.504917e+07		1.079118e+08		4.336604e+09
1.079118e+08		2.447572e+07		1.809006e+08
4.336604e+09		1.809006e+08		6.353718e+09
-1.371459e+07		1.731034e+08		3.867171e+09
1.731034e+08		4.589493e+07		2.729179e+08
3.867171e+09		2.729179e+08		6.460410e+09
-6.673600e+06		8.927634e+07		3.679419e+09
8.927634e+07		9.467686e+07		1.443189e+08
3.679419e+09		1.443189e+08		6.556492e+09
-2.252295e+07		3.265454e-04		3.613112e+09
3.265454e-04		9.315347e+07		8.815248e-05
3.613112e+09		8.815248e-05		6.565783e+09
-6.673600e+06		-8.927634e+07		3.679419e+09
-8.927634e+07		9.467686e+07		-1.443189e+08
3.679419e+09		-1.443189e+08		6.556492e+09
-1.371459e+07		-1.731034e+08		3.867171e+09
-1.731034e+08		4.589493e+07		-2.729179e+08
3.867171e+09		-2.729179e+08		6.460410e+09
-2.504917e+07		-1.079118e+08		4.336604e+09
-1.079118e+08		2.447572e+07		-1.809006e+08
4.336604e+09		-1.809006e+08		6.353718e+09
-6.162111e+07		-3.805490e+07		5.192188e+09
-3.805490e+07		5.247540e+06		-6.437548e+07
5.192188e+09		-6.437548e+07		6.226738e+09
-4.742948e+07		2.434041e+07		3.023631e+09
2.434041e+07		-1.189703e+07		1.179506e+08
3.023631e+09		1.179506e+08		9.404602e+09
-1.083390e+07		9.367072e+07		2.133979e+09
9.367072e+07		1.043049e+08		5.287645e+08
2.133979e+09		5.287645e+08		9.746434e+09
-1.134408e+07		4.770886e-05		1.996597e+09
4.770886e-05		2.015176e+08		1.188014e-04
1.996597e+09		1.188014e-04		9.890016e+09
-1.083390e+07		-9.367072e+07		2.133979e+09
-9.367072e+07		1.043049e+08		-5.287645e+08
2.133979e+09		-5.287645e+08		9.746434e+09
-4.742948e+07		-2.434041e+07		3.023631e+09
-2.434041e+07		-1.189703e+07		-1.179506e+08
3.023631e+09		-1.179506e+08		9.404602e+09
2.265687e+07		-1.405785e+07		6.501872e+08
-1.405785e+07		1.395941e+07		4.623071e+08
6.501872e+08		4.623071e+08		1.272879e+10
3.777566e+07		-1.251129e+07		2.657729e+08
-1.251129e+07		9.276125e+07		7.613302e+08
2.657729e+08		7.613302e+08		1.293244e+10
7.809988e+06		1.480137e+06		2.683638e+08
1.480137e+06		1.736397e+08		9.572017e+08
2.683638e+08		9.572017e+08		1.305026e+10
2.315109e+07		-3.631381e+06		2.083739e+08
-3.631381e+06		2.935084e+08		4.428737e+08
2.083739e+08		4.428737e+08		1.317763e+10
6.171128e+06		-8.576619e-05		2.491373e+08
-8.576619e-05		3.253551e+08		1.752153e-04
2.491373e+08		1.752153e-04		1.319098e+10
2.315109e+07		3.631381e+06		2.083739e+08
3.631381e+06		2.935084e+08		-4.428737e+08
2.083739e+08		-4.428737e+08		1.317763e+10
7.809988e+06		-1.480137e+06		2.683638e+08
-1.480137e+06		1.736397e+08		-9.572017e+08
2.683638e+08		-9.572017e+08		1.305026e+10
3.777566e+07		1.251129e+07		2.657729e+08
1.251129e+07		9.276125e+07		-7.613302e+08
2.657729e+08		-7.613302e+08		1.293244e+10
2.265687e+07		1.405785e+07		6.501872e+08
1.405785e+07		1.395941e+07		-4.623071e+08
6.501872e+08		-4.623071e+08		1.272879e+10
5.404257e+07		-1.790192e+06		4.259753e+08
-1.790192e+06		8.683877e+07		-4.020942e+08
4.259753e+08		-4.020942e+08		-1.462554e+10
4.024182e+07		2.812574e+06		7.724432e+07
2.812574e+06		-2.651888e+08		-8.665215e+08
7.724432e+07		-8.665215e+08		-1.518562e+10
3.299822e+07		1.960257e-04		5.133763e+07
1.960257e-04		-5.318526e+08		-3.588051e-04
5.133763e+07		-3.588051e-04		-1.543701e+10
4.024182e+07		-2.812574e+06		7.724432e+07
-2.812574e+06		-2.651888e+08		8.665215e+08
7.724432e+07		8.665215e+08		-1.518562e+10
5.404257e+07		1.790192e+06		4.259753e+08
1.790192e+06		8.683877e+07		4.020942e+08
4.259753e+08		4.020942e+08		-1.462554e+10
1.618984e+08		4.408686e+07		4.763146e+09
4.408686e+07		3.737053e+07		-5.640491e+07
4.763146e+09		-5.640491e+07		-7.139639e+09
6.062607e+07		2.603229e+08		3.693070e+09
2.603229e+08		-7.594223e+07		-2.830470e+08
3.693070e+09		-2.830470e+08		-7.558148e+09
4.742991e+07		1.286576e-05		3.540867e+09
1.286576e-05		-2.104338e+08		-1.137843e-04
3.540867e+09		-1.137843e-04		-7.765210e+09
6.062607e+07		-2.603229e+08		3.693070e+09
-2.603229e+08		-7.594223e+07		2.830470e+08
3.693070e+09		2.830470e+08		-7.558148e+09
1.618984e+08		-4.408686e+07		4.763146e+09
-4.408686e+07		3.737053e+07		5.640491e+07
4.763146e+09		5.640491e+07		-7.139639e+09
1.290645e-04		5.999416e+07		6.131573e+09
5.999416e+07		-1.440039e-04		-3.265915e-05
6.131573e+09		-3.265915e-05		-3.201813e-04
2.104156e-04		3.952239e+08		5.033740e+09
3.952239e+08		5.410751e-05		1.941653e-05
5.033740e+09		1.941653e-05		-2.762489e-04
1.647696e-04		-1.607449e-04		4.877707e+09
-1.607449e-04		-3.366731e-06		3.032770e-05
4.877707e+09		3.032770e-05		-3.352910e-04
9.788806e-05		-3.952239e+08		5.033740e+09
-3.952239e+08		-1.545597e-04		-9.082770e-05
5.033740e+09		-9.082770e-05		-3.182478e-04
-2.145767e-06		-5.999416e+07		6.131573e+09
-5.999416e+07		9.869132e-05		-9.734649e-07
6.131573e+09		-9.734649e-07		9.188056e-05
-1.618984e+08		4.408686e+07		4.763146e+09
4.408686e+07		-3.737053e+07		5.640491e+07
4.763146e+09		5.640491e+07		7.139639e+09
-6.062607e+07		2.603229e+08		3.693070e+09
2.603229e+08		7.594223e+07		2.830470e+08
3.693070e+09		2.830470e+08		7.558148e+09
-4.742991e+07		2.006339e-04		3.540867e+09
2.006339e-04		2.104338e+08		1.238277e-04
3.540867e+09		1.238277e-04		7.765210e+09
-6.062607e+07		-2.603229e+08		3.693070e+09
-2.603229e+08		7.594223e+07		-2.830470e+08
3.693070e+09		-2.830470e+08		7.558148e+09
-1.618984e+08		-4.408686e+07		4.763146e+09
-4.408686e+07		-3.737053e+07		-5.640491e+07
4.763146e+09		-5.640491e+07		7.139639e+09
-5.404257e+07		-1.790192e+06		4.259753e+08
-1.790192e+06		-8.683877e+07		4.020942e+08
4.259753e+08		4.020942e+08		1.462554e+10
-4.024182e+07		2.812574e+06		7.724432e+07
2.812574e+06		2.651888e+08		8.665215e+08
7.724432e+07		8.665215e+08		1.518562e+10
-3.299822e+07		-7.331767e-05		5.133763e+07
-7.331767e-05		5.318526e+08		1.918375e-04
5.133763e+07		1.918375e-04		1.543701e+10
-4.024182e+07		-2.812574e+06		7.724432e+07
-2.812574e+06		2.651888e+08		-8.665215e+08
7.724432e+07		-8.665215e+08		1.518562e+10
-5.404257e+07		1.790192e+06		4.259753e+08
1.790192e+06		-8.683877e+07		-4.020942e+08
4.259753e+08		-4.020942e+08		1.462554e+10
1.299588e+08		2.953066e+05		5.243998e+08
2.953066e+05		1.519886e+08		-3.644875e+08
5.243998e+08		-3.644875e+08		-1.652177e+10
1.084428e+07		-3.306335e+07		2.362236e+08
-3.306335e+07		-2.062597e+08		-6.503122e+08
2.362236e+08		-6.503122e+08		-1.707940e+10
7.007781e+07		-9.481833e+06		2.373224e+08
-9.481833e+06		-4.562827e+08		-8.238482e+08
2.373224e+08		-8.238482e+08		-1.738614e+10
6.733336e+07		-2.324574e+07		1.981420e+08
-2.324574e+07		-7.040391e+08		-3.578718e+08
1.981420e+08		-3.578718e+08		-1.765465e+10
3.332249e+07		6.767130e-05		2.055715e+08
6.767130e-05		-9.118011e+08		-3.525931e-04
2.055715e+08		-3.525931e-04		-1.784299e+10
6.733336e+07		2.324574e+07		1.981420e+08
2.324574e+07		-7.040391e+08		3.578718e+08
1.981420e+08		3.578718e+08		-1.765465e+10
7.007781e+07		9.481833e+06		2.373224e+08
9.481833e+06		-4.562827e+08		8.238482e+08
2.373224e+08		8.238482e+08		-1.738614e+10
1.084428e+07		3.306335e+07		2.362236e+08
3.306335e+07		-2.062597e+08		6.503122e+08
2.362236e+08		6.503122e+08		-1.707940e+10
1.299588e+08		-2.953066e+05		5.243998e+08
-2.953066e+05		1.519886e+08		3.644875e+08
5.243998e+08		3.644875e+08		-1.652177e+10
1.981173e+08		5.615565e+07		2.609987e+09
5.615565e+07		1.252521e+08		-1.283731e+08
2.609987e+09		-1.283731e+08		-1.217355e+10
6.008556e+07		1.891695e+08		2.065896e+09
1.891695e+08		-3.091969e+08		-5.217731e+08
2.065896e+09		-5.217731e+08		-1.302108e+10
-3.821895e+06		3.521331e-05		2.033200e+09
3.521331e-05		-6.757521e+08		-1.538075e-04
2.033200e+09		-1.538075e-04		-1.349012e+10
6.008556e+07		-1.891695e+08		2.065896e+09
-1.891695e+08		-3.091969e+08		5.217731e+08
2.065896e+09		5.217731e+08		-1.302108e+10
1.981173e+08		-5.615565e+07		2.609987e+09
-5.615565e+07		1.252521e+08		1.283731e+08
2.609987e+09		1.283731e+08		-1.217355e+10
2.497061e+08		6.421114e+07		4.643478e+09
6.421114e+07		4.598720e+07		-7.080836e+07
4.643478e+09		-7.080836e+07		-8.105816e+09
1.443122e+08		2.121218e+08		4.085282e+09
2.121218e+08		-6.213465e+07		-2.304035e+08
4.085282e+09		-2.304035e+08		-8.406966e+09
1.053563e+08		3.584184e+08		3.849656e+09
3.584184e+08		-1.537252e+08		-3.413845e+08
3.849656e+09		-3.413845e+08		-8.703440e+09
8.449422e+07		1.721913e+08		3.833448e+09
1.721913e+08		-3.036420e+08		-1.575189e+08
3.833448e+09		-1.575189e+08		-8.941485e+09
6.215025e+07		-9.313226e-07		3.820223e+09
-9.313226e-07		-4.134628e+08		-2.462137e-04
3.820223e+09		-2.462137e-04		-9.066494e+09
8.449422e+07		-1.721913e+08		3.833448e+09
-1.721913e+08		-3.036420e+08		1.575189e+08
3.833448e+09		1.575189e+08		-8.941485e+09
1.053563e+08		-3.584184e+08		3.849656e+09
-3.584184e+08		-1.537252e+08		3.413845e+08
3.849656e+09		3.413845e+08		-8.703440e+09
1.443122e+08		-2.121218e+08		4.085282e+09
-2.121218e+08		-6.213465e+07		2.304035e+08
4.085282e+09		2.304035e+08		-8.406966e+09
2.497061e+08		-6.421114e+07		4.643478e+09
-6.421114e+07		4.598720e+07		7.080836e+07
4.643478e+09		7.080836e+07		-8.105816e+09
2.013711e+08		9.466943e+07		5.443372e+09
9.466943e+07		5.535566e+07		-5.252146e+07
5.443372e+09		-5.252146e+07		-4.023230e+09
7.583295e+07		4.760621e+08		4.694088e+09
4.760621e+08		-6.550981e+07		-1.752888e+08
4.694088e+09		-1.752888e+08		-4.363013e+09
4.224689e+07		1.164861e-04		4.712181e+09
1.164861e-04		-1.979161e+08		-1.625675e-04
4.712181e+09		-1.625675e-04		-4.567305e+09
7.583295e+07		-4.760621e+08		4.694088e+09
-4.760621e+08		-6.550981e+07		1.752888e+08
4.694088e+09		1.752888e+08		-4.363013e+09
2.013711e+08		-9.466943e+07		5.443372e+09
-9.466943e+07		5.535566e+07		5.252146e+07
5.443372e+09		5.252146e+07		-4.023230e+09
3.836527e-04		9.525650e+07		6.149458e+09
9.525650e+07		-1.319312e-05		-8.997961e-05
6.149458e+09		-8.997961e-05		-1.681186e-04
3.211889e-04		3.438860e+08		5.559482e+09
3.438860e+08		3.497535e-05		-8.767867e-05
5.559482e+09		-8.767867e-05		-1.942366e-04
3.570379e-04		5.583700e+08		5.364221e+09
5.583700e+08		9.796023e-05		-5.350157e-06
5.364221e+09		-5.350157e-06		-2.988018e-04
-1.052115e-04		2.790739e+08		5.375926e+09
2.790739e+08		-7.919362e-05		-2.623771e-05
5.375926e+09		-2.623771e-05		-4.144236e-04
-4.328322e-05		-6.561726e-05		5.391722e+09
-6.561726e-05		-1.391359e-04		-3.743226e-05
5.391722e+09		-3.743226e-05		-3.942084e-04
-7.815659e-06		-2.790739e+08		5.375926e+09
-2.790739e+08		-1.572191e-04		8.101168e-06
5.375926e+09		8.101168e-06		-3.327280e-04
1.535448e-04		-5.583700e+08		5.364221e+09
-5.583700e+08		-1.724884e-04		-2.224601e-05
5.364221e+09		-2.224601e-05		-2.774782e-04
-1.523187e-04		-3.438860e+08		5.559482e+09
-3.438860e+08		-2.265205e-04		1.001681e-04
5.559482e+09		1.001681e-04		-3.114939e-04
-8.013751e-04		-9.525650e+07		6.149458e+09
-9.525650e+07		-3.352901e-04		2.065198e-04
6.149458e+09		2.065198e-04		-5.951077e-04
-2.013711e+08		9.466943e+07		5.443372e+09
9.466943e+07		-5.535566e+07		5.252146e+07
5.443372e+09		5.252146e+07		4.023230e+09
-7.583295e+07		4.760621e+08		4.694088e+09
4.760621e+08		6.550981e+07		1.752888e+08
4.694088e+09		1.752888e+08		4.363013e+09
-4.224689e+07		1.239087e-04		4.712181e+09
1.239087e-04		1.979161e+08		9.562820e-06
4.712181e+09		9.562820e-06		4.567305e+09
-7.583295e+07		-4.760621e+08		4.694088e+09
-4.760621e+08		6.550981e+07		-1.752888e+08
4.694088e+09		-1.752888e+08		4.363013e+09
-2.013711e+08		-9.466943e+07		5.443372e+09
-9.466943e+07		-5.535566e+07		-5.252146e+07
5.443372e+09		-5.252146e+07		4.023230e+09
-2.497061e+08		6.421114e+07		4.643478e+09
6.421114e+07		-4.598720e+07		7.080836e+07
4.643478e+09		7.080836e+07		8.105816e+09
-1.443122e+08		2.121218e+08		4.085282e+09
2.121218e+08		6.213465e+07		2.304035e+08
4.085282e+09		2.304035e+08		8.406966e+09
-1.053563e+08		3.584184e+08		3.849656e+09
3.584184e+08		1.537252e+08		3.413845e+08
3.849656e+09		3.413845e+08		8.703440e+09
-8.449422e+07		1.721913e+08		3.833448e+09
1.721913e+08		3.036420e+08		1.575189e+08
3.833448e+09		1.575189e+08		8.941485e+09
-6.215025e+07		1.116768e-04		3.820223e+09
1.116768e-04		4.134628e+08		1.583574e-05
3.820223e+09		1.583574e-05		9.066494e+09
-8.449422e+07		-1.721913e+08		3.833448e+09
-1.721913e+08		3.036420e+08		-1.575189e+08
3.833448e+09		-1.575189e+08		8.941485e+09
-1.053563e+08		-3.584184e+08		3.849656e+09
-3.584184e+08		1.537252e+08		-3.413845e+08
3.849656e+09		-3.413845e+08		8.703440e+09
-1.443122e+08		-2.121218e+08		4.085282e+09
-2.121218e+08		6.213465e+07		-2.304035e+08
4.085282e+09		-2.304035e+08		8.406966e+09
-2.497061e+08		-6.421114e+07		4.643478e+09
-6.421114e+07		-4.598720e+07		-7.080836e+07
4.643478e+09		-7.080836e+07		8.105816e+09
-1.981173e+08		5.615565e+07		2.609987e+09
5.615565e+07		-1.252521e+08		1.283731e+08
2.609987e+09		1.283731e+08		1.217355e+10
-6.008556e+07		1.891695e+08		2.065896e+09
1.891695e+08		3.091969e+08		5.217731e+08
2.065896e+09		5.217731e+08		1.302108e+10
3.821895e+06		5.014613e-05		2.033200e+09
5.014613e-05		6.757521e+08		-3.041304e-05
2.033200e+09		-3.041304e-05		1.349012e+10
-6.008556e+07		-1.891695e+08		2.065896e+09
-1.891695e+08		3.091969e+08		-5.217731e+08
2.065896e+09		-5.217731e+08		1.302108e+10
-1.981173e+08		-5.615565e+07		2.609987e+09
-5.615565e+07		-1.252521e+08		-1.283731e+08
2.609987e+09		-1.283731e+08		1.217355e+10
-1.299588e+08		2.953066e+05		5.243998e+08
2.953066e+05		-1.519886e+08		3.644875e+08
5.243998e+08		3.644875e+08		1.652177e+10
-1.084428e+07		-3.306335e+07		2.362236e+08
-3.306335e+07		2.062597e+08		6.503122e+08
2.362236e+08		6.503122e+08		1.707940e+10
-7.007781e+07		-9.481833e+06		2.373224e+08
-9.481833e+06		4.562827e+08		8.238482e+08
2.373224e+08		8.238482e+08		1.738614e+10
-6.733336e+07		-2.324574e+07		1.981420e+08
-2.324574e+07		7.040391e+08		3.578718e+08
1.981420e+08		3.578718e+08		1.765465e+10
-3.332249e+07		2.685396e-04		2.055715e+08
2.685396e-04		9.118011e+08		-1.573917e-04
2.055715e+08		-1.573917e-04		1.784299e+10
-6.733336e+07		2.324574e+07		1.981420e+08
2.324574e+07		7.040391e+08		-3.578718e+08
1.981420e+08		-3.578718e+08		1.765465e+10
-7.007781e+07		9.481833e+06		2.373224e+08
9.481833e+06		4.562827e+08		-8.238482e+08
2.373224e+08		-8.238482e+08		1.738614e+10
-1.084428e+07		3.306335e+07		2.362236e+08
3.306335e+07		2.062597e+08		-6.503122e+08
2.362236e+08		-6.503122e+08		1.707940e+10
-1.299588e+08		-2.953066e+05		5.243998e+08
-2.953066e+05		-1.519886e+08		-3.644875e+08
5.243998e+08		-3.644875e+08		1.652177e+10
-1.868641e+08		-1.669816e+07		3.292490e+08
-1.669816e+07		-1.369169e+08		-1.318305e+08
3.292490e+08		-1.318305e+08		-1.810529e+10
-1.892729e+08		-2.345663e+07		1.796809e+08
-2.345663e+07		-7.131587e+08		-3.935542e+08
1.796809e+08		-3.935542e+08		-1.949176e+10
-2.146788e+08		-9.042257e-05		1.659539e+08
-9.042257e-05		-1.470240e+09		-2.460256e-04
1.659539e+08		-2.460256e-04		-1.983977e+10
-1.892729e+08		2.345663e+07		1.796809e+08
2.345663e+07		-7.131587e+08		3.935542e+08
1.796809e+08		3.935542e+08		-1.949176e+10
-1.868641e+08		1.669816e+07		3.292490e+08
1.669816e+07		-1.369169e+08		1.318305e+08
3.292490e+08		1.318305e+08		-1.810529e+10
4.285207e+08		1.131019e+08		4.026956e+09
1.131019e+08		-6.691499e+07		4.632365e+06
4.026956e+09		4.632365e+06		-9.084319e+09
1.605416e+08		4.485842e+08		3.798016e+09
4.485842e+08		-2.989303e+08		-2.459444e+08
3.798016e+09		-2.459444e+08		-1.011630e+10
1.482765e+08		-8.712988e-05		3.948672e+09
-8.712988e-05		-7.540951e+08		-2.217460e-04
3.948672e+09		-2.217460e-04		-1.046823e+10
1.605416e+08		-4.485842e+08		3.798016e+09
-4.485842e+08		-2.989303e+08		2.459444e+08
3.798016e+09		2.459444e+08		-1.011630e+10
4.285207e+08		-1.131019e+08		4.026956e+09
-1.131019e+08		-6.691499e+07		-4.632365e+06
4.026956e+09		-4.632365e+06		-9.084319e+09
-2.548099e-05		1.721267e+08		5.512647e+09
1.721267e+08		-3.156066e-05		-9.795744e-05
5.512647e+09		-9.795744e-05		-1.466423e-04
8.700788e-05		7.754554e+08		5.278348e+09
7.754554e+08		4.178006e-05		-2.519545e-05
5.278348e+09		-2.519545e-05		-1.000538e-04
6.051129e-05		1.219120e-04		5.504772e+09
1.219120e-04		4.647765e-06		-3.482727e-05
5.504772e+09		-3.482727e-05		-1.280978e-04
-3.471449e-04		-7.754554e+08		5.278348e+09
-7.754554e+08		-2.924781e-04		5.859789e-05
5.278348e+09		5.859789e-05		-3.398061e-04
1.187027e-04		-1.721267e+08		5.512647e+09
-1.721267e+08		-5.632639e-05		2.066307e-04
5.512647e+09		2.066307e-04		-4.871190e-04
-4.285207e+08		1.131019e+08		4.026956e+09
1.131019e+08		6.691499e+07		-4.632365e+06
4.026956e+09		-4.632365e+06		9.084319e+09
-1.605416e+08		4.485842e+08		3.798016e+09
4.485842e+08		2.989303e+08		2.459444e+08
3.798016e+09		2.459444e+08		1.011630e+10
-1.482765e+08		4.219115e-04		3.948672e+09
4.219115e-04		7.540951e+08		1.556240e-05
3.948672e+09		1.556240e-05		1.046823e+10
-1.605416e+08		-4.485842e+08		3.798016e+09
-4.485842e+08		2.989303e+08		-2.459444e+08
3.798016e+09		-2.459444e+08		1.011630e+10
-4.285207e+08		-1.131019e+08		4.026956e+09
-1.131019e+08		6.691499e+07		4.632365e+06
4.026956e+09		4.632365e+06		9.084319e+09
1.868641e+08		-1.669816e+07		3.292490e+08
-1.669816e+07		1.369169e+08		1.318305e+08
3.292490e+08		1.318305e+08		1.810529e+10
1.892729e+08		-2.345663e+07		1.796809e+08
-2.345663e+07		7.131587e+08		3.935542e+08
1.796809e+08		3.935542e+08		1.949176e+10
2.146788e+08		-8.623628e-05		1.659539e+08
-8.623628e-05		1.470240e+09		7.651746e-06
1.659539e+08		7.651746e-06		1.983977e+10
1.892729e+08		2.345663e+07		1.796809e+08
2.345663e+07		7.131587e+08		-3.935542e+08
1.796809e+08		-3.935542e+08		1.949176e+10
1.868641e+08		1.669816e+07		3.292490e+08
1.669816e+07		1.369169e+08		-1.318305e+08
3.292490e+08		-1.318305e+08		1.810529e+10
-1.612847e+08		-1.367985e+08		-9.114824e+05
-1.367985e+08		-8.105996e+07		-3.876623e+08
-9.114824e+05		-3.876623e+08		-1.877953e+10
-4.517309e+08		-1.201650e+08		-8.715549e+07
-1.201650e+08		-5.407797e+08		-9.323592e+07
-8.715549e+07		-9.323592e+07		-2.057525e+10
-1.430915e+08		-8.575279e+07		-1.207919e+08
-8.575279e+07		-8.507407e+08		-5.612568e+07
-1.207919e+08		-5.612568e+07		-2.092026e+10
-2.627521e+08		-4.486688e+07		-1.321868e+08
-4.486688e+07		-1.798882e+09		1.641878e+08
-1.321868e+08		1.641878e+08		-2.126575e+10
-2.728707e+08		-9.585358e-05		-1.920299e+08
-9.585358e-05		-2.130230e+09		-2.234094e-04
-1.920299e+08		-2.234094e-04		-2.129782e+10
-2.627521e+08		4.486688e+07		-1.321868e+08
4.486688e+07		-1.798882e+09		-1.641878e+08
-1.321868e+08		-1.641878e+08		-2.126575e+10
-1.430915e+08		8.575279e+07		-1.207919e+08
8.575279e+07		-8.507407e+08		5.612568e+07
-1.207919e+08		5.612568e+07		-2.092026e+10
-4.517309e+08		1.201650e+08		-8.715549e+07
1.201650e+08		-5.407797e+08		9.323592e+07
-8.715549e+07		9.323592e+07		-2.057525e+10
-1.612847e+08		1.367985e+08		-9.114824e+05
1.367985e+08		-8.105996e+07		3.876623e+08
-9.114824e+05		3.876623e+08		-1.877953e+10
4.016887e+08		8.227762e+07		1.890140e+09
8.227762e+07		2.411492e+07		-3.125805e+08
1.890140e+09		-3.125805e+08		-1.419337e+10
-3.781173e+07		2.322520e+08		2.112960e+09
2.322520e+08		-8.457556e+08		-1.374832e+08
2.112960e+09		-1.374832e+08		-1.668974e+10
-2.033138e+08		6.288849e-05		2.238446e+09
6.288849e-05		-1.975636e+09		-2.559945e-04
2.238446e+09		-2.559945e-04		-1.727805e+10
-3.781173e+07		-2.322520e+08		2.112960e+09
-2.322520e+08		-8.457556e+08		1.374832e+08
2.112960e+09		1.374832e+08		-1.668974e+10
4.016887e+08		-8.227762e+07		1.890140e+09
-8.227762e+07		2.411492e+07		3.125805e+08
1.890140e+09		3.125805e+08		-1.419337e+10
7.755313e+08		1.819389e+08		3.590780e+09
1.819389e+08		8.374514e+07		-2.886555e+08
3.590780e+09		-2.886555e+08		-9.536697e+09
2.774518e+08		3.845868e+08		3.709503e+09
3.845868e+08		-2.465095e+08		-2.117867e+08
3.709503e+09		-2.117867e+08		-1.086341e+10
2.063737e+08		5.183453e+08		4.037175e+09
5.183453e+08		-4.697430e+08		-2.386532e+08
4.037175e+09		-2.386532e+08		-1.139415e+10
1.046569e+08		2.375689e+08		4.237513e+09
2.375689e+08		-1.096077e+09		2.164836e+07
4.237513e+09		2.164836e+07		-1.180365e+10
8.883963e+07		1.582438e-04		4.331969e+09
1.582438e-04		-1.338805e+09		-2.695308e-04
4.331969e+09		-2.695308e-04		-1.193936e+10
1.046569e+08		-2.375689e+08		4.237513e+09
-2.375689e+08		-1.096077e+09		-2.164836e+07
4.237513e+09		-2.164836e+07		-1.180365e+10
2.063737e+08		-5.183453e+08		4.037175e+09
-5.183453e+08		-4.697430e+08		2.386532e+08
4.037175e+09		2.386532e+08		-1.139415e+10
2.774518e+08		-3.845868e+08		3.709503e+09
-3.845868e+08		-2.465095e+08		2.117867e+08
3.709503e+09		2.117867e+08		-1.086341e+10
7.755313e+08		-1.819389e+08		3.590780e+09
-1.819389e+08		8.374514e+07		2.886555e+08
3.590780e+09		2.886555e+08		-9.536697e+09
3.024817e+08		2.500331e+08		4.528083e+09
2.500331e+08		2.854274e+07		-1.689791e+08
4.528083e+09		-1.689791e+08		-4.850736e+09
-1.545795e+08		7.731942e+08		5.022521e+09
7.731942e+08		-3.408848e+08		-1.303858e+08
5.022521e+09		-1.303858e+08		-5.888796e+09
-2.914734e+08		8.586049e-05		5.377781e+09
8.586049e-05		-8.195324e+08		-1.643114e-04
5.377781e+09		-1.643114e-04		-6.208420e+09
-1.545795e+08		-7.731942e+08		5.022521e+09
-7.731942e+08		-3.408848e+08		1.303858e+08
5.022521e+09		1.303858e+08		-5.888796e+09
3.024817e+08		-2.500331e+08		4.528083e+09
-2.500331e+08		2.854274e+07		1.689791e+08
4.528083e+09		1.689791e+08		-4.850736e+09
4.457310e-05		2.825988e+08		5.130487e+09
2.825988e+08		1.721047e-04		-5.488633e-05
5.130487e+09		-5.488633e-05		-2.581626e-05
1.176260e-04		7.013943e+08		5.179598e+09
7.013943e+08		1.809783e-04		-1.158714e-04
5.179598e+09		-1.158714e-04		1.281425e-04
5.016252e-04		9.447715e+08		5.607562e+09
9.447715e+08		2.919799e-04		-1.179975e-04
5.607562e+09		-1.179975e-04		4.388466e-04
3.213901e-04		4.163372e+08		5.886251e+09
4.163372e+08		1.204107e-04		-7.069256e-05
5.886251e+09		-7.069256e-05		3.431737e-05
1.998991e-04		2.194643e-04		6.022986e+09
2.194643e-04		2.799183e-05		-1.153600e-04
6.022986e+09		-1.153600e-04		-2.493374e-04
1.658686e-04		-4.163372e+08		5.886251e+09
-4.163372e+08		-2.294686e-05		4.888559e-05
5.886251e+09		4.888559e-05		-2.286434e-04
2.068840e-05		-9.447715e+08		5.607562e+09
-9.447715e+08		-2.392568e-06		1.675439e-04
5.607562e+09		1.675439e-04		-1.396313e-04
-2.323240e-04		-7.013943e+08		5.179598e+09
-7.013943e+08		-1.137331e-04		1.290119e-04
5.179598e+09		1.290119e-04		-4.365146e-04
1.849979e-04		-2.825988e+08		5.130487e+09
-2.825988e+08		3.310479e-05		1.346378e-04
5.130487e+09		1.346378e-04		-4.008040e-04
-3.024817e+08		2.500331e+08		4.528083e+09
2.500331e+08		-2.854274e+07		1.689791e+08
4.528083e+09		1.689791e+08		4.850736e+09
1.545795e+08		7.731942e+08		5.022521e+09
7.731942e+08		3.408848e+08		1.303858e+08
5.022521e+09		1.303858e+08		5.888796e+09
2.914734e+08		1.305155e-04		5.377781e+09
1.305155e-04		8.195324e+08		2.893154e-05
5.377781e+09		2.893154e-05		6.208420e+09
1.545795e+08		-7.731942e+08		5.022521e+09
-7.731942e+08		3.408848e+08		-1.303858e+08
5.022521e+09		-1.303858e+08		5.888796e+09
-3.024817e+08		-2.500331e+08		4.528083e+09
-2.500331e+08		-2.854274e+07		-1.689791e+08
4.528083e+09		-1.689791e+08		4.850736e+09
-7.755313e+08		1.819389e+08		3.590780e+09
1.819389e+08		-8.374514e+07		2.886555e+08
3.590780e+09		2.886555e+08		9.536697e+09
-2.774518e+08		3.845868e+08		3.709503e+09
3.845868e+08		2.465095e+08		2.117867e+08
3.709503e+09		2.117867e+08		1.086341e+10
-2.063737e+08		5.183453e+08		4.037175e+09
5.183453e+08		4.697430e+08		2.386532e+08
4.037175e+09		2.386532e+08		1.139415e+10
-1.046569e+08		2.375689e+08		4.237513e+09
2.375689e+08		1.096077e+09		-2.164836e+07
4.237513e+09		-2.164836e+07		1.180365e+10
-8.883963e+07		3.238823e-04		4.331969e+09
3.238823e-04		1.338805e+09		9.594439e-05
4.331969e+09		9.594439e-05		1.193936e+10
-1.046569e+08		-2.375689e+08		4.237513e+09
-2.375689e+08		1.096077e+09		2.164836e+07
4.237513e+09		2.164836e+07		1.180365e+10
-2.063737e+08		-5.183453e+08		4.037175e+09
-5.183453e+08		4.697430e+08		-2.386532e+08
4.037175e+09		-2.386532e+08		1.139415e+10
-2.774518e+08		-3.845868e+08		3.709503e+09
-3.845868e+08		2.465095e+08		-2.117867e+08
3.709503e+09		-2.117867e+08		1.086341e+10
-7.755313e+08		-1.819389e+08		3.590780e+09
-1.819389e+08		-8.374514e+07		-2.886555e+08
3.590780e+09		-2.886555e+08		9.536697e+09
-4.016887e+08		8.227762e+07		1.890140e+09
8.227762e+07		-2.411492e+07		3.125805e+08
1.890140e+09		3.125805e+08		1.419337e+10
3.781173e+07		2.322520e+08		2.112960e+09
2.322520e+08		8.457556e+08		1.374832e+08
2.112960e+09		1.374832e+08		1.668974e+10
2.033138e+08		1.840163e-04		2.238446e+09
1.840163e-04		1.975636e+09		1.285337e-04
2.238446e+09		1.285337e-04		1.727805e+10
3.781173e+07		-2.322520e+08		2.112960e+09
-2.322520e+08		8.457556e+08		-1.374832e+08
2.112960e+09		-1.374832e+08		1.668974e+10
-4.016887e+08		-8.227762e+07		1.890140e+09
-8.227762e+07		-2.411492e+07		-3.125805e+08
1.890140e+09		-3.125805e+08		1.419337e+10
1.612847e+08		-1.367985e+08		-9.114824e+05
-1.367985e+08		8.105996e+07		3.876623e+08
-9.114824e+05		3.876623e+08		1.877953e+10
4.517309e+08		-1.201650e+08		-8.715549e+07
-1.201650e+08		5.407797e+08		9.323592e+07
-8.715549e+07		9.323592e+07		2.057525e+10
1.430915e+08		-8.575279e+07		-1.207919e+08
-8.575279e+07		8.507407e+08		5.612568e+07
-1.207919e+08		5.612568e+07		2.092026e+10
2.627521e+08		-4.486688e+07		-1.321868e+08
-4.486688e+07		1.798882e+09		-1.641878e+08
-1.321868e+08		-1.641878e+08		2.126575e+10
2.728707e+08		-1.328271e-04		-1.920299e+08
-1.328271e-04		2.130230e+09		2.022050e-04
-1.920299e+08		2.022050e-04		2.129782e+10
2.627521e+08		4.486688e+07		-1.321868e+08
4.486688e+07		1.798882e+09		1.641878e+08
-1.321868e+08		1.641878e+08		2.126575e+10
1.430915e+08		8.575279e+07		-1.207919e+08
8.575279e+07		8.507407e+08		-5.612568e+07
-1.207919e+08		-5.612568e+07		2.092026e+10
4.517309e+08		1.201650e+08		-8.715549e+07
1.201650e+08		5.407797e+08		-9.323592e+07
-8.715549e+07		-9.323592e+07		2.057525e+10
1.612847e+08		1.367985e+08		-9.114824e+05
1.367985e+08		8.105996e+07		-3.876623e+08
-9.114824e+05		-3.876623e+08		1.877953e+10
1.999905e+09		-2.482249e+08		-9.177045e+08
-2.482249e+08		2.073002e+09		-5.841934e+08
-9.177045e+08		-5.841934e+08		-1.932860e+10
1.779114e+09		-7.467092e+07		-9.802942e+08
-7.467092e+07		-1.112523e+09		1.118811e+09
-9.802942e+08		1.118811e+09		-2.178673e+10
1.624911e+09		-1.293421e-05		-9.537944e+08
-1.293421e-05		-2.577118e+09		-3.094953e-04
-9.537944e+08		-3.094953e-04		-2.228076e+10
1.779114e+09		7.467092e+07		-9.802942e+08
7.467092e+07		-1.112523e+09		-1.118811e+09
-9.802942e+08		-1.118811e+09		-2.178673e+10
1.999905e+09		2.482249e+08		-9.177045e+08
2.482249e+08		2.073002e+09		5.841934e+08
-9.177045e+08		5.841934e+08		-1.932860e+10
5.347785e+08		2.890368e+08		2.642202e+09
2.890368e+08		1.036381e+09		-6.617677e+08
2.642202e+09		-6.617677e+08		-9.706473e+09
-8.083521e+08		6.231438e+08		4.233930e+09
6.231438e+08		-1.291485e+09		2.812321e+08
4.233930e+09		2.812321e+08		-1.218347e+10
-9.737548e+08		-1.030471e-04		4.648769e+09
-1.030471e-04		-2.292794e+09		-3.412096e-04
4.648769e+09		-3.412096e-04		-1.268558e+10
-8.083521e+08		-6.231438e+08		4.233930e+09
-6.231438e+08		-1.291485e+09		-2.812321e+08
4.233930e+09		-2.812321e+08		-1.218347e+10
5.347785e+08		-2.890368e+08		2.642202e+09
-2.890368e+08		1.036381e+09		6.617677e+08
2.642202e+09		6.617677e+08		-9.706473e+09
-1.641512e-04		4.757915e+08		3.911697e+09
4.757915e+08		1.565814e-04		3.069360e-05
3.911697e+09		3.069360e-05		6.395578e-05
-3.072992e-05		1.028700e+09		5.456756e+09
1.028700e+09		-4.435331e-05		-1.403292e-04
5.456756e+09		-1.403292e-04		-1.486540e-04
-7.565133e-05		1.267958e-04		5.949007e+09
1.267958e-04		-5.218387e-05		-9.530585e-05
5.949007e+09		-9.530585e-05		-2.647936e-04
-3.184751e-05		-1.028700e+09		5.456756e+09
-1.028700e+09		-3.822334e-05		1.397193e-05
5.456756e+09		1.397193e-05		-3.834590e-04
1.595616e-04		-4.757915e+08		3.911697e+09
-4.757915e+08		2.925098e-04		1.412285e-04
3.911697e+09		1.412285e-04		-1.748800e-04
-5.347785e+08		2.890368e+08		2.642202e+09
2.890368e+08		-1.036381e+09		6.617677e+08
2.642202e+09		6.617677e+08		9.706473e+09
8.083521e+08		6.231438e+08		4.233930e+09
6.231438e+08		1.291485e+09		-2.812321e+08
4.233930e+09		-2.812321e+08		1.218347e+10
9.737548e+08		5.777739e-05		4.648769e+09
5.777739e-05		2.292794e+09		3.257487e-05
4.648769e+09		3.257487e-05		1.268558e+10
8.083521e+08		-6.231438e+08		4.233930e+09
-6.231438e+08		1.291485e+09		2.812321e+08
4.233930e+09		2.812321e+08		1.218347e+10
-5.347785e+08		-2.890368e+08		2.642202e+09
-2.890368e+08		-1.036381e+09		-6.617677e+08
2.642202e+09		-6.617677e+08		9.706473e+09
-1.999905e+09		-2.482249e+08		-9.177045e+08
-2.482249e+08		-2.073002e+09		5.841934e+08
-9.177045e+08		5.841934e+08		1.932860e+10
-1.779114e+09		-7.467092e+07		-9.802942e+08
-7.467092e+07		1.112523e+09		-1.118811e+09
-9.802942e+08		-1.118811e+09		2.178673e+10
-1.624911e+09		8.852780e-05		-9.537944e+08
8.852780e-05		2.577118e+09		3.877580e-04
-9.537944e+08		3.877580e-04		2.228076e+10
-1.779114e+09		7.467092e+07		-9.802942e+08
7.467092e+07		1.112523e+09		1.118811e+09
-9.802942e+08		1.118811e+09		2.178673e+10
-1.999905e+09		2.482249e+08		-9.177045e+08
2.482249e+08		-2.073002e+09		-5.841934e+08
-9.177045e+08		-5.841934e+08		1.932860e+10
2.085232e+09		-3.283319e+08		-1.627790e+09
-3.283319e+08		1.970407e+09		-7.156574e+08
-1.627790e+09		-7.156574e+08		-2.280041e+10
1.136261e+09		-3.892859e+08		-7.820599e+08
-3.892859e+08		-1.542932e+09		1.662213e+09
-7.820599e+08		1.662213e+09		-2.502757e+10
8.924265e+08		6.424945e+07		-8.542000e+08
6.424945e+07		-4.049369e+09		3.178250e+09
-8.542000e+08		3.178250e+09		-2.655609e+10
1.374029e+09		8.713675e+06		-6.357199e+08
8.713675e+06		-4.018863e+09		1.215325e+09
-6.357199e+08		1.215325e+09		-2.577692e+10
1.318299e+09		-2.460014e-04		-6.759185e+08
-2.460014e-04		-4.869918e+09		-4.963726e-04
-6.759185e+08		-4.963726e-04		-2.545986e+10
1.374029e+09		-8.713675e+06		-6.357199e+08
-8.713675e+06		-4.018863e+09		-1.215325e+09
-6.357199e+08		-1.215325e+09		-2.577692e+10
8.924265e+08		-6.424945e+07		-8.542000e+08
-6.424945e+07		-4.049369e+09		-3.178250e+09
-8.542000e+08		-3.178250e+09		-2.655609e+10
1.136261e+09		3.892859e+08		-7.820599e+08
3.892859e+08		-1.542932e+09		-1.662213e+09
-7.820599e+08		-1.662213e+09		-2.502757e+10
2.085232e+09		3.283319e+08		-1.627790e+09
3.283319e+08		1.970407e+09		7.156574e+08
-1.627790e+09		7.156574e+08		-2.280041e+10
1.936224e+07		-2.305315e+07		6.755187e+08
-2.305315e+07		1.078930e+09		-1.032249e+09
6.755187e+08		-1.032249e+09		-1.739828e+10
-1.786964e+09		4.333925e+08		2.491742e+09
4.333925e+08		-4.039650e+09		1.998005e+09
2.491742e+09		1.998005e+09		-2.094685e+10
-1.545680e+09		-1.011454e-04		3.016379e+09
-1.011454e-04		-4.794902e+09		-3.251396e-04
3.016379e+09		-3.251396e-04		-2.013586e+10
-1.786964e+09		-4.333925e+08		2.491742e+09
-4.333925e+08		-4.039650e+09		-1.998005e+09
2.491742e+09		-1.998005e+09		-2.094685e+10
1.936224e+07		2.305315e+07		6.755187e+08
2.305315e+07		1.078930e+09		1.032249e+09
6.755187e+08		1.032249e+09		-1.739828e+10
-1.235417e+09		1.359549e+08		2.845057e+09
1.359549e+08		4.095906e+08		-5.314500e+08
2.845057e+09		-5.314500e+08		-1.213558e+10
-2.656169e+09		2.663709e+08		4.602690e+09
2.663709e+08		-1.959401e+09		6.173662e+08
4.602690e+09		6.173662e+08		-1.402266e+10
-3.551043e+09		6.484759e+08		5.364906e+09
6.484759e+08		-3.739057e+09		1.335458e+09
5.364906e+09		1.335458e+09		-1.539782e+10
-3.335583e+09		1.290746e+08		5.896836e+09
1.290746e+08		-3.845801e+09		5.007594e+08
5.896836e+09		5.007594e+08		-1.500437e+10
-3.417034e+09		-1.236782e-04		6.162150e+09
-1.236782e-04		-4.394779e+09		-3.155973e-04
6.162150e+09		-3.155973e-04		-1.487728e+10
-3.335583e+09		-1.290746e+08		5.896836e+09
-1.290746e+08		-3.845801e+09		-5.007594e+08
5.896836e+09		-5.007594e+08		-1.500437e+10
-3.551043e+09		-6.484759e+08		5.364906e+09
-6.484759e+08		-3.739057e+09		-1.335458e+09
5.364906e+09		-1.335458e+09		-1.539782e+10
-2.656169e+09		-2.663709e+08		4.602690e+09
-2.663709e+08		-1.959401e+09		-6.173662e+08
4.602690e+09		-6.173662e+08		-1.402266e+10
-1.235417e+09		-1.359549e+08		2.845057e+09
-1.359549e+08		4.095906e+08		5.314500e+08
2.845057e+09		5.314500e+08		-1.213558e+10
4.394308e+07		3.777661e+08		2.343404e+09
3.777661e+08		5.774200e+08		-2.616135e+08
2.343404e+09		-2.616135e+08		-5.644993e+09
-1.152091e+09		8.765319e+08		4.564812e+09
8.765319e+08		-1.522014e+09		6.613558e+08
4.564812e+09		6.613558e+08		-7.290501e+09
-1.067293e+09		2.848357e-05		5.227407e+09
2.848357e-05		-1.848307e+09		-2.249870e-04
5.227407e+09		-2.249870e-04		-7.014566e+09
-1.152091e+09		-8.765319e+08		4.564812e+09
-8.765319e+08		-1.522014e+09		-6.613558e+08
4.564812e+09		-6.613558e+08		-7.290501e+09
4.394308e+07		-3.777661e+08		2.343404e+09
-3.777661e+08		5.774200e+08		2.616135e+08
2.343404e+09		2.616135e+08		-5.644993e+09
4.618615e-05		3.718356e+08		2.555082e+09
3.718356e+08		2.037343e-04		-6.083911e-05
2.555082e+09		-6.083911e-05		1.085028e-04
-1.322553e-04		5.857259e+08		4.287394e+09
5.857259e+08		-3.058836e-05		-1.013121e-04
4.287394e+09		-1.013121e-04		-2.243929e-04
-1.134425e-04		1.011982e+09		4.907442e+09
1.011982e+09		-1.760945e-04		-1.326347e-04
4.907442e+09		-1.326347e-04		-4.120916e-04
-7.380918e-05		2.701249e+08		5.394696e+09
2.701249e+08		-1.208745e-04		-8.756574e-05
5.394696e+09		-8.756574e-05		-2.503172e-04
1.015365e-04		-5.672220e-05		5.553131e+09
-5.672220e-05		1.419336e-05		-1.727477e-04
5.553131e+09		-1.727477e-04		-2.519041e-05
-3.992692e-04		-2.701249e+08		5.394696e+09
-2.701249e+08		-2.652965e-04		-9.218138e-05
5.394696e+09		-9.218138e-05		-5.455241e-04
-7.829070e-05		-1.011982e+09		4.907442e+09
-1.011982e+09		-1.676418e-04		-1.443337e-04
4.907442e+09		-1.443337e-04		-7.214136e-04
-6.168336e-05		-5.857259e+08		4.287394e+09
-5.857259e+08		1.115892e-04		-7.763365e-05
4.287394e+09		-7.763365e-05		-5.410835e-04
1.191646e-04		-3.718356e+08		2.555082e+09
-3.718356e+08		4.431196e-04		2.015717e-04
2.555082e+09		2.015717e-04		-2.681464e-04
-4.394308e+07		3.777661e+08		2.343404e+09
3.777661e+08		-5.774200e+08		2.616135e+08
2.343404e+09		2.616135e+08		5.644993e+09
1.152091e+09		8.765319e+08		4.564812e+09
8.765319e+08		1.522014e+09		-6.613558e+08
4.564812e+09		-6.613558e+08		7.290501e+09
1.067293e+09		-2.243016e-04		5.227407e+09
-2.243016e-04		1.848307e+09		-9.623449e-05
5.227407e+09		-9.623449e-05		7.014566e+09
1.152091e+09		-8.765319e+08		4.564812e+09
-8.765319e+08		1.522014e+09		6.613558e+08
4.564812e+09		6.613558e+08		7.290501e+09
-4.394308e+07		-3.777661e+08		2.343404e+09
-3.777661e+08		-5.774200e+08		-2.616135e+08
2.343404e+09		-2.616135e+08		5.644993e+09
1.235417e+09		1.359549e+08		2.845057e+09
1.359549e+08		-4.095906e+08		5.314500e+08
2.845057e+09		5.314500e+08		1.213558e+10
2.656169e+09		2.663709e+08		4.602690e+09
2.663709e+08		1.959401e+09		-6.173662e+08
4.602690e+09		-6.173662e+08		1.402266e+10
3.551043e+09		6.484759e+08		5.364906e+09
6.484759e+08		3.739057e+09		-1.335458e+09
5.364906e+09		-1.335458e+09		1.539782e+10
3.335583e+09		1.290746e+08		5.896836e+09
1.290746e+08		3.845801e+09		-5.007594e+08
5.896836e+09		-5.007594e+08		1.500437e+10
3.417034e+09		-2.041645e-04		6.162150e+09
-2.041645e-04		4.394779e+09		3.666431e-05
6.162150e+09		3.666431e-05		1.487728e+10
3.335583e+09		-1.290746e+08		5.896836e+09
-1.290746e+08		3.845801e+09		5.007594e+08
5.896836e+09		5.007594e+08		1.500437e+10
3.551043e+09		-6.484759e+08		5.364906e+09
-6.484759e+08		3.739057e+09		1.335458e+09
5.364906e+09		1.335458e+09		1.539782e+10
2.656169e+09		-2.663709e+08		4.602690e+09
-2.663709e+08		1.959401e+09		6.173662e+08
4.602690e+09		6.173662e+08		1.402266e+10
1.235417e+09		-1.359549e+08		2.845057e+09
-1.359549e+08		-4.095906e+08		-5.314500e+08
2.845057e+09		-5.314500e+08		1.213558e+10
-1.936224e+07		-2.305315e+07		6.755187e+08
-2.305315e+07		-1.078930e+09		1.032249e+09
6.755187e+08		1.032249e+09		1.739828e+10
1.786964e+09		4.333925e+08		2.491742e+09
4.333925e+08		4.039650e+09		-1.998005e+09
2.491742e+09		-1.998005e+09		2.094685e+10
1.545680e+09		9.969622e-05		3.016379e+09
9.969622e-05		4.794902e+09		1.816582e-04
3.016379e+09		1.816582e-04		2.013586e+10
1.786964e+09		-4.333925e+08		2.491742e+09
-4.333925e+08		4.039650e+09		1.998005e+09
2.491742e+09		1.998005e+09		2.094685e+10
-1.936224e+07		2.305315e+07		6.755187e+08
2.305315e+07		-1.078930e+09		-1.032249e+09
6.755187e+08		-1.032249e+09		1.739828e+10
-2.085232e+09		-3.283319e+08		-1.627790e+09
-3.283319e+08		-1.970407e+09		7.156574e+08
-1.627790e+09		7.156574e+08		2.280041e+10
-1.136261e+09		-3.892859e+08		-7.820599e+08
-3.892859e+08		1.542932e+09		-1.662213e+09
-7.820599e+08		-1.662213e+09		2.502757e+10
-8.924265e+08		6.424945e+07		-8.542000e+08
6.424945e+07		4.049369e+09		-3.178250e+09
-8.542000e+08		-3.178250e+09		2.655609e+10
-1.374029e+09		8.713675e+06		-6.357199e+08
8.713675e+06		4.018863e+09		-1.215325e+09
-6.357199e+08		-1.215325e+09		2.577692e+10
-1.318299e+09		2.322691e-04		-6.759185e+08
2.322691e-04		4.869918e+09		4.852787e-04
-6.759185e+08		4.852787e-04		2.545986e+10
-1.374029e+09		-8.713675e+06		-6.357199e+08
-8.713675e+06		4.018863e+09		1.215325e+09
-6.357199e+08		1.215325e+09		2.577692e+10
-8.924265e+08		-6.424945e+07		-8.542000e+08
-6.424945e+07		4.049369e+09		3.178250e+09
-8.542000e+08		3.178250e+09		2.655609e+10
-1.136261e+09		3.892859e+08		-7.820599e+08
3.892859e+08		1.542932e+09		1.662213e+09
-7.820599e+08		1.662213e+09		2.502757e+10
-2.085232e+09		3.283319e+08		-1.627790e+09
3.283319e+08		-1.970407e+09		-7.156574e+08
-1.627790e+09		-7.156574e+08		2.280041e+10
-5.522716e+09		5.637649e+08		3.015738e+09
5.637649e+08		-5.671664e+09		5.865282e+09
3.015738e+09		5.865282e+09		-3.187625e+10
-5.516959e+09		2.141117e+07		5.393952e+09
2.141117e+07		-8.516471e+09		3.219753e+09
5.393952e+09		3.219753e+09		-3.091540e+10
-5.998012e+09		-6.087478e-04		5.627118e+09
-6.087478e-04		-1.038314e+10		-5.974770e-04
5.627118e+09		-5.974770e-04		-3.146299e+10
-5.516959e+09		-2.141117e+07		5.393952e+09
-2.141117e+07		-8.516471e+09		-3.219753e+09
5.393952e+09		-3.219753e+09		-3.091540e+10
-5.522716e+09		-5.637649e+08		3.015738e+09
-5.637649e+08		-5.671664e+09		-5.865282e+09
3.015738e+09		-5.865282e+09		-3.187625e+10
-3.205159e+09		4.524591e+08		6.905992e+08
4.524591e+08		-2.367328e+09		2.795110e+09
6.905992e+08		2.795110e+09		-1.424930e+10
-3.446112e+09		2.065728e+08		3.902018e+09
2.065728e+08		-3.715200e+09		1.382144e+09
3.902018e+09		1.382144e+09		-1.311672e+10
-3.612888e+09		-1.484156e-05		4.346080e+09
-1.484156e-05		-4.609487e+09		-2.415776e-04
4.346080e+09		-2.415776e-04		-1.311269e+10
-3.446112e+09		-2.065728e+08		3.902018e+09
-2.065728e+08		-3.715200e+09		-1.382144e+09
3.902018e+09		-1.382144e+09		-1.311672e+10
-3.205159e+09		-4.524591e+08		6.905992e+08
-4.524591e+08		-2.367328e+09		-2.795110e+09
6.905992e+08		-2.795110e+09		-1.424930e+10
-4.724860e-04		4.772170e+08		2.435753e+08
4.772170e+08		-1.671910e-04		-9.604171e-05
2.435753e+08		-9.604171e-05		-2.479553e-04
1.042485e-04		3.485559e+08		3.567178e+09
3.485559e+08		-1.634657e-05		-1.175448e-04
3.567178e+09		-1.175448e-04		-4.526973e-05
-3.574789e-04		-2.018623e-04		3.956382e+09
-2.018623e-04		-2.417415e-04		-9.821495e-05
3.956382e+09		-9.821495e-05		-4.476607e-04
-1.878738e-04		-3.485559e+08		3.567178e+09
-3.485559e+08		-1.557916e-04		-1.015738e-04
3.567178e+09		-1.015738e-04		-6.290376e-04
-1.099706e-05		-4.772170e+08		2.435753e+08
-4.772170e+08		6.270409e-05		-1.643747e-04
2.435753e+08		-1.643747e-04		-7.523894e-04
3.205159e+09		4.524591e+08		6.905992e+08
4.524591e+08		2.367328e+09		-2.795110e+09
6.905992e+08		-2.795110e+09		1.424930e+10
3.446112e+09		2.065728e+08		3.902018e+09
2.065728e+08		3.715200e+09		-1.382144e+09
3.902018e+09		-1.382144e+09		1.311672e+10
3.612888e+09		-1.097843e-05		4.346080e+09
-1.097843e-05		4.609487e+09		1.382604e-04
4.346080e+09		1.382604e-04		1.311269e+10
3.446112e+09		-2.065728e+08		3.902018e+09
-2.065728e+08		3.715200e+09		1.382144e+09
3.902018e+09		1.382144e+09		1.311672e+10
3.205159e+09		-4.524591e+08		6.905992e+08
-4.524591e+08		2.367328e+09		2.795110e+09
6.905992e+08		2.795110e+09		1.424930e+10
5.522716e+09		5.637649e+08		3.015738e+09
5.637649e+08		5.671664e+09		-5.865282e+09
3.015738e+09		-5.865282e+09		3.187625e+10
5.516959e+09		2.141117e+07		5.393952e+09
2.141117e+07		8.516471e+09		-3.219753e+09
5.393952e+09		-3.219753e+09		3.091540e+10
5.998012e+09		4.773773e-05		5.627118e+09
4.773773e-05		1.038314e+10		4.188418e-04
5.627118e+09		4.188418e-04		3.146299e+10
5.516959e+09		-2.141117e+07		5.393952e+09
-2.141117e+07		8.516471e+09		3.219753e+09
5.393952e+09		3.219753e+09		3.091540e+10
5.522716e+09		-5.637649e+08		3.015738e+09
-5.637649e+08		5.671664e+09		5.865282e+09
3.015738e+09		5.865282e+09		3.187625e+10
-1.982855e+10		-7.011294e-04		9.507704e+09
-7.011294e-04		-1.982855e+10		1.425327e+10
9.507704e+09		1.425327e+10		-4.413451e+10
-1.737529e+10		-1.758798e-04		1.132476e+10
-1.758798e-04		-1.737529e+10		8.005119e+09
1.132476e+10		8.005119e+09		-3.867402e+10
-1.609538e+10		-8.661614e-05		1.244870e+10
-8.661614e-05		-1.609538e+10		2.882994e+09
1.244870e+10		2.882994e+09		-3.582521e+10
-1.666608e+10		-2.678391e-05		1.299724e+10
-2.678391e-05		-1.666608e+10		1.233976e+09
1.299724e+10		1.233976e+09		-3.709548e+10
-1.736116e+10		-3.663858e-04		1.317664e+10
-3.663858e-04		-1.736116e+10		-6.254576e-04
1.317664e+10		-6.254576e-04		-3.864259e+10
-1.666608e+10		3.157184e-05		1.299724e+10
3.157184e-05		-1.666608e+10		-1.233976e+09
1.299724e+10		-1.233976e+09		-3.709548e+10
-1.609538e+10		-3.237617e-04		1.244870e+10
-3.237617e-04		-1.609538e+10		-2.882994e+09
1.244870e+10		-2.882994e+09		-3.582521e+10
-1.737529e+10		-2.240911e-04		1.132476e+10
-2.240911e-04		-1.737529e+10		-8.005119e+09
1.132476e+10		-8.005119e+09		-3.867402e+10
-1.982855e+10		-3.892928e-06		9.507704e+09
-3.892928e-06		-1.982855e+10		-1.425327e+10
9.507704e+09		-1.425327e+10		-4.413451e+10
-1.323881e+10		-1.157066e-04		3.187260e+09
-1.157066e-04		-1.323881e+10		1.060566e+10
3.187260e+09		1.060566e+10		-2.946703e+10
-9.480577e+09		-1.051938e-04		6.109113e+09
-1.051938e-04		-9.480577e+09		2.132042e+09
6.109113e+09		2.132042e+09		-2.110193e+10
-1.020607e+10		-1.933766e-04		6.538319e+09
-1.933766e-04		-1.020607e+10		-4.030280e-04
6.538319e+09		-4.030280e-04		-2.271674e+10
-9.480577e+09		-6.610341e-05		6.109113e+09
-6.610341e-05		-9.480577e+09		-2.132042e+09
6.109113e+09		-2.132042e+09		-2.110193e+10
-1.323881e+10		-1.039729e-04		3.187260e+09
-1.039729e-04		-1.323881e+10		-1.060566e+10
3.187260e+09		-1.060566e+10		-2.946703e+10
-7.617683e+09		-3.353420e-04		-1.590617e+09
-3.353420e-04		-7.617683e+09		7.003988e+09
-1.590617e+09		7.003988e+09		-1.695549e+10
-5.807516e+09		-7.185410e-05		4.989458e+08
-7.185410e-05		-5.807516e+09		3.910174e+09
4.989458e+08		3.910174e+09		-1.292641e+10
-4.614208e+09		-6.525323e-05		1.738279e+09
-6.525323e-05		-4.614208e+09		1.414637e+09
1.738279e+09		1.414637e+09		-1.027033e+10
-4.735005e+09		-1.464826e-04		1.960218e+09
-1.464826e-04		-4.735005e+09		5.819406e+08
1.960218e+09		5.819406e+08		-1.053920e+10
-5.001333e+09		-1.677045e-04		1.920593e+09
-1.677045e-04		-5.001333e+09		-2.202250e-04
1.920593e+09		-2.202250e-04		-1.113200e+10
-4.735005e+09		-1.193862e-04		1.960218e+09
-1.193862e-04		-4.735005e+09		-5.819406e+08
1.960218e+09		-5.819406e+08		-1.053920e+10
-4.614208e+09		-1.042143e-04		1.738279e+09
-1.042143e-04		-4.614208e+09		-1.414637e+09
1.738279e+09		-1.414637e+09		-1.027033e+10
-5.807516e+09		-3.129803e-05		4.989458e+08
-3.129803e-05		-5.807516e+09		-3.910174e+09
4.989458e+08		-3.910174e+09		-1.292641e+10
-7.617683e+09		-6.032176e-05		-1.590617e+09
-6.032176e-05		-7.617683e+09		-7.003988e+09
-1.590617e+09		-7.003988e+09		-1.695549e+10
-3.611583e+09		1.610019e-04		-2.029634e+09
1.610019e-04		-3.611583e+09		3.551231e+09
-2.029634e+09		3.551231e+09		-8.038684e+09
-2.085509e+09		-1.217793e-04		1.300214e+09
-1.217793e-04		-2.085509e+09		7.240979e+08
1.300214e+09		7.240979e+08		-4.641940e+09
-2.267537e+09		-1.652772e-05		1.503179e+09
-1.652772e-05		-2.267537e+09		-2.002763e-05
1.503179e+09		-2.002763e-05		-5.047099e+09
-2.085509e+09		-1.627551e-04		1.300214e+09
-1.627551e-04		-2.085509e+09		-7.240979e+08
1.300214e+09		-7.240979e+08		-4.641940e+09
-3.611583e+09		-2.097264e-04		-2.029634e+09
-2.097264e-04		-3.611583e+09		-3.551231e+09
-2.029634e+09		-3.551231e+09		-8.038684e+09
-1.091510e-05		-6.620478e-06		-1.769455e+09
-6.620478e-06		1.630932e-05		-4.750490e-05
-1.769455e+09		-4.750490e-05		8.033216e-05
-1.658499e-04		-3.647626e-05		4.235521e+08
-3.647626e-05		-6.356835e-05		-4.119799e-05
4.235521e+08		-4.119799e-05		-4.044175e-05
-3.366955e-04		-3.485645e-04		1.594838e+09
-3.485645e-04		-1.343973e-04		-2.587319e-05
1.594838e+09		-2.587319e-05		-9.844452e-05
-1.011342e-04		5.031005e-05		1.854442e+09
5.031005e-05		-1.046807e-04		4.947837e-05
1.854442e+09		4.947837e-05		-2.373457e-04
-1.078211e-04		-2.199119e-04		1.882492e+09
-2.199119e-04		-1.855306e-04		1.190426e-04
1.882492e+09		1.190426e-04		-4.894659e-04
-1.129210e-04		-3.598211e-05		1.854442e+09
-3.598211e-05		-1.618713e-04		6.858259e-06
1.854442e+09		6.858259e-06		-4.090071e-04
-8.465014e-04		-1.133780e-04		1.594838e+09
-1.133780e-04		-4.993156e-04		-1.093708e-04
1.594838e+09		-1.093708e-04		-7.515773e-04
-2.403706e-04		-4.251488e-06		4.235521e+08
-4.251488e-06		-2.930909e-04		-3.048629e-04
4.235521e+08		-3.048629e-04		-7.041693e-04
-4.083514e-04		1.303582e-04		-1.769455e+09
1.303582e-04		-4.937649e-04		-5.655885e-04
-1.769455e+09		-5.655885e-04		-1.182199e-03
3.611583e+09		-9.254938e-05		-2.029634e+09
-9.254938e-05		3.611583e+09		-3.551231e+09
-2.029634e+09		-3.551231e+09		8.038684e+09
2.085509e+09		1.470547e-04		1.300214e+09
1.470547e-04		2.085509e+09		-7.240979e+08
1.300214e+09		-7.240979e+08		4.641940e+09
2.267537e+09		-8.034753e-05		1.503179e+09
-8.034753e-05		2.267537e+09		4.977360e-05
1.503179e+09		4.977360e-05		5.047099e+09
2.085509e+09		-1.001246e-04		1.300214e+09
-1.001246e-04		2.085509e+09		7.240979e+08
1.300214e+09		7.240979e+08		4.641940e+09
3.611583e+09		4.693866e-06		-2.029634e+09
4.693866e-06		3.611583e+09		3.551231e+09
-2.029634e+09		3.551231e+09		8.038684e+09
7.617683e+09		-5.944725e-04		-1.590617e+09
-5.944725e-04		7.617683e+09		-7.003988e+09
-1.590617e+09		-7.003988e+09		1.695549e+10
5.807516e+09		-2.064488e-04		4.989458e+08
-2.064488e-04		5.807516e+09		-3.910174e+09
4.989458e+08		-3.910174e+09		1.292641e+10
4.614208e+09		-8.613468e-05		1.738279e+09
-8.613468e-05		4.614208e+09		-1.414637e+09
1.738279e+09		-1.414637e+09		1.027033e+10
4.735005e+09		-1.747613e-04		1.960218e+09
-1.747613e-04		4.735005e+09		-5.819406e+08
1.960218e+09		-5.819406e+08		1.053920e+10
5.001333e+09		-2.714791e-04		1.920593e+09
-2.714791e-04		5.001333e+09		1.168419e-04
1.920593e+09		1.168419e-04		1.113200e+10
4.735005e+09		-1.714103e-04		1.960218e+09
-1.714103e-04		4.735005e+09		5.819406e+08
1.960218e+09		5.819406e+08		1.053920e+10
4.614208e+09		-2.711948e-04		1.738279e+09
-2.711948e-04		4.614208e+09		1.414637e+09
1.738279e+09		1.414637e+09		1.027033e+10
5.807516e+09		-1.882073e-04		4.989458e+08
-1.882073e-04		5.807516e+09		3.910174e+09
4.989458e+08		3.910174e+09		1.292641e+10
7.617683e+09		-1.418050e-04		-1.590617e+09
-1.418050e-04		7.617683e+09		7.003988e+09
-1.590617e+09		7.003988e+09		1.695549e+10
1.323881e+10		9.525474e-05		3.187260e+09
9.525474e-05		1.323881e+10		-1.060566e+10
3.187260e+09		-1.060566e+10		2.946703e+10
9.480577e+09		6.145780e-05		6.109113e+09
6.145780e-05		9.480577e+09		-2.132042e+09
6.109113e+09		-2.132042e+09		2.110193e+10
1.020607e+10		-1.169436e-04		6.538319e+09
-1.169436e-04		1.020607e+10		2.038628e-04
6.538319e+09		2.038628e-04		2.271674e+10
9.480577e+09		-1.503171e-04		6.109113e+09
-1.503171e-04		9.480577e+09		2.132042e+09
6.109113e+09		2.132042e+09		2.110193e+10
1.323881e+10		-4.474819e-05		3.187260e+09
-4.474819e-05		1.323881e+10		1.060566e+10
3.187260e+09		1.060566e+10		2.946703e+10
1.982855e+10		-8.395081e-05		9.507704e+09
-8.395081e-05		1.982855e+10		-1.425327e+10
9.507704e+09		-1.425327e+10		4.413451e+10
1.737529e+10		-5.483069e-05		1.132476e+10
-5.483069e-05		1.737529e+10		-8.005119e+09
1.132476e+10		-8.005119e+09		3.867402e+10
1.609538e+10		-6.830264e-05		1.244870e+10
-6.830264e-05		1.609538e+10		-2.882994e+09
1.244870e+10		-2.882994e+09		3.582521e+10
1.666608e+10		-6.306800e-05		1.299724e+10
-6.306800e-05		1.666608e+10		-1.233976e+09
1.299724e+10		-1.233976e+09		3.709548e+10
1.736116e+10		-8.994911e-05		1.317664e+10
-8.994911e-05		1.736116e+10		4.712343e-04
1.317664e+10		4.712343e-04		3.864259e+10
1.666608e+10		-2.120752e-04		1.299724e+10
-2.120752e-04		1.666608e+10		1.233976e+09
1.299724e+10		1.233976e+09		3.709548e+10
1.609538e+10		-3.159270e-04		1.244870e+10
-3.159270e-04		1.609538e+10		2.882994e+09
1.244870e+10		2.882994e+09		3.582521e+10
1.737529e+10		-2.325922e-04		1.132476e+10
-2.325922e-04		1.737529e+10		8.005119e+09
1.132476e+10		8.005119e+09		3.867402e+10
1.982855e+10		-1.429915e-04		9.507704e+09
-1.429915e-04		1.982855e+10		1.425327e+10
9.507704e+09		1.425327e+10		4.413451e+10
